Minimize
 obj: 0

Subject To

deg0: x0_1 + x0_2 + x0_3 + x0_4 + x0_5 + x0_6 + x0_7 + x0_8 + x0_9 + x0_10 + x0_11 = 8
deg1: x0_1 + x1_2 + x1_3 + x1_4 + x1_5 + x1_6 + x1_7 + x1_8 + x1_9 + x1_10 + x1_11 = 8
deg2: x0_2 + x1_2 + x2_3 + x2_4 + x2_5 + x2_6 + x2_7 + x2_8 + x2_9 + x2_10 + x2_11 = 8
deg3: x0_3 + x1_3 + x2_3 + x3_4 + x3_5 + x3_6 + x3_7 + x3_8 + x3_9 + x3_10 + x3_11 = 8
deg4: x0_4 + x1_4 + x2_4 + x3_4 + x4_5 + x4_6 + x4_7 + x4_8 + x4_9 + x4_10 + x4_11 = 8
deg5: x0_5 + x1_5 + x2_5 + x3_5 + x4_5 + x5_6 + x5_7 + x5_8 + x5_9 + x5_10 + x5_11 = 8
deg6: x0_6 + x1_6 + x2_6 + x3_6 + x4_6 + x5_6 + x6_7 + x6_8 + x6_9 + x6_10 + x6_11 = 8
deg7: x0_7 + x1_7 + x2_7 + x3_7 + x4_7 + x5_7 + x6_7 + x7_8 + x7_9 + x7_10 + x7_11 = 8
deg8: x0_8 + x1_8 + x2_8 + x3_8 + x4_8 + x5_8 + x6_8 + x7_8 + x8_9 + x8_10 + x8_11 = 8
deg9: x0_9 + x1_9 + x2_9 + x3_9 + x4_9 + x5_9 + x6_9 + x7_9 + x8_9 + x9_10 + x9_11 = 8
deg10: x0_10 + x1_10 + x2_10 + x3_10 + x4_10 + x5_10 + x6_10 + x7_10 + x8_10 + x9_10 + x10_11 = 8
deg11: x0_11 + x1_11 + x2_11 + x3_11 + x4_11 + x5_11 + x6_11 + x7_11 + x8_11 + x9_11 + x10_11 = 8
tri1_0_1_2: t0_1_2 - x0_1 <= 0
tri2_0_1_2: t0_1_2 - x0_2 <= 0
tri3_0_1_2: t0_1_2 - x1_2 <= 0
tri4_0_1_2: t0_1_2 - x0_1 - x0_2 - x1_2 >= -2
tri1_0_1_3: t0_1_3 - x0_1 <= 0
tri2_0_1_3: t0_1_3 - x0_3 <= 0
tri3_0_1_3: t0_1_3 - x1_3 <= 0
tri4_0_1_3: t0_1_3 - x0_1 - x0_3 - x1_3 >= -2
tri1_0_1_4: t0_1_4 - x0_1 <= 0
tri2_0_1_4: t0_1_4 - x0_4 <= 0
tri3_0_1_4: t0_1_4 - x1_4 <= 0
tri4_0_1_4: t0_1_4 - x0_1 - x0_4 - x1_4 >= -2
tri1_0_1_5: t0_1_5 - x0_1 <= 0
tri2_0_1_5: t0_1_5 - x0_5 <= 0
tri3_0_1_5: t0_1_5 - x1_5 <= 0
tri4_0_1_5: t0_1_5 - x0_1 - x0_5 - x1_5 >= -2
tri1_0_1_6: t0_1_6 - x0_1 <= 0
tri2_0_1_6: t0_1_6 - x0_6 <= 0
tri3_0_1_6: t0_1_6 - x1_6 <= 0
tri4_0_1_6: t0_1_6 - x0_1 - x0_6 - x1_6 >= -2
tri1_0_1_7: t0_1_7 - x0_1 <= 0
tri2_0_1_7: t0_1_7 - x0_7 <= 0
tri3_0_1_7: t0_1_7 - x1_7 <= 0
tri4_0_1_7: t0_1_7 - x0_1 - x0_7 - x1_7 >= -2
tri1_0_1_8: t0_1_8 - x0_1 <= 0
tri2_0_1_8: t0_1_8 - x0_8 <= 0
tri3_0_1_8: t0_1_8 - x1_8 <= 0
tri4_0_1_8: t0_1_8 - x0_1 - x0_8 - x1_8 >= -2
tri1_0_1_9: t0_1_9 - x0_1 <= 0
tri2_0_1_9: t0_1_9 - x0_9 <= 0
tri3_0_1_9: t0_1_9 - x1_9 <= 0
tri4_0_1_9: t0_1_9 - x0_1 - x0_9 - x1_9 >= -2
tri1_0_1_10: t0_1_10 - x0_1 <= 0
tri2_0_1_10: t0_1_10 - x0_10 <= 0
tri3_0_1_10: t0_1_10 - x1_10 <= 0
tri4_0_1_10: t0_1_10 - x0_1 - x0_10 - x1_10 >= -2
tri1_0_1_11: t0_1_11 - x0_1 <= 0
tri2_0_1_11: t0_1_11 - x0_11 <= 0
tri3_0_1_11: t0_1_11 - x1_11 <= 0
tri4_0_1_11: t0_1_11 - x0_1 - x0_11 - x1_11 >= -2
tri1_0_2_3: t0_2_3 - x0_2 <= 0
tri2_0_2_3: t0_2_3 - x0_3 <= 0
tri3_0_2_3: t0_2_3 - x2_3 <= 0
tri4_0_2_3: t0_2_3 - x0_2 - x0_3 - x2_3 >= -2
tri1_0_2_4: t0_2_4 - x0_2 <= 0
tri2_0_2_4: t0_2_4 - x0_4 <= 0
tri3_0_2_4: t0_2_4 - x2_4 <= 0
tri4_0_2_4: t0_2_4 - x0_2 - x0_4 - x2_4 >= -2
tri1_0_2_5: t0_2_5 - x0_2 <= 0
tri2_0_2_5: t0_2_5 - x0_5 <= 0
tri3_0_2_5: t0_2_5 - x2_5 <= 0
tri4_0_2_5: t0_2_5 - x0_2 - x0_5 - x2_5 >= -2
tri1_0_2_6: t0_2_6 - x0_2 <= 0
tri2_0_2_6: t0_2_6 - x0_6 <= 0
tri3_0_2_6: t0_2_6 - x2_6 <= 0
tri4_0_2_6: t0_2_6 - x0_2 - x0_6 - x2_6 >= -2
tri1_0_2_7: t0_2_7 - x0_2 <= 0
tri2_0_2_7: t0_2_7 - x0_7 <= 0
tri3_0_2_7: t0_2_7 - x2_7 <= 0
tri4_0_2_7: t0_2_7 - x0_2 - x0_7 - x2_7 >= -2
tri1_0_2_8: t0_2_8 - x0_2 <= 0
tri2_0_2_8: t0_2_8 - x0_8 <= 0
tri3_0_2_8: t0_2_8 - x2_8 <= 0
tri4_0_2_8: t0_2_8 - x0_2 - x0_8 - x2_8 >= -2
tri1_0_2_9: t0_2_9 - x0_2 <= 0
tri2_0_2_9: t0_2_9 - x0_9 <= 0
tri3_0_2_9: t0_2_9 - x2_9 <= 0
tri4_0_2_9: t0_2_9 - x0_2 - x0_9 - x2_9 >= -2
tri1_0_2_10: t0_2_10 - x0_2 <= 0
tri2_0_2_10: t0_2_10 - x0_10 <= 0
tri3_0_2_10: t0_2_10 - x2_10 <= 0
tri4_0_2_10: t0_2_10 - x0_2 - x0_10 - x2_10 >= -2
tri1_0_2_11: t0_2_11 - x0_2 <= 0
tri2_0_2_11: t0_2_11 - x0_11 <= 0
tri3_0_2_11: t0_2_11 - x2_11 <= 0
tri4_0_2_11: t0_2_11 - x0_2 - x0_11 - x2_11 >= -2
tri1_0_3_4: t0_3_4 - x0_3 <= 0
tri2_0_3_4: t0_3_4 - x0_4 <= 0
tri3_0_3_4: t0_3_4 - x3_4 <= 0
tri4_0_3_4: t0_3_4 - x0_3 - x0_4 - x3_4 >= -2
tri1_0_3_5: t0_3_5 - x0_3 <= 0
tri2_0_3_5: t0_3_5 - x0_5 <= 0
tri3_0_3_5: t0_3_5 - x3_5 <= 0
tri4_0_3_5: t0_3_5 - x0_3 - x0_5 - x3_5 >= -2
tri1_0_3_6: t0_3_6 - x0_3 <= 0
tri2_0_3_6: t0_3_6 - x0_6 <= 0
tri3_0_3_6: t0_3_6 - x3_6 <= 0
tri4_0_3_6: t0_3_6 - x0_3 - x0_6 - x3_6 >= -2
tri1_0_3_7: t0_3_7 - x0_3 <= 0
tri2_0_3_7: t0_3_7 - x0_7 <= 0
tri3_0_3_7: t0_3_7 - x3_7 <= 0
tri4_0_3_7: t0_3_7 - x0_3 - x0_7 - x3_7 >= -2
tri1_0_3_8: t0_3_8 - x0_3 <= 0
tri2_0_3_8: t0_3_8 - x0_8 <= 0
tri3_0_3_8: t0_3_8 - x3_8 <= 0
tri4_0_3_8: t0_3_8 - x0_3 - x0_8 - x3_8 >= -2
tri1_0_3_9: t0_3_9 - x0_3 <= 0
tri2_0_3_9: t0_3_9 - x0_9 <= 0
tri3_0_3_9: t0_3_9 - x3_9 <= 0
tri4_0_3_9: t0_3_9 - x0_3 - x0_9 - x3_9 >= -2
tri1_0_3_10: t0_3_10 - x0_3 <= 0
tri2_0_3_10: t0_3_10 - x0_10 <= 0
tri3_0_3_10: t0_3_10 - x3_10 <= 0
tri4_0_3_10: t0_3_10 - x0_3 - x0_10 - x3_10 >= -2
tri1_0_3_11: t0_3_11 - x0_3 <= 0
tri2_0_3_11: t0_3_11 - x0_11 <= 0
tri3_0_3_11: t0_3_11 - x3_11 <= 0
tri4_0_3_11: t0_3_11 - x0_3 - x0_11 - x3_11 >= -2
tri1_0_4_5: t0_4_5 - x0_4 <= 0
tri2_0_4_5: t0_4_5 - x0_5 <= 0
tri3_0_4_5: t0_4_5 - x4_5 <= 0
tri4_0_4_5: t0_4_5 - x0_4 - x0_5 - x4_5 >= -2
tri1_0_4_6: t0_4_6 - x0_4 <= 0
tri2_0_4_6: t0_4_6 - x0_6 <= 0
tri3_0_4_6: t0_4_6 - x4_6 <= 0
tri4_0_4_6: t0_4_6 - x0_4 - x0_6 - x4_6 >= -2
tri1_0_4_7: t0_4_7 - x0_4 <= 0
tri2_0_4_7: t0_4_7 - x0_7 <= 0
tri3_0_4_7: t0_4_7 - x4_7 <= 0
tri4_0_4_7: t0_4_7 - x0_4 - x0_7 - x4_7 >= -2
tri1_0_4_8: t0_4_8 - x0_4 <= 0
tri2_0_4_8: t0_4_8 - x0_8 <= 0
tri3_0_4_8: t0_4_8 - x4_8 <= 0
tri4_0_4_8: t0_4_8 - x0_4 - x0_8 - x4_8 >= -2
tri1_0_4_9: t0_4_9 - x0_4 <= 0
tri2_0_4_9: t0_4_9 - x0_9 <= 0
tri3_0_4_9: t0_4_9 - x4_9 <= 0
tri4_0_4_9: t0_4_9 - x0_4 - x0_9 - x4_9 >= -2
tri1_0_4_10: t0_4_10 - x0_4 <= 0
tri2_0_4_10: t0_4_10 - x0_10 <= 0
tri3_0_4_10: t0_4_10 - x4_10 <= 0
tri4_0_4_10: t0_4_10 - x0_4 - x0_10 - x4_10 >= -2
tri1_0_4_11: t0_4_11 - x0_4 <= 0
tri2_0_4_11: t0_4_11 - x0_11 <= 0
tri3_0_4_11: t0_4_11 - x4_11 <= 0
tri4_0_4_11: t0_4_11 - x0_4 - x0_11 - x4_11 >= -2
tri1_0_5_6: t0_5_6 - x0_5 <= 0
tri2_0_5_6: t0_5_6 - x0_6 <= 0
tri3_0_5_6: t0_5_6 - x5_6 <= 0
tri4_0_5_6: t0_5_6 - x0_5 - x0_6 - x5_6 >= -2
tri1_0_5_7: t0_5_7 - x0_5 <= 0
tri2_0_5_7: t0_5_7 - x0_7 <= 0
tri3_0_5_7: t0_5_7 - x5_7 <= 0
tri4_0_5_7: t0_5_7 - x0_5 - x0_7 - x5_7 >= -2
tri1_0_5_8: t0_5_8 - x0_5 <= 0
tri2_0_5_8: t0_5_8 - x0_8 <= 0
tri3_0_5_8: t0_5_8 - x5_8 <= 0
tri4_0_5_8: t0_5_8 - x0_5 - x0_8 - x5_8 >= -2
tri1_0_5_9: t0_5_9 - x0_5 <= 0
tri2_0_5_9: t0_5_9 - x0_9 <= 0
tri3_0_5_9: t0_5_9 - x5_9 <= 0
tri4_0_5_9: t0_5_9 - x0_5 - x0_9 - x5_9 >= -2
tri1_0_5_10: t0_5_10 - x0_5 <= 0
tri2_0_5_10: t0_5_10 - x0_10 <= 0
tri3_0_5_10: t0_5_10 - x5_10 <= 0
tri4_0_5_10: t0_5_10 - x0_5 - x0_10 - x5_10 >= -2
tri1_0_5_11: t0_5_11 - x0_5 <= 0
tri2_0_5_11: t0_5_11 - x0_11 <= 0
tri3_0_5_11: t0_5_11 - x5_11 <= 0
tri4_0_5_11: t0_5_11 - x0_5 - x0_11 - x5_11 >= -2
tri1_0_6_7: t0_6_7 - x0_6 <= 0
tri2_0_6_7: t0_6_7 - x0_7 <= 0
tri3_0_6_7: t0_6_7 - x6_7 <= 0
tri4_0_6_7: t0_6_7 - x0_6 - x0_7 - x6_7 >= -2
tri1_0_6_8: t0_6_8 - x0_6 <= 0
tri2_0_6_8: t0_6_8 - x0_8 <= 0
tri3_0_6_8: t0_6_8 - x6_8 <= 0
tri4_0_6_8: t0_6_8 - x0_6 - x0_8 - x6_8 >= -2
tri1_0_6_9: t0_6_9 - x0_6 <= 0
tri2_0_6_9: t0_6_9 - x0_9 <= 0
tri3_0_6_9: t0_6_9 - x6_9 <= 0
tri4_0_6_9: t0_6_9 - x0_6 - x0_9 - x6_9 >= -2
tri1_0_6_10: t0_6_10 - x0_6 <= 0
tri2_0_6_10: t0_6_10 - x0_10 <= 0
tri3_0_6_10: t0_6_10 - x6_10 <= 0
tri4_0_6_10: t0_6_10 - x0_6 - x0_10 - x6_10 >= -2
tri1_0_6_11: t0_6_11 - x0_6 <= 0
tri2_0_6_11: t0_6_11 - x0_11 <= 0
tri3_0_6_11: t0_6_11 - x6_11 <= 0
tri4_0_6_11: t0_6_11 - x0_6 - x0_11 - x6_11 >= -2
tri1_0_7_8: t0_7_8 - x0_7 <= 0
tri2_0_7_8: t0_7_8 - x0_8 <= 0
tri3_0_7_8: t0_7_8 - x7_8 <= 0
tri4_0_7_8: t0_7_8 - x0_7 - x0_8 - x7_8 >= -2
tri1_0_7_9: t0_7_9 - x0_7 <= 0
tri2_0_7_9: t0_7_9 - x0_9 <= 0
tri3_0_7_9: t0_7_9 - x7_9 <= 0
tri4_0_7_9: t0_7_9 - x0_7 - x0_9 - x7_9 >= -2
tri1_0_7_10: t0_7_10 - x0_7 <= 0
tri2_0_7_10: t0_7_10 - x0_10 <= 0
tri3_0_7_10: t0_7_10 - x7_10 <= 0
tri4_0_7_10: t0_7_10 - x0_7 - x0_10 - x7_10 >= -2
tri1_0_7_11: t0_7_11 - x0_7 <= 0
tri2_0_7_11: t0_7_11 - x0_11 <= 0
tri3_0_7_11: t0_7_11 - x7_11 <= 0
tri4_0_7_11: t0_7_11 - x0_7 - x0_11 - x7_11 >= -2
tri1_0_8_9: t0_8_9 - x0_8 <= 0
tri2_0_8_9: t0_8_9 - x0_9 <= 0
tri3_0_8_9: t0_8_9 - x8_9 <= 0
tri4_0_8_9: t0_8_9 - x0_8 - x0_9 - x8_9 >= -2
tri1_0_8_10: t0_8_10 - x0_8 <= 0
tri2_0_8_10: t0_8_10 - x0_10 <= 0
tri3_0_8_10: t0_8_10 - x8_10 <= 0
tri4_0_8_10: t0_8_10 - x0_8 - x0_10 - x8_10 >= -2
tri1_0_8_11: t0_8_11 - x0_8 <= 0
tri2_0_8_11: t0_8_11 - x0_11 <= 0
tri3_0_8_11: t0_8_11 - x8_11 <= 0
tri4_0_8_11: t0_8_11 - x0_8 - x0_11 - x8_11 >= -2
tri1_0_9_10: t0_9_10 - x0_9 <= 0
tri2_0_9_10: t0_9_10 - x0_10 <= 0
tri3_0_9_10: t0_9_10 - x9_10 <= 0
tri4_0_9_10: t0_9_10 - x0_9 - x0_10 - x9_10 >= -2
tri1_0_9_11: t0_9_11 - x0_9 <= 0
tri2_0_9_11: t0_9_11 - x0_11 <= 0
tri3_0_9_11: t0_9_11 - x9_11 <= 0
tri4_0_9_11: t0_9_11 - x0_9 - x0_11 - x9_11 >= -2
tri1_0_10_11: t0_10_11 - x0_10 <= 0
tri2_0_10_11: t0_10_11 - x0_11 <= 0
tri3_0_10_11: t0_10_11 - x10_11 <= 0
tri4_0_10_11: t0_10_11 - x0_10 - x0_11 - x10_11 >= -2
tri1_1_2_3: t1_2_3 - x1_2 <= 0
tri2_1_2_3: t1_2_3 - x1_3 <= 0
tri3_1_2_3: t1_2_3 - x2_3 <= 0
tri4_1_2_3: t1_2_3 - x1_2 - x1_3 - x2_3 >= -2
tri1_1_2_4: t1_2_4 - x1_2 <= 0
tri2_1_2_4: t1_2_4 - x1_4 <= 0
tri3_1_2_4: t1_2_4 - x2_4 <= 0
tri4_1_2_4: t1_2_4 - x1_2 - x1_4 - x2_4 >= -2
tri1_1_2_5: t1_2_5 - x1_2 <= 0
tri2_1_2_5: t1_2_5 - x1_5 <= 0
tri3_1_2_5: t1_2_5 - x2_5 <= 0
tri4_1_2_5: t1_2_5 - x1_2 - x1_5 - x2_5 >= -2
tri1_1_2_6: t1_2_6 - x1_2 <= 0
tri2_1_2_6: t1_2_6 - x1_6 <= 0
tri3_1_2_6: t1_2_6 - x2_6 <= 0
tri4_1_2_6: t1_2_6 - x1_2 - x1_6 - x2_6 >= -2
tri1_1_2_7: t1_2_7 - x1_2 <= 0
tri2_1_2_7: t1_2_7 - x1_7 <= 0
tri3_1_2_7: t1_2_7 - x2_7 <= 0
tri4_1_2_7: t1_2_7 - x1_2 - x1_7 - x2_7 >= -2
tri1_1_2_8: t1_2_8 - x1_2 <= 0
tri2_1_2_8: t1_2_8 - x1_8 <= 0
tri3_1_2_8: t1_2_8 - x2_8 <= 0
tri4_1_2_8: t1_2_8 - x1_2 - x1_8 - x2_8 >= -2
tri1_1_2_9: t1_2_9 - x1_2 <= 0
tri2_1_2_9: t1_2_9 - x1_9 <= 0
tri3_1_2_9: t1_2_9 - x2_9 <= 0
tri4_1_2_9: t1_2_9 - x1_2 - x1_9 - x2_9 >= -2
tri1_1_2_10: t1_2_10 - x1_2 <= 0
tri2_1_2_10: t1_2_10 - x1_10 <= 0
tri3_1_2_10: t1_2_10 - x2_10 <= 0
tri4_1_2_10: t1_2_10 - x1_2 - x1_10 - x2_10 >= -2
tri1_1_2_11: t1_2_11 - x1_2 <= 0
tri2_1_2_11: t1_2_11 - x1_11 <= 0
tri3_1_2_11: t1_2_11 - x2_11 <= 0
tri4_1_2_11: t1_2_11 - x1_2 - x1_11 - x2_11 >= -2
tri1_1_3_4: t1_3_4 - x1_3 <= 0
tri2_1_3_4: t1_3_4 - x1_4 <= 0
tri3_1_3_4: t1_3_4 - x3_4 <= 0
tri4_1_3_4: t1_3_4 - x1_3 - x1_4 - x3_4 >= -2
tri1_1_3_5: t1_3_5 - x1_3 <= 0
tri2_1_3_5: t1_3_5 - x1_5 <= 0
tri3_1_3_5: t1_3_5 - x3_5 <= 0
tri4_1_3_5: t1_3_5 - x1_3 - x1_5 - x3_5 >= -2
tri1_1_3_6: t1_3_6 - x1_3 <= 0
tri2_1_3_6: t1_3_6 - x1_6 <= 0
tri3_1_3_6: t1_3_6 - x3_6 <= 0
tri4_1_3_6: t1_3_6 - x1_3 - x1_6 - x3_6 >= -2
tri1_1_3_7: t1_3_7 - x1_3 <= 0
tri2_1_3_7: t1_3_7 - x1_7 <= 0
tri3_1_3_7: t1_3_7 - x3_7 <= 0
tri4_1_3_7: t1_3_7 - x1_3 - x1_7 - x3_7 >= -2
tri1_1_3_8: t1_3_8 - x1_3 <= 0
tri2_1_3_8: t1_3_8 - x1_8 <= 0
tri3_1_3_8: t1_3_8 - x3_8 <= 0
tri4_1_3_8: t1_3_8 - x1_3 - x1_8 - x3_8 >= -2
tri1_1_3_9: t1_3_9 - x1_3 <= 0
tri2_1_3_9: t1_3_9 - x1_9 <= 0
tri3_1_3_9: t1_3_9 - x3_9 <= 0
tri4_1_3_9: t1_3_9 - x1_3 - x1_9 - x3_9 >= -2
tri1_1_3_10: t1_3_10 - x1_3 <= 0
tri2_1_3_10: t1_3_10 - x1_10 <= 0
tri3_1_3_10: t1_3_10 - x3_10 <= 0
tri4_1_3_10: t1_3_10 - x1_3 - x1_10 - x3_10 >= -2
tri1_1_3_11: t1_3_11 - x1_3 <= 0
tri2_1_3_11: t1_3_11 - x1_11 <= 0
tri3_1_3_11: t1_3_11 - x3_11 <= 0
tri4_1_3_11: t1_3_11 - x1_3 - x1_11 - x3_11 >= -2
tri1_1_4_5: t1_4_5 - x1_4 <= 0
tri2_1_4_5: t1_4_5 - x1_5 <= 0
tri3_1_4_5: t1_4_5 - x4_5 <= 0
tri4_1_4_5: t1_4_5 - x1_4 - x1_5 - x4_5 >= -2
tri1_1_4_6: t1_4_6 - x1_4 <= 0
tri2_1_4_6: t1_4_6 - x1_6 <= 0
tri3_1_4_6: t1_4_6 - x4_6 <= 0
tri4_1_4_6: t1_4_6 - x1_4 - x1_6 - x4_6 >= -2
tri1_1_4_7: t1_4_7 - x1_4 <= 0
tri2_1_4_7: t1_4_7 - x1_7 <= 0
tri3_1_4_7: t1_4_7 - x4_7 <= 0
tri4_1_4_7: t1_4_7 - x1_4 - x1_7 - x4_7 >= -2
tri1_1_4_8: t1_4_8 - x1_4 <= 0
tri2_1_4_8: t1_4_8 - x1_8 <= 0
tri3_1_4_8: t1_4_8 - x4_8 <= 0
tri4_1_4_8: t1_4_8 - x1_4 - x1_8 - x4_8 >= -2
tri1_1_4_9: t1_4_9 - x1_4 <= 0
tri2_1_4_9: t1_4_9 - x1_9 <= 0
tri3_1_4_9: t1_4_9 - x4_9 <= 0
tri4_1_4_9: t1_4_9 - x1_4 - x1_9 - x4_9 >= -2
tri1_1_4_10: t1_4_10 - x1_4 <= 0
tri2_1_4_10: t1_4_10 - x1_10 <= 0
tri3_1_4_10: t1_4_10 - x4_10 <= 0
tri4_1_4_10: t1_4_10 - x1_4 - x1_10 - x4_10 >= -2
tri1_1_4_11: t1_4_11 - x1_4 <= 0
tri2_1_4_11: t1_4_11 - x1_11 <= 0
tri3_1_4_11: t1_4_11 - x4_11 <= 0
tri4_1_4_11: t1_4_11 - x1_4 - x1_11 - x4_11 >= -2
tri1_1_5_6: t1_5_6 - x1_5 <= 0
tri2_1_5_6: t1_5_6 - x1_6 <= 0
tri3_1_5_6: t1_5_6 - x5_6 <= 0
tri4_1_5_6: t1_5_6 - x1_5 - x1_6 - x5_6 >= -2
tri1_1_5_7: t1_5_7 - x1_5 <= 0
tri2_1_5_7: t1_5_7 - x1_7 <= 0
tri3_1_5_7: t1_5_7 - x5_7 <= 0
tri4_1_5_7: t1_5_7 - x1_5 - x1_7 - x5_7 >= -2
tri1_1_5_8: t1_5_8 - x1_5 <= 0
tri2_1_5_8: t1_5_8 - x1_8 <= 0
tri3_1_5_8: t1_5_8 - x5_8 <= 0
tri4_1_5_8: t1_5_8 - x1_5 - x1_8 - x5_8 >= -2
tri1_1_5_9: t1_5_9 - x1_5 <= 0
tri2_1_5_9: t1_5_9 - x1_9 <= 0
tri3_1_5_9: t1_5_9 - x5_9 <= 0
tri4_1_5_9: t1_5_9 - x1_5 - x1_9 - x5_9 >= -2
tri1_1_5_10: t1_5_10 - x1_5 <= 0
tri2_1_5_10: t1_5_10 - x1_10 <= 0
tri3_1_5_10: t1_5_10 - x5_10 <= 0
tri4_1_5_10: t1_5_10 - x1_5 - x1_10 - x5_10 >= -2
tri1_1_5_11: t1_5_11 - x1_5 <= 0
tri2_1_5_11: t1_5_11 - x1_11 <= 0
tri3_1_5_11: t1_5_11 - x5_11 <= 0
tri4_1_5_11: t1_5_11 - x1_5 - x1_11 - x5_11 >= -2
tri1_1_6_7: t1_6_7 - x1_6 <= 0
tri2_1_6_7: t1_6_7 - x1_7 <= 0
tri3_1_6_7: t1_6_7 - x6_7 <= 0
tri4_1_6_7: t1_6_7 - x1_6 - x1_7 - x6_7 >= -2
tri1_1_6_8: t1_6_8 - x1_6 <= 0
tri2_1_6_8: t1_6_8 - x1_8 <= 0
tri3_1_6_8: t1_6_8 - x6_8 <= 0
tri4_1_6_8: t1_6_8 - x1_6 - x1_8 - x6_8 >= -2
tri1_1_6_9: t1_6_9 - x1_6 <= 0
tri2_1_6_9: t1_6_9 - x1_9 <= 0
tri3_1_6_9: t1_6_9 - x6_9 <= 0
tri4_1_6_9: t1_6_9 - x1_6 - x1_9 - x6_9 >= -2
tri1_1_6_10: t1_6_10 - x1_6 <= 0
tri2_1_6_10: t1_6_10 - x1_10 <= 0
tri3_1_6_10: t1_6_10 - x6_10 <= 0
tri4_1_6_10: t1_6_10 - x1_6 - x1_10 - x6_10 >= -2
tri1_1_6_11: t1_6_11 - x1_6 <= 0
tri2_1_6_11: t1_6_11 - x1_11 <= 0
tri3_1_6_11: t1_6_11 - x6_11 <= 0
tri4_1_6_11: t1_6_11 - x1_6 - x1_11 - x6_11 >= -2
tri1_1_7_8: t1_7_8 - x1_7 <= 0
tri2_1_7_8: t1_7_8 - x1_8 <= 0
tri3_1_7_8: t1_7_8 - x7_8 <= 0
tri4_1_7_8: t1_7_8 - x1_7 - x1_8 - x7_8 >= -2
tri1_1_7_9: t1_7_9 - x1_7 <= 0
tri2_1_7_9: t1_7_9 - x1_9 <= 0
tri3_1_7_9: t1_7_9 - x7_9 <= 0
tri4_1_7_9: t1_7_9 - x1_7 - x1_9 - x7_9 >= -2
tri1_1_7_10: t1_7_10 - x1_7 <= 0
tri2_1_7_10: t1_7_10 - x1_10 <= 0
tri3_1_7_10: t1_7_10 - x7_10 <= 0
tri4_1_7_10: t1_7_10 - x1_7 - x1_10 - x7_10 >= -2
tri1_1_7_11: t1_7_11 - x1_7 <= 0
tri2_1_7_11: t1_7_11 - x1_11 <= 0
tri3_1_7_11: t1_7_11 - x7_11 <= 0
tri4_1_7_11: t1_7_11 - x1_7 - x1_11 - x7_11 >= -2
tri1_1_8_9: t1_8_9 - x1_8 <= 0
tri2_1_8_9: t1_8_9 - x1_9 <= 0
tri3_1_8_9: t1_8_9 - x8_9 <= 0
tri4_1_8_9: t1_8_9 - x1_8 - x1_9 - x8_9 >= -2
tri1_1_8_10: t1_8_10 - x1_8 <= 0
tri2_1_8_10: t1_8_10 - x1_10 <= 0
tri3_1_8_10: t1_8_10 - x8_10 <= 0
tri4_1_8_10: t1_8_10 - x1_8 - x1_10 - x8_10 >= -2
tri1_1_8_11: t1_8_11 - x1_8 <= 0
tri2_1_8_11: t1_8_11 - x1_11 <= 0
tri3_1_8_11: t1_8_11 - x8_11 <= 0
tri4_1_8_11: t1_8_11 - x1_8 - x1_11 - x8_11 >= -2
tri1_1_9_10: t1_9_10 - x1_9 <= 0
tri2_1_9_10: t1_9_10 - x1_10 <= 0
tri3_1_9_10: t1_9_10 - x9_10 <= 0
tri4_1_9_10: t1_9_10 - x1_9 - x1_10 - x9_10 >= -2
tri1_1_9_11: t1_9_11 - x1_9 <= 0
tri2_1_9_11: t1_9_11 - x1_11 <= 0
tri3_1_9_11: t1_9_11 - x9_11 <= 0
tri4_1_9_11: t1_9_11 - x1_9 - x1_11 - x9_11 >= -2
tri1_1_10_11: t1_10_11 - x1_10 <= 0
tri2_1_10_11: t1_10_11 - x1_11 <= 0
tri3_1_10_11: t1_10_11 - x10_11 <= 0
tri4_1_10_11: t1_10_11 - x1_10 - x1_11 - x10_11 >= -2
tri1_2_3_4: t2_3_4 - x2_3 <= 0
tri2_2_3_4: t2_3_4 - x2_4 <= 0
tri3_2_3_4: t2_3_4 - x3_4 <= 0
tri4_2_3_4: t2_3_4 - x2_3 - x2_4 - x3_4 >= -2
tri1_2_3_5: t2_3_5 - x2_3 <= 0
tri2_2_3_5: t2_3_5 - x2_5 <= 0
tri3_2_3_5: t2_3_5 - x3_5 <= 0
tri4_2_3_5: t2_3_5 - x2_3 - x2_5 - x3_5 >= -2
tri1_2_3_6: t2_3_6 - x2_3 <= 0
tri2_2_3_6: t2_3_6 - x2_6 <= 0
tri3_2_3_6: t2_3_6 - x3_6 <= 0
tri4_2_3_6: t2_3_6 - x2_3 - x2_6 - x3_6 >= -2
tri1_2_3_7: t2_3_7 - x2_3 <= 0
tri2_2_3_7: t2_3_7 - x2_7 <= 0
tri3_2_3_7: t2_3_7 - x3_7 <= 0
tri4_2_3_7: t2_3_7 - x2_3 - x2_7 - x3_7 >= -2
tri1_2_3_8: t2_3_8 - x2_3 <= 0
tri2_2_3_8: t2_3_8 - x2_8 <= 0
tri3_2_3_8: t2_3_8 - x3_8 <= 0
tri4_2_3_8: t2_3_8 - x2_3 - x2_8 - x3_8 >= -2
tri1_2_3_9: t2_3_9 - x2_3 <= 0
tri2_2_3_9: t2_3_9 - x2_9 <= 0
tri3_2_3_9: t2_3_9 - x3_9 <= 0
tri4_2_3_9: t2_3_9 - x2_3 - x2_9 - x3_9 >= -2
tri1_2_3_10: t2_3_10 - x2_3 <= 0
tri2_2_3_10: t2_3_10 - x2_10 <= 0
tri3_2_3_10: t2_3_10 - x3_10 <= 0
tri4_2_3_10: t2_3_10 - x2_3 - x2_10 - x3_10 >= -2
tri1_2_3_11: t2_3_11 - x2_3 <= 0
tri2_2_3_11: t2_3_11 - x2_11 <= 0
tri3_2_3_11: t2_3_11 - x3_11 <= 0
tri4_2_3_11: t2_3_11 - x2_3 - x2_11 - x3_11 >= -2
tri1_2_4_5: t2_4_5 - x2_4 <= 0
tri2_2_4_5: t2_4_5 - x2_5 <= 0
tri3_2_4_5: t2_4_5 - x4_5 <= 0
tri4_2_4_5: t2_4_5 - x2_4 - x2_5 - x4_5 >= -2
tri1_2_4_6: t2_4_6 - x2_4 <= 0
tri2_2_4_6: t2_4_6 - x2_6 <= 0
tri3_2_4_6: t2_4_6 - x4_6 <= 0
tri4_2_4_6: t2_4_6 - x2_4 - x2_6 - x4_6 >= -2
tri1_2_4_7: t2_4_7 - x2_4 <= 0
tri2_2_4_7: t2_4_7 - x2_7 <= 0
tri3_2_4_7: t2_4_7 - x4_7 <= 0
tri4_2_4_7: t2_4_7 - x2_4 - x2_7 - x4_7 >= -2
tri1_2_4_8: t2_4_8 - x2_4 <= 0
tri2_2_4_8: t2_4_8 - x2_8 <= 0
tri3_2_4_8: t2_4_8 - x4_8 <= 0
tri4_2_4_8: t2_4_8 - x2_4 - x2_8 - x4_8 >= -2
tri1_2_4_9: t2_4_9 - x2_4 <= 0
tri2_2_4_9: t2_4_9 - x2_9 <= 0
tri3_2_4_9: t2_4_9 - x4_9 <= 0
tri4_2_4_9: t2_4_9 - x2_4 - x2_9 - x4_9 >= -2
tri1_2_4_10: t2_4_10 - x2_4 <= 0
tri2_2_4_10: t2_4_10 - x2_10 <= 0
tri3_2_4_10: t2_4_10 - x4_10 <= 0
tri4_2_4_10: t2_4_10 - x2_4 - x2_10 - x4_10 >= -2
tri1_2_4_11: t2_4_11 - x2_4 <= 0
tri2_2_4_11: t2_4_11 - x2_11 <= 0
tri3_2_4_11: t2_4_11 - x4_11 <= 0
tri4_2_4_11: t2_4_11 - x2_4 - x2_11 - x4_11 >= -2
tri1_2_5_6: t2_5_6 - x2_5 <= 0
tri2_2_5_6: t2_5_6 - x2_6 <= 0
tri3_2_5_6: t2_5_6 - x5_6 <= 0
tri4_2_5_6: t2_5_6 - x2_5 - x2_6 - x5_6 >= -2
tri1_2_5_7: t2_5_7 - x2_5 <= 0
tri2_2_5_7: t2_5_7 - x2_7 <= 0
tri3_2_5_7: t2_5_7 - x5_7 <= 0
tri4_2_5_7: t2_5_7 - x2_5 - x2_7 - x5_7 >= -2
tri1_2_5_8: t2_5_8 - x2_5 <= 0
tri2_2_5_8: t2_5_8 - x2_8 <= 0
tri3_2_5_8: t2_5_8 - x5_8 <= 0
tri4_2_5_8: t2_5_8 - x2_5 - x2_8 - x5_8 >= -2
tri1_2_5_9: t2_5_9 - x2_5 <= 0
tri2_2_5_9: t2_5_9 - x2_9 <= 0
tri3_2_5_9: t2_5_9 - x5_9 <= 0
tri4_2_5_9: t2_5_9 - x2_5 - x2_9 - x5_9 >= -2
tri1_2_5_10: t2_5_10 - x2_5 <= 0
tri2_2_5_10: t2_5_10 - x2_10 <= 0
tri3_2_5_10: t2_5_10 - x5_10 <= 0
tri4_2_5_10: t2_5_10 - x2_5 - x2_10 - x5_10 >= -2
tri1_2_5_11: t2_5_11 - x2_5 <= 0
tri2_2_5_11: t2_5_11 - x2_11 <= 0
tri3_2_5_11: t2_5_11 - x5_11 <= 0
tri4_2_5_11: t2_5_11 - x2_5 - x2_11 - x5_11 >= -2
tri1_2_6_7: t2_6_7 - x2_6 <= 0
tri2_2_6_7: t2_6_7 - x2_7 <= 0
tri3_2_6_7: t2_6_7 - x6_7 <= 0
tri4_2_6_7: t2_6_7 - x2_6 - x2_7 - x6_7 >= -2
tri1_2_6_8: t2_6_8 - x2_6 <= 0
tri2_2_6_8: t2_6_8 - x2_8 <= 0
tri3_2_6_8: t2_6_8 - x6_8 <= 0
tri4_2_6_8: t2_6_8 - x2_6 - x2_8 - x6_8 >= -2
tri1_2_6_9: t2_6_9 - x2_6 <= 0
tri2_2_6_9: t2_6_9 - x2_9 <= 0
tri3_2_6_9: t2_6_9 - x6_9 <= 0
tri4_2_6_9: t2_6_9 - x2_6 - x2_9 - x6_9 >= -2
tri1_2_6_10: t2_6_10 - x2_6 <= 0
tri2_2_6_10: t2_6_10 - x2_10 <= 0
tri3_2_6_10: t2_6_10 - x6_10 <= 0
tri4_2_6_10: t2_6_10 - x2_6 - x2_10 - x6_10 >= -2
tri1_2_6_11: t2_6_11 - x2_6 <= 0
tri2_2_6_11: t2_6_11 - x2_11 <= 0
tri3_2_6_11: t2_6_11 - x6_11 <= 0
tri4_2_6_11: t2_6_11 - x2_6 - x2_11 - x6_11 >= -2
tri1_2_7_8: t2_7_8 - x2_7 <= 0
tri2_2_7_8: t2_7_8 - x2_8 <= 0
tri3_2_7_8: t2_7_8 - x7_8 <= 0
tri4_2_7_8: t2_7_8 - x2_7 - x2_8 - x7_8 >= -2
tri1_2_7_9: t2_7_9 - x2_7 <= 0
tri2_2_7_9: t2_7_9 - x2_9 <= 0
tri3_2_7_9: t2_7_9 - x7_9 <= 0
tri4_2_7_9: t2_7_9 - x2_7 - x2_9 - x7_9 >= -2
tri1_2_7_10: t2_7_10 - x2_7 <= 0
tri2_2_7_10: t2_7_10 - x2_10 <= 0
tri3_2_7_10: t2_7_10 - x7_10 <= 0
tri4_2_7_10: t2_7_10 - x2_7 - x2_10 - x7_10 >= -2
tri1_2_7_11: t2_7_11 - x2_7 <= 0
tri2_2_7_11: t2_7_11 - x2_11 <= 0
tri3_2_7_11: t2_7_11 - x7_11 <= 0
tri4_2_7_11: t2_7_11 - x2_7 - x2_11 - x7_11 >= -2
tri1_2_8_9: t2_8_9 - x2_8 <= 0
tri2_2_8_9: t2_8_9 - x2_9 <= 0
tri3_2_8_9: t2_8_9 - x8_9 <= 0
tri4_2_8_9: t2_8_9 - x2_8 - x2_9 - x8_9 >= -2
tri1_2_8_10: t2_8_10 - x2_8 <= 0
tri2_2_8_10: t2_8_10 - x2_10 <= 0
tri3_2_8_10: t2_8_10 - x8_10 <= 0
tri4_2_8_10: t2_8_10 - x2_8 - x2_10 - x8_10 >= -2
tri1_2_8_11: t2_8_11 - x2_8 <= 0
tri2_2_8_11: t2_8_11 - x2_11 <= 0
tri3_2_8_11: t2_8_11 - x8_11 <= 0
tri4_2_8_11: t2_8_11 - x2_8 - x2_11 - x8_11 >= -2
tri1_2_9_10: t2_9_10 - x2_9 <= 0
tri2_2_9_10: t2_9_10 - x2_10 <= 0
tri3_2_9_10: t2_9_10 - x9_10 <= 0
tri4_2_9_10: t2_9_10 - x2_9 - x2_10 - x9_10 >= -2
tri1_2_9_11: t2_9_11 - x2_9 <= 0
tri2_2_9_11: t2_9_11 - x2_11 <= 0
tri3_2_9_11: t2_9_11 - x9_11 <= 0
tri4_2_9_11: t2_9_11 - x2_9 - x2_11 - x9_11 >= -2
tri1_2_10_11: t2_10_11 - x2_10 <= 0
tri2_2_10_11: t2_10_11 - x2_11 <= 0
tri3_2_10_11: t2_10_11 - x10_11 <= 0
tri4_2_10_11: t2_10_11 - x2_10 - x2_11 - x10_11 >= -2
tri1_3_4_5: t3_4_5 - x3_4 <= 0
tri2_3_4_5: t3_4_5 - x3_5 <= 0
tri3_3_4_5: t3_4_5 - x4_5 <= 0
tri4_3_4_5: t3_4_5 - x3_4 - x3_5 - x4_5 >= -2
tri1_3_4_6: t3_4_6 - x3_4 <= 0
tri2_3_4_6: t3_4_6 - x3_6 <= 0
tri3_3_4_6: t3_4_6 - x4_6 <= 0
tri4_3_4_6: t3_4_6 - x3_4 - x3_6 - x4_6 >= -2
tri1_3_4_7: t3_4_7 - x3_4 <= 0
tri2_3_4_7: t3_4_7 - x3_7 <= 0
tri3_3_4_7: t3_4_7 - x4_7 <= 0
tri4_3_4_7: t3_4_7 - x3_4 - x3_7 - x4_7 >= -2
tri1_3_4_8: t3_4_8 - x3_4 <= 0
tri2_3_4_8: t3_4_8 - x3_8 <= 0
tri3_3_4_8: t3_4_8 - x4_8 <= 0
tri4_3_4_8: t3_4_8 - x3_4 - x3_8 - x4_8 >= -2
tri1_3_4_9: t3_4_9 - x3_4 <= 0
tri2_3_4_9: t3_4_9 - x3_9 <= 0
tri3_3_4_9: t3_4_9 - x4_9 <= 0
tri4_3_4_9: t3_4_9 - x3_4 - x3_9 - x4_9 >= -2
tri1_3_4_10: t3_4_10 - x3_4 <= 0
tri2_3_4_10: t3_4_10 - x3_10 <= 0
tri3_3_4_10: t3_4_10 - x4_10 <= 0
tri4_3_4_10: t3_4_10 - x3_4 - x3_10 - x4_10 >= -2
tri1_3_4_11: t3_4_11 - x3_4 <= 0
tri2_3_4_11: t3_4_11 - x3_11 <= 0
tri3_3_4_11: t3_4_11 - x4_11 <= 0
tri4_3_4_11: t3_4_11 - x3_4 - x3_11 - x4_11 >= -2
tri1_3_5_6: t3_5_6 - x3_5 <= 0
tri2_3_5_6: t3_5_6 - x3_6 <= 0
tri3_3_5_6: t3_5_6 - x5_6 <= 0
tri4_3_5_6: t3_5_6 - x3_5 - x3_6 - x5_6 >= -2
tri1_3_5_7: t3_5_7 - x3_5 <= 0
tri2_3_5_7: t3_5_7 - x3_7 <= 0
tri3_3_5_7: t3_5_7 - x5_7 <= 0
tri4_3_5_7: t3_5_7 - x3_5 - x3_7 - x5_7 >= -2
tri1_3_5_8: t3_5_8 - x3_5 <= 0
tri2_3_5_8: t3_5_8 - x3_8 <= 0
tri3_3_5_8: t3_5_8 - x5_8 <= 0
tri4_3_5_8: t3_5_8 - x3_5 - x3_8 - x5_8 >= -2
tri1_3_5_9: t3_5_9 - x3_5 <= 0
tri2_3_5_9: t3_5_9 - x3_9 <= 0
tri3_3_5_9: t3_5_9 - x5_9 <= 0
tri4_3_5_9: t3_5_9 - x3_5 - x3_9 - x5_9 >= -2
tri1_3_5_10: t3_5_10 - x3_5 <= 0
tri2_3_5_10: t3_5_10 - x3_10 <= 0
tri3_3_5_10: t3_5_10 - x5_10 <= 0
tri4_3_5_10: t3_5_10 - x3_5 - x3_10 - x5_10 >= -2
tri1_3_5_11: t3_5_11 - x3_5 <= 0
tri2_3_5_11: t3_5_11 - x3_11 <= 0
tri3_3_5_11: t3_5_11 - x5_11 <= 0
tri4_3_5_11: t3_5_11 - x3_5 - x3_11 - x5_11 >= -2
tri1_3_6_7: t3_6_7 - x3_6 <= 0
tri2_3_6_7: t3_6_7 - x3_7 <= 0
tri3_3_6_7: t3_6_7 - x6_7 <= 0
tri4_3_6_7: t3_6_7 - x3_6 - x3_7 - x6_7 >= -2
tri1_3_6_8: t3_6_8 - x3_6 <= 0
tri2_3_6_8: t3_6_8 - x3_8 <= 0
tri3_3_6_8: t3_6_8 - x6_8 <= 0
tri4_3_6_8: t3_6_8 - x3_6 - x3_8 - x6_8 >= -2
tri1_3_6_9: t3_6_9 - x3_6 <= 0
tri2_3_6_9: t3_6_9 - x3_9 <= 0
tri3_3_6_9: t3_6_9 - x6_9 <= 0
tri4_3_6_9: t3_6_9 - x3_6 - x3_9 - x6_9 >= -2
tri1_3_6_10: t3_6_10 - x3_6 <= 0
tri2_3_6_10: t3_6_10 - x3_10 <= 0
tri3_3_6_10: t3_6_10 - x6_10 <= 0
tri4_3_6_10: t3_6_10 - x3_6 - x3_10 - x6_10 >= -2
tri1_3_6_11: t3_6_11 - x3_6 <= 0
tri2_3_6_11: t3_6_11 - x3_11 <= 0
tri3_3_6_11: t3_6_11 - x6_11 <= 0
tri4_3_6_11: t3_6_11 - x3_6 - x3_11 - x6_11 >= -2
tri1_3_7_8: t3_7_8 - x3_7 <= 0
tri2_3_7_8: t3_7_8 - x3_8 <= 0
tri3_3_7_8: t3_7_8 - x7_8 <= 0
tri4_3_7_8: t3_7_8 - x3_7 - x3_8 - x7_8 >= -2
tri1_3_7_9: t3_7_9 - x3_7 <= 0
tri2_3_7_9: t3_7_9 - x3_9 <= 0
tri3_3_7_9: t3_7_9 - x7_9 <= 0
tri4_3_7_9: t3_7_9 - x3_7 - x3_9 - x7_9 >= -2
tri1_3_7_10: t3_7_10 - x3_7 <= 0
tri2_3_7_10: t3_7_10 - x3_10 <= 0
tri3_3_7_10: t3_7_10 - x7_10 <= 0
tri4_3_7_10: t3_7_10 - x3_7 - x3_10 - x7_10 >= -2
tri1_3_7_11: t3_7_11 - x3_7 <= 0
tri2_3_7_11: t3_7_11 - x3_11 <= 0
tri3_3_7_11: t3_7_11 - x7_11 <= 0
tri4_3_7_11: t3_7_11 - x3_7 - x3_11 - x7_11 >= -2
tri1_3_8_9: t3_8_9 - x3_8 <= 0
tri2_3_8_9: t3_8_9 - x3_9 <= 0
tri3_3_8_9: t3_8_9 - x8_9 <= 0
tri4_3_8_9: t3_8_9 - x3_8 - x3_9 - x8_9 >= -2
tri1_3_8_10: t3_8_10 - x3_8 <= 0
tri2_3_8_10: t3_8_10 - x3_10 <= 0
tri3_3_8_10: t3_8_10 - x8_10 <= 0
tri4_3_8_10: t3_8_10 - x3_8 - x3_10 - x8_10 >= -2
tri1_3_8_11: t3_8_11 - x3_8 <= 0
tri2_3_8_11: t3_8_11 - x3_11 <= 0
tri3_3_8_11: t3_8_11 - x8_11 <= 0
tri4_3_8_11: t3_8_11 - x3_8 - x3_11 - x8_11 >= -2
tri1_3_9_10: t3_9_10 - x3_9 <= 0
tri2_3_9_10: t3_9_10 - x3_10 <= 0
tri3_3_9_10: t3_9_10 - x9_10 <= 0
tri4_3_9_10: t3_9_10 - x3_9 - x3_10 - x9_10 >= -2
tri1_3_9_11: t3_9_11 - x3_9 <= 0
tri2_3_9_11: t3_9_11 - x3_11 <= 0
tri3_3_9_11: t3_9_11 - x9_11 <= 0
tri4_3_9_11: t3_9_11 - x3_9 - x3_11 - x9_11 >= -2
tri1_3_10_11: t3_10_11 - x3_10 <= 0
tri2_3_10_11: t3_10_11 - x3_11 <= 0
tri3_3_10_11: t3_10_11 - x10_11 <= 0
tri4_3_10_11: t3_10_11 - x3_10 - x3_11 - x10_11 >= -2
tri1_4_5_6: t4_5_6 - x4_5 <= 0
tri2_4_5_6: t4_5_6 - x4_6 <= 0
tri3_4_5_6: t4_5_6 - x5_6 <= 0
tri4_4_5_6: t4_5_6 - x4_5 - x4_6 - x5_6 >= -2
tri1_4_5_7: t4_5_7 - x4_5 <= 0
tri2_4_5_7: t4_5_7 - x4_7 <= 0
tri3_4_5_7: t4_5_7 - x5_7 <= 0
tri4_4_5_7: t4_5_7 - x4_5 - x4_7 - x5_7 >= -2
tri1_4_5_8: t4_5_8 - x4_5 <= 0
tri2_4_5_8: t4_5_8 - x4_8 <= 0
tri3_4_5_8: t4_5_8 - x5_8 <= 0
tri4_4_5_8: t4_5_8 - x4_5 - x4_8 - x5_8 >= -2
tri1_4_5_9: t4_5_9 - x4_5 <= 0
tri2_4_5_9: t4_5_9 - x4_9 <= 0
tri3_4_5_9: t4_5_9 - x5_9 <= 0
tri4_4_5_9: t4_5_9 - x4_5 - x4_9 - x5_9 >= -2
tri1_4_5_10: t4_5_10 - x4_5 <= 0
tri2_4_5_10: t4_5_10 - x4_10 <= 0
tri3_4_5_10: t4_5_10 - x5_10 <= 0
tri4_4_5_10: t4_5_10 - x4_5 - x4_10 - x5_10 >= -2
tri1_4_5_11: t4_5_11 - x4_5 <= 0
tri2_4_5_11: t4_5_11 - x4_11 <= 0
tri3_4_5_11: t4_5_11 - x5_11 <= 0
tri4_4_5_11: t4_5_11 - x4_5 - x4_11 - x5_11 >= -2
tri1_4_6_7: t4_6_7 - x4_6 <= 0
tri2_4_6_7: t4_6_7 - x4_7 <= 0
tri3_4_6_7: t4_6_7 - x6_7 <= 0
tri4_4_6_7: t4_6_7 - x4_6 - x4_7 - x6_7 >= -2
tri1_4_6_8: t4_6_8 - x4_6 <= 0
tri2_4_6_8: t4_6_8 - x4_8 <= 0
tri3_4_6_8: t4_6_8 - x6_8 <= 0
tri4_4_6_8: t4_6_8 - x4_6 - x4_8 - x6_8 >= -2
tri1_4_6_9: t4_6_9 - x4_6 <= 0
tri2_4_6_9: t4_6_9 - x4_9 <= 0
tri3_4_6_9: t4_6_9 - x6_9 <= 0
tri4_4_6_9: t4_6_9 - x4_6 - x4_9 - x6_9 >= -2
tri1_4_6_10: t4_6_10 - x4_6 <= 0
tri2_4_6_10: t4_6_10 - x4_10 <= 0
tri3_4_6_10: t4_6_10 - x6_10 <= 0
tri4_4_6_10: t4_6_10 - x4_6 - x4_10 - x6_10 >= -2
tri1_4_6_11: t4_6_11 - x4_6 <= 0
tri2_4_6_11: t4_6_11 - x4_11 <= 0
tri3_4_6_11: t4_6_11 - x6_11 <= 0
tri4_4_6_11: t4_6_11 - x4_6 - x4_11 - x6_11 >= -2
tri1_4_7_8: t4_7_8 - x4_7 <= 0
tri2_4_7_8: t4_7_8 - x4_8 <= 0
tri3_4_7_8: t4_7_8 - x7_8 <= 0
tri4_4_7_8: t4_7_8 - x4_7 - x4_8 - x7_8 >= -2
tri1_4_7_9: t4_7_9 - x4_7 <= 0
tri2_4_7_9: t4_7_9 - x4_9 <= 0
tri3_4_7_9: t4_7_9 - x7_9 <= 0
tri4_4_7_9: t4_7_9 - x4_7 - x4_9 - x7_9 >= -2
tri1_4_7_10: t4_7_10 - x4_7 <= 0
tri2_4_7_10: t4_7_10 - x4_10 <= 0
tri3_4_7_10: t4_7_10 - x7_10 <= 0
tri4_4_7_10: t4_7_10 - x4_7 - x4_10 - x7_10 >= -2
tri1_4_7_11: t4_7_11 - x4_7 <= 0
tri2_4_7_11: t4_7_11 - x4_11 <= 0
tri3_4_7_11: t4_7_11 - x7_11 <= 0
tri4_4_7_11: t4_7_11 - x4_7 - x4_11 - x7_11 >= -2
tri1_4_8_9: t4_8_9 - x4_8 <= 0
tri2_4_8_9: t4_8_9 - x4_9 <= 0
tri3_4_8_9: t4_8_9 - x8_9 <= 0
tri4_4_8_9: t4_8_9 - x4_8 - x4_9 - x8_9 >= -2
tri1_4_8_10: t4_8_10 - x4_8 <= 0
tri2_4_8_10: t4_8_10 - x4_10 <= 0
tri3_4_8_10: t4_8_10 - x8_10 <= 0
tri4_4_8_10: t4_8_10 - x4_8 - x4_10 - x8_10 >= -2
tri1_4_8_11: t4_8_11 - x4_8 <= 0
tri2_4_8_11: t4_8_11 - x4_11 <= 0
tri3_4_8_11: t4_8_11 - x8_11 <= 0
tri4_4_8_11: t4_8_11 - x4_8 - x4_11 - x8_11 >= -2
tri1_4_9_10: t4_9_10 - x4_9 <= 0
tri2_4_9_10: t4_9_10 - x4_10 <= 0
tri3_4_9_10: t4_9_10 - x9_10 <= 0
tri4_4_9_10: t4_9_10 - x4_9 - x4_10 - x9_10 >= -2
tri1_4_9_11: t4_9_11 - x4_9 <= 0
tri2_4_9_11: t4_9_11 - x4_11 <= 0
tri3_4_9_11: t4_9_11 - x9_11 <= 0
tri4_4_9_11: t4_9_11 - x4_9 - x4_11 - x9_11 >= -2
tri1_4_10_11: t4_10_11 - x4_10 <= 0
tri2_4_10_11: t4_10_11 - x4_11 <= 0
tri3_4_10_11: t4_10_11 - x10_11 <= 0
tri4_4_10_11: t4_10_11 - x4_10 - x4_11 - x10_11 >= -2
tri1_5_6_7: t5_6_7 - x5_6 <= 0
tri2_5_6_7: t5_6_7 - x5_7 <= 0
tri3_5_6_7: t5_6_7 - x6_7 <= 0
tri4_5_6_7: t5_6_7 - x5_6 - x5_7 - x6_7 >= -2
tri1_5_6_8: t5_6_8 - x5_6 <= 0
tri2_5_6_8: t5_6_8 - x5_8 <= 0
tri3_5_6_8: t5_6_8 - x6_8 <= 0
tri4_5_6_8: t5_6_8 - x5_6 - x5_8 - x6_8 >= -2
tri1_5_6_9: t5_6_9 - x5_6 <= 0
tri2_5_6_9: t5_6_9 - x5_9 <= 0
tri3_5_6_9: t5_6_9 - x6_9 <= 0
tri4_5_6_9: t5_6_9 - x5_6 - x5_9 - x6_9 >= -2
tri1_5_6_10: t5_6_10 - x5_6 <= 0
tri2_5_6_10: t5_6_10 - x5_10 <= 0
tri3_5_6_10: t5_6_10 - x6_10 <= 0
tri4_5_6_10: t5_6_10 - x5_6 - x5_10 - x6_10 >= -2
tri1_5_6_11: t5_6_11 - x5_6 <= 0
tri2_5_6_11: t5_6_11 - x5_11 <= 0
tri3_5_6_11: t5_6_11 - x6_11 <= 0
tri4_5_6_11: t5_6_11 - x5_6 - x5_11 - x6_11 >= -2
tri1_5_7_8: t5_7_8 - x5_7 <= 0
tri2_5_7_8: t5_7_8 - x5_8 <= 0
tri3_5_7_8: t5_7_8 - x7_8 <= 0
tri4_5_7_8: t5_7_8 - x5_7 - x5_8 - x7_8 >= -2
tri1_5_7_9: t5_7_9 - x5_7 <= 0
tri2_5_7_9: t5_7_9 - x5_9 <= 0
tri3_5_7_9: t5_7_9 - x7_9 <= 0
tri4_5_7_9: t5_7_9 - x5_7 - x5_9 - x7_9 >= -2
tri1_5_7_10: t5_7_10 - x5_7 <= 0
tri2_5_7_10: t5_7_10 - x5_10 <= 0
tri3_5_7_10: t5_7_10 - x7_10 <= 0
tri4_5_7_10: t5_7_10 - x5_7 - x5_10 - x7_10 >= -2
tri1_5_7_11: t5_7_11 - x5_7 <= 0
tri2_5_7_11: t5_7_11 - x5_11 <= 0
tri3_5_7_11: t5_7_11 - x7_11 <= 0
tri4_5_7_11: t5_7_11 - x5_7 - x5_11 - x7_11 >= -2
tri1_5_8_9: t5_8_9 - x5_8 <= 0
tri2_5_8_9: t5_8_9 - x5_9 <= 0
tri3_5_8_9: t5_8_9 - x8_9 <= 0
tri4_5_8_9: t5_8_9 - x5_8 - x5_9 - x8_9 >= -2
tri1_5_8_10: t5_8_10 - x5_8 <= 0
tri2_5_8_10: t5_8_10 - x5_10 <= 0
tri3_5_8_10: t5_8_10 - x8_10 <= 0
tri4_5_8_10: t5_8_10 - x5_8 - x5_10 - x8_10 >= -2
tri1_5_8_11: t5_8_11 - x5_8 <= 0
tri2_5_8_11: t5_8_11 - x5_11 <= 0
tri3_5_8_11: t5_8_11 - x8_11 <= 0
tri4_5_8_11: t5_8_11 - x5_8 - x5_11 - x8_11 >= -2
tri1_5_9_10: t5_9_10 - x5_9 <= 0
tri2_5_9_10: t5_9_10 - x5_10 <= 0
tri3_5_9_10: t5_9_10 - x9_10 <= 0
tri4_5_9_10: t5_9_10 - x5_9 - x5_10 - x9_10 >= -2
tri1_5_9_11: t5_9_11 - x5_9 <= 0
tri2_5_9_11: t5_9_11 - x5_11 <= 0
tri3_5_9_11: t5_9_11 - x9_11 <= 0
tri4_5_9_11: t5_9_11 - x5_9 - x5_11 - x9_11 >= -2
tri1_5_10_11: t5_10_11 - x5_10 <= 0
tri2_5_10_11: t5_10_11 - x5_11 <= 0
tri3_5_10_11: t5_10_11 - x10_11 <= 0
tri4_5_10_11: t5_10_11 - x5_10 - x5_11 - x10_11 >= -2
tri1_6_7_8: t6_7_8 - x6_7 <= 0
tri2_6_7_8: t6_7_8 - x6_8 <= 0
tri3_6_7_8: t6_7_8 - x7_8 <= 0
tri4_6_7_8: t6_7_8 - x6_7 - x6_8 - x7_8 >= -2
tri1_6_7_9: t6_7_9 - x6_7 <= 0
tri2_6_7_9: t6_7_9 - x6_9 <= 0
tri3_6_7_9: t6_7_9 - x7_9 <= 0
tri4_6_7_9: t6_7_9 - x6_7 - x6_9 - x7_9 >= -2
tri1_6_7_10: t6_7_10 - x6_7 <= 0
tri2_6_7_10: t6_7_10 - x6_10 <= 0
tri3_6_7_10: t6_7_10 - x7_10 <= 0
tri4_6_7_10: t6_7_10 - x6_7 - x6_10 - x7_10 >= -2
tri1_6_7_11: t6_7_11 - x6_7 <= 0
tri2_6_7_11: t6_7_11 - x6_11 <= 0
tri3_6_7_11: t6_7_11 - x7_11 <= 0
tri4_6_7_11: t6_7_11 - x6_7 - x6_11 - x7_11 >= -2
tri1_6_8_9: t6_8_9 - x6_8 <= 0
tri2_6_8_9: t6_8_9 - x6_9 <= 0
tri3_6_8_9: t6_8_9 - x8_9 <= 0
tri4_6_8_9: t6_8_9 - x6_8 - x6_9 - x8_9 >= -2
tri1_6_8_10: t6_8_10 - x6_8 <= 0
tri2_6_8_10: t6_8_10 - x6_10 <= 0
tri3_6_8_10: t6_8_10 - x8_10 <= 0
tri4_6_8_10: t6_8_10 - x6_8 - x6_10 - x8_10 >= -2
tri1_6_8_11: t6_8_11 - x6_8 <= 0
tri2_6_8_11: t6_8_11 - x6_11 <= 0
tri3_6_8_11: t6_8_11 - x8_11 <= 0
tri4_6_8_11: t6_8_11 - x6_8 - x6_11 - x8_11 >= -2
tri1_6_9_10: t6_9_10 - x6_9 <= 0
tri2_6_9_10: t6_9_10 - x6_10 <= 0
tri3_6_9_10: t6_9_10 - x9_10 <= 0
tri4_6_9_10: t6_9_10 - x6_9 - x6_10 - x9_10 >= -2
tri1_6_9_11: t6_9_11 - x6_9 <= 0
tri2_6_9_11: t6_9_11 - x6_11 <= 0
tri3_6_9_11: t6_9_11 - x9_11 <= 0
tri4_6_9_11: t6_9_11 - x6_9 - x6_11 - x9_11 >= -2
tri1_6_10_11: t6_10_11 - x6_10 <= 0
tri2_6_10_11: t6_10_11 - x6_11 <= 0
tri3_6_10_11: t6_10_11 - x10_11 <= 0
tri4_6_10_11: t6_10_11 - x6_10 - x6_11 - x10_11 >= -2
tri1_7_8_9: t7_8_9 - x7_8 <= 0
tri2_7_8_9: t7_8_9 - x7_9 <= 0
tri3_7_8_9: t7_8_9 - x8_9 <= 0
tri4_7_8_9: t7_8_9 - x7_8 - x7_9 - x8_9 >= -2
tri1_7_8_10: t7_8_10 - x7_8 <= 0
tri2_7_8_10: t7_8_10 - x7_10 <= 0
tri3_7_8_10: t7_8_10 - x8_10 <= 0
tri4_7_8_10: t7_8_10 - x7_8 - x7_10 - x8_10 >= -2
tri1_7_8_11: t7_8_11 - x7_8 <= 0
tri2_7_8_11: t7_8_11 - x7_11 <= 0
tri3_7_8_11: t7_8_11 - x8_11 <= 0
tri4_7_8_11: t7_8_11 - x7_8 - x7_11 - x8_11 >= -2
tri1_7_9_10: t7_9_10 - x7_9 <= 0
tri2_7_9_10: t7_9_10 - x7_10 <= 0
tri3_7_9_10: t7_9_10 - x9_10 <= 0
tri4_7_9_10: t7_9_10 - x7_9 - x7_10 - x9_10 >= -2
tri1_7_9_11: t7_9_11 - x7_9 <= 0
tri2_7_9_11: t7_9_11 - x7_11 <= 0
tri3_7_9_11: t7_9_11 - x9_11 <= 0
tri4_7_9_11: t7_9_11 - x7_9 - x7_11 - x9_11 >= -2
tri1_7_10_11: t7_10_11 - x7_10 <= 0
tri2_7_10_11: t7_10_11 - x7_11 <= 0
tri3_7_10_11: t7_10_11 - x10_11 <= 0
tri4_7_10_11: t7_10_11 - x7_10 - x7_11 - x10_11 >= -2
tri1_8_9_10: t8_9_10 - x8_9 <= 0
tri2_8_9_10: t8_9_10 - x8_10 <= 0
tri3_8_9_10: t8_9_10 - x9_10 <= 0
tri4_8_9_10: t8_9_10 - x8_9 - x8_10 - x9_10 >= -2
tri1_8_9_11: t8_9_11 - x8_9 <= 0
tri2_8_9_11: t8_9_11 - x8_11 <= 0
tri3_8_9_11: t8_9_11 - x9_11 <= 0
tri4_8_9_11: t8_9_11 - x8_9 - x8_11 - x9_11 >= -2
tri1_8_10_11: t8_10_11 - x8_10 <= 0
tri2_8_10_11: t8_10_11 - x8_11 <= 0
tri3_8_10_11: t8_10_11 - x10_11 <= 0
tri4_8_10_11: t8_10_11 - x8_10 - x8_11 - x10_11 >= -2
tri1_9_10_11: t9_10_11 - x9_10 <= 0
tri2_9_10_11: t9_10_11 - x9_11 <= 0
tri3_9_10_11: t9_10_11 - x10_11 <= 0
tri4_9_10_11: t9_10_11 - x9_10 - x9_11 - x10_11 >= -2
k3deg0: d0 - t0_1_2 - t0_1_3 - t0_1_4 - t0_1_5 - t0_1_6 - t0_1_7 - t0_1_8 - t0_1_9 - t0_1_10 - t0_1_11 - t0_2_3 - t0_2_4 - t0_2_5 - t0_2_6 - t0_2_7 - t0_2_8 - t0_2_9 - t0_2_10 - t0_2_11 - t0_3_4 - t0_3_5 - t0_3_6 - t0_3_7 - t0_3_8 - t0_3_9 - t0_3_10 - t0_3_11 - t0_4_5 - t0_4_6 - t0_4_7 - t0_4_8 - t0_4_9 - t0_4_10 - t0_4_11 - t0_5_6 - t0_5_7 - t0_5_8 - t0_5_9 - t0_5_10 - t0_5_11 - t0_6_7 - t0_6_8 - t0_6_9 - t0_6_10 - t0_6_11 - t0_7_8 - t0_7_9 - t0_7_10 - t0_7_11 - t0_8_9 - t0_8_10 - t0_8_11 - t0_9_10 - t0_9_11 - t0_10_11 = 0
k3deg1: d1 - t0_1_2 - t0_1_3 - t0_1_4 - t0_1_5 - t0_1_6 - t0_1_7 - t0_1_8 - t0_1_9 - t0_1_10 - t0_1_11 - t1_2_3 - t1_2_4 - t1_2_5 - t1_2_6 - t1_2_7 - t1_2_8 - t1_2_9 - t1_2_10 - t1_2_11 - t1_3_4 - t1_3_5 - t1_3_6 - t1_3_7 - t1_3_8 - t1_3_9 - t1_3_10 - t1_3_11 - t1_4_5 - t1_4_6 - t1_4_7 - t1_4_8 - t1_4_9 - t1_4_10 - t1_4_11 - t1_5_6 - t1_5_7 - t1_5_8 - t1_5_9 - t1_5_10 - t1_5_11 - t1_6_7 - t1_6_8 - t1_6_9 - t1_6_10 - t1_6_11 - t1_7_8 - t1_7_9 - t1_7_10 - t1_7_11 - t1_8_9 - t1_8_10 - t1_8_11 - t1_9_10 - t1_9_11 - t1_10_11 = 0
k3deg2: d2 - t0_1_2 - t0_2_3 - t0_2_4 - t0_2_5 - t0_2_6 - t0_2_7 - t0_2_8 - t0_2_9 - t0_2_10 - t0_2_11 - t1_2_3 - t1_2_4 - t1_2_5 - t1_2_6 - t1_2_7 - t1_2_8 - t1_2_9 - t1_2_10 - t1_2_11 - t2_3_4 - t2_3_5 - t2_3_6 - t2_3_7 - t2_3_8 - t2_3_9 - t2_3_10 - t2_3_11 - t2_4_5 - t2_4_6 - t2_4_7 - t2_4_8 - t2_4_9 - t2_4_10 - t2_4_11 - t2_5_6 - t2_5_7 - t2_5_8 - t2_5_9 - t2_5_10 - t2_5_11 - t2_6_7 - t2_6_8 - t2_6_9 - t2_6_10 - t2_6_11 - t2_7_8 - t2_7_9 - t2_7_10 - t2_7_11 - t2_8_9 - t2_8_10 - t2_8_11 - t2_9_10 - t2_9_11 - t2_10_11 = 0
k3deg3: d3 - t0_1_3 - t0_2_3 - t0_3_4 - t0_3_5 - t0_3_6 - t0_3_7 - t0_3_8 - t0_3_9 - t0_3_10 - t0_3_11 - t1_2_3 - t1_3_4 - t1_3_5 - t1_3_6 - t1_3_7 - t1_3_8 - t1_3_9 - t1_3_10 - t1_3_11 - t2_3_4 - t2_3_5 - t2_3_6 - t2_3_7 - t2_3_8 - t2_3_9 - t2_3_10 - t2_3_11 - t3_4_5 - t3_4_6 - t3_4_7 - t3_4_8 - t3_4_9 - t3_4_10 - t3_4_11 - t3_5_6 - t3_5_7 - t3_5_8 - t3_5_9 - t3_5_10 - t3_5_11 - t3_6_7 - t3_6_8 - t3_6_9 - t3_6_10 - t3_6_11 - t3_7_8 - t3_7_9 - t3_7_10 - t3_7_11 - t3_8_9 - t3_8_10 - t3_8_11 - t3_9_10 - t3_9_11 - t3_10_11 = 0
k3deg4: d4 - t0_1_4 - t0_2_4 - t0_3_4 - t0_4_5 - t0_4_6 - t0_4_7 - t0_4_8 - t0_4_9 - t0_4_10 - t0_4_11 - t1_2_4 - t1_3_4 - t1_4_5 - t1_4_6 - t1_4_7 - t1_4_8 - t1_4_9 - t1_4_10 - t1_4_11 - t2_3_4 - t2_4_5 - t2_4_6 - t2_4_7 - t2_4_8 - t2_4_9 - t2_4_10 - t2_4_11 - t3_4_5 - t3_4_6 - t3_4_7 - t3_4_8 - t3_4_9 - t3_4_10 - t3_4_11 - t4_5_6 - t4_5_7 - t4_5_8 - t4_5_9 - t4_5_10 - t4_5_11 - t4_6_7 - t4_6_8 - t4_6_9 - t4_6_10 - t4_6_11 - t4_7_8 - t4_7_9 - t4_7_10 - t4_7_11 - t4_8_9 - t4_8_10 - t4_8_11 - t4_9_10 - t4_9_11 - t4_10_11 = 0
k3deg5: d5 - t0_1_5 - t0_2_5 - t0_3_5 - t0_4_5 - t0_5_6 - t0_5_7 - t0_5_8 - t0_5_9 - t0_5_10 - t0_5_11 - t1_2_5 - t1_3_5 - t1_4_5 - t1_5_6 - t1_5_7 - t1_5_8 - t1_5_9 - t1_5_10 - t1_5_11 - t2_3_5 - t2_4_5 - t2_5_6 - t2_5_7 - t2_5_8 - t2_5_9 - t2_5_10 - t2_5_11 - t3_4_5 - t3_5_6 - t3_5_7 - t3_5_8 - t3_5_9 - t3_5_10 - t3_5_11 - t4_5_6 - t4_5_7 - t4_5_8 - t4_5_9 - t4_5_10 - t4_5_11 - t5_6_7 - t5_6_8 - t5_6_9 - t5_6_10 - t5_6_11 - t5_7_8 - t5_7_9 - t5_7_10 - t5_7_11 - t5_8_9 - t5_8_10 - t5_8_11 - t5_9_10 - t5_9_11 - t5_10_11 = 0
k3deg6: d6 - t0_1_6 - t0_2_6 - t0_3_6 - t0_4_6 - t0_5_6 - t0_6_7 - t0_6_8 - t0_6_9 - t0_6_10 - t0_6_11 - t1_2_6 - t1_3_6 - t1_4_6 - t1_5_6 - t1_6_7 - t1_6_8 - t1_6_9 - t1_6_10 - t1_6_11 - t2_3_6 - t2_4_6 - t2_5_6 - t2_6_7 - t2_6_8 - t2_6_9 - t2_6_10 - t2_6_11 - t3_4_6 - t3_5_6 - t3_6_7 - t3_6_8 - t3_6_9 - t3_6_10 - t3_6_11 - t4_5_6 - t4_6_7 - t4_6_8 - t4_6_9 - t4_6_10 - t4_6_11 - t5_6_7 - t5_6_8 - t5_6_9 - t5_6_10 - t5_6_11 - t6_7_8 - t6_7_9 - t6_7_10 - t6_7_11 - t6_8_9 - t6_8_10 - t6_8_11 - t6_9_10 - t6_9_11 - t6_10_11 = 0
k3deg7: d7 - t0_1_7 - t0_2_7 - t0_3_7 - t0_4_7 - t0_5_7 - t0_6_7 - t0_7_8 - t0_7_9 - t0_7_10 - t0_7_11 - t1_2_7 - t1_3_7 - t1_4_7 - t1_5_7 - t1_6_7 - t1_7_8 - t1_7_9 - t1_7_10 - t1_7_11 - t2_3_7 - t2_4_7 - t2_5_7 - t2_6_7 - t2_7_8 - t2_7_9 - t2_7_10 - t2_7_11 - t3_4_7 - t3_5_7 - t3_6_7 - t3_7_8 - t3_7_9 - t3_7_10 - t3_7_11 - t4_5_7 - t4_6_7 - t4_7_8 - t4_7_9 - t4_7_10 - t4_7_11 - t5_6_7 - t5_7_8 - t5_7_9 - t5_7_10 - t5_7_11 - t6_7_8 - t6_7_9 - t6_7_10 - t6_7_11 - t7_8_9 - t7_8_10 - t7_8_11 - t7_9_10 - t7_9_11 - t7_10_11 = 0
k3deg8: d8 - t0_1_8 - t0_2_8 - t0_3_8 - t0_4_8 - t0_5_8 - t0_6_8 - t0_7_8 - t0_8_9 - t0_8_10 - t0_8_11 - t1_2_8 - t1_3_8 - t1_4_8 - t1_5_8 - t1_6_8 - t1_7_8 - t1_8_9 - t1_8_10 - t1_8_11 - t2_3_8 - t2_4_8 - t2_5_8 - t2_6_8 - t2_7_8 - t2_8_9 - t2_8_10 - t2_8_11 - t3_4_8 - t3_5_8 - t3_6_8 - t3_7_8 - t3_8_9 - t3_8_10 - t3_8_11 - t4_5_8 - t4_6_8 - t4_7_8 - t4_8_9 - t4_8_10 - t4_8_11 - t5_6_8 - t5_7_8 - t5_8_9 - t5_8_10 - t5_8_11 - t6_7_8 - t6_8_9 - t6_8_10 - t6_8_11 - t7_8_9 - t7_8_10 - t7_8_11 - t8_9_10 - t8_9_11 - t8_10_11 = 0
k3deg9: d9 - t0_1_9 - t0_2_9 - t0_3_9 - t0_4_9 - t0_5_9 - t0_6_9 - t0_7_9 - t0_8_9 - t0_9_10 - t0_9_11 - t1_2_9 - t1_3_9 - t1_4_9 - t1_5_9 - t1_6_9 - t1_7_9 - t1_8_9 - t1_9_10 - t1_9_11 - t2_3_9 - t2_4_9 - t2_5_9 - t2_6_9 - t2_7_9 - t2_8_9 - t2_9_10 - t2_9_11 - t3_4_9 - t3_5_9 - t3_6_9 - t3_7_9 - t3_8_9 - t3_9_10 - t3_9_11 - t4_5_9 - t4_6_9 - t4_7_9 - t4_8_9 - t4_9_10 - t4_9_11 - t5_6_9 - t5_7_9 - t5_8_9 - t5_9_10 - t5_9_11 - t6_7_9 - t6_8_9 - t6_9_10 - t6_9_11 - t7_8_9 - t7_9_10 - t7_9_11 - t8_9_10 - t8_9_11 - t9_10_11 = 0
k3deg10: d10 - t0_1_10 - t0_2_10 - t0_3_10 - t0_4_10 - t0_5_10 - t0_6_10 - t0_7_10 - t0_8_10 - t0_9_10 - t0_10_11 - t1_2_10 - t1_3_10 - t1_4_10 - t1_5_10 - t1_6_10 - t1_7_10 - t1_8_10 - t1_9_10 - t1_10_11 - t2_3_10 - t2_4_10 - t2_5_10 - t2_6_10 - t2_7_10 - t2_8_10 - t2_9_10 - t2_10_11 - t3_4_10 - t3_5_10 - t3_6_10 - t3_7_10 - t3_8_10 - t3_9_10 - t3_10_11 - t4_5_10 - t4_6_10 - t4_7_10 - t4_8_10 - t4_9_10 - t4_10_11 - t5_6_10 - t5_7_10 - t5_8_10 - t5_9_10 - t5_10_11 - t6_7_10 - t6_8_10 - t6_9_10 - t6_10_11 - t7_8_10 - t7_9_10 - t7_10_11 - t8_9_10 - t8_10_11 - t9_10_11 = 0
k3deg11: d11 - t0_1_11 - t0_2_11 - t0_3_11 - t0_4_11 - t0_5_11 - t0_6_11 - t0_7_11 - t0_8_11 - t0_9_11 - t0_10_11 - t1_2_11 - t1_3_11 - t1_4_11 - t1_5_11 - t1_6_11 - t1_7_11 - t1_8_11 - t1_9_11 - t1_10_11 - t2_3_11 - t2_4_11 - t2_5_11 - t2_6_11 - t2_7_11 - t2_8_11 - t2_9_11 - t2_10_11 - t3_4_11 - t3_5_11 - t3_6_11 - t3_7_11 - t3_8_11 - t3_9_11 - t3_10_11 - t4_5_11 - t4_6_11 - t4_7_11 - t4_8_11 - t4_9_11 - t4_10_11 - t5_6_11 - t5_7_11 - t5_8_11 - t5_9_11 - t5_10_11 - t6_7_11 - t6_8_11 - t6_9_11 - t6_10_11 - t7_8_11 - t7_9_11 - t7_10_11 - t8_9_11 - t8_10_11 - t9_10_11 = 0

ord0: d0 - d1 <= -1
ord1: d1 - d2 <= -1
ord2: d2 - d3 <= -1
ord3: d3 - d4 <= -1
ord4: d4 - d5 <= -1
ord5: d5 - d6 <= -1
ord6: d6 - d7 <= -1
ord7: d7 - d8 <= -1
ord8: d8 - d9 <= -1
ord9: d9 - d10 <= -1
ord10: d10 - d11 <= -1
ord11: d11 - d12 <= -1


Binary
 x0_1  x0_2  x0_3  x0_4  x0_5  x0_6  x0_7  x0_8  x0_9  x0_10  x0_11 
 x1_2  x1_3  x1_4  x1_5  x1_6  x1_7  x1_8  x1_9  x1_10  x1_11 
 x2_3  x2_4  x2_5  x2_6  x2_7  x2_8  x2_9  x2_10  x2_11 
 x3_4  x3_5  x3_6  x3_7  x3_8  x3_9  x3_10  x3_11 
 x4_5  x4_6  x4_7  x4_8  x4_9  x4_10  x4_11 
 x5_6  x5_7  x5_8  x5_9  x5_10  x5_11 
 x6_7  x6_8  x6_9  x6_10  x6_11 
 x7_8  x7_9  x7_10  x7_11 
 x8_9  x8_10  x8_11 
 x9_10  x9_11 
 x10_11 
 t0_1_2
 t0_1_3
 t0_1_4
 t0_1_5
 t0_1_6
 t0_1_7
 t0_1_8
 t0_1_9
 t0_1_10
 t0_1_11
 t0_2_3
 t0_2_4
 t0_2_5
 t0_2_6
 t0_2_7
 t0_2_8
 t0_2_9
 t0_2_10
 t0_2_11
 t0_3_4
 t0_3_5
 t0_3_6
 t0_3_7
 t0_3_8
 t0_3_9
 t0_3_10
 t0_3_11
 t0_4_5
 t0_4_6
 t0_4_7
 t0_4_8
 t0_4_9
 t0_4_10
 t0_4_11
 t0_5_6
 t0_5_7
 t0_5_8
 t0_5_9
 t0_5_10
 t0_5_11
 t0_6_7
 t0_6_8
 t0_6_9
 t0_6_10
 t0_6_11
 t0_7_8
 t0_7_9
 t0_7_10
 t0_7_11
 t0_8_9
 t0_8_10
 t0_8_11
 t0_9_10
 t0_9_11
 t0_10_11
 t1_2_3
 t1_2_4
 t1_2_5
 t1_2_6
 t1_2_7
 t1_2_8
 t1_2_9
 t1_2_10
 t1_2_11
 t1_3_4
 t1_3_5
 t1_3_6
 t1_3_7
 t1_3_8
 t1_3_9
 t1_3_10
 t1_3_11
 t1_4_5
 t1_4_6
 t1_4_7
 t1_4_8
 t1_4_9
 t1_4_10
 t1_4_11
 t1_5_6
 t1_5_7
 t1_5_8
 t1_5_9
 t1_5_10
 t1_5_11
 t1_6_7
 t1_6_8
 t1_6_9
 t1_6_10
 t1_6_11
 t1_7_8
 t1_7_9
 t1_7_10
 t1_7_11
 t1_8_9
 t1_8_10
 t1_8_11
 t1_9_10
 t1_9_11
 t1_10_11
 t2_3_4
 t2_3_5
 t2_3_6
 t2_3_7
 t2_3_8
 t2_3_9
 t2_3_10
 t2_3_11
 t2_4_5
 t2_4_6
 t2_4_7
 t2_4_8
 t2_4_9
 t2_4_10
 t2_4_11
 t2_5_6
 t2_5_7
 t2_5_8
 t2_5_9
 t2_5_10
 t2_5_11
 t2_6_7
 t2_6_8
 t2_6_9
 t2_6_10
 t2_6_11
 t2_7_8
 t2_7_9
 t2_7_10
 t2_7_11
 t2_8_9
 t2_8_10
 t2_8_11
 t2_9_10
 t2_9_11
 t2_10_11
 t3_4_5
 t3_4_6
 t3_4_7
 t3_4_8
 t3_4_9
 t3_4_10
 t3_4_11
 t3_5_6
 t3_5_7
 t3_5_8
 t3_5_9
 t3_5_10
 t3_5_11
 t3_6_7
 t3_6_8
 t3_6_9
 t3_6_10
 t3_6_11
 t3_7_8
 t3_7_9
 t3_7_10
 t3_7_11
 t3_8_9
 t3_8_10
 t3_8_11
 t3_9_10
 t3_9_11
 t3_10_11
 t4_5_6
 t4_5_7
 t4_5_8
 t4_5_9
 t4_5_10
 t4_5_11
 t4_6_7
 t4_6_8
 t4_6_9
 t4_6_10
 t4_6_11
 t4_7_8
 t4_7_9
 t4_7_10
 t4_7_11
 t4_8_9
 t4_8_10
 t4_8_11
 t4_9_10
 t4_9_11
 t4_10_11
 t5_6_7
 t5_6_8
 t5_6_9
 t5_6_10
 t5_6_11
 t5_7_8
 t5_7_9
 t5_7_10
 t5_7_11
 t5_8_9
 t5_8_10
 t5_8_11
 t5_9_10
 t5_9_11
 t5_10_11
 t6_7_8
 t6_7_9
 t6_7_10
 t6_7_11
 t6_8_9
 t6_8_10
 t6_8_11
 t6_9_10
 t6_9_11
 t6_10_11
 t7_8_9
 t7_8_10
 t7_8_11
 t7_9_10
 t7_9_11
 t7_10_11
 t8_9_10
 t8_9_11
 t8_10_11
 t9_10_11


General
 d0
 d1
 d2
 d3
 d4
 d5
 d6
 d7
 d8
 d9
 d10
 d11

End
