Minimize
 obj: 0

Subject To

deg0: x0_1 + x0_2 + x0_3 + x0_4 + x0_5 + x0_6 + x0_7 + x0_8 + x0_9 + x0_10 + x0_11 + x0_12 + x0_13 + x0_14 + x0_15 + x0_16 + x0_17 + x0_18 + x0_19 + x0_20 + x0_21 = 8
deg1: x0_1 + x1_2 + x1_3 + x1_4 + x1_5 + x1_6 + x1_7 + x1_8 + x1_9 + x1_10 + x1_11 + x1_12 + x1_13 + x1_14 + x1_15 + x1_16 + x1_17 + x1_18 + x1_19 + x1_20 + x1_21 = 8
deg2: x0_2 + x1_2 + x2_3 + x2_4 + x2_5 + x2_6 + x2_7 + x2_8 + x2_9 + x2_10 + x2_11 + x2_12 + x2_13 + x2_14 + x2_15 + x2_16 + x2_17 + x2_18 + x2_19 + x2_20 + x2_21 = 8
deg3: x0_3 + x1_3 + x2_3 + x3_4 + x3_5 + x3_6 + x3_7 + x3_8 + x3_9 + x3_10 + x3_11 + x3_12 + x3_13 + x3_14 + x3_15 + x3_16 + x3_17 + x3_18 + x3_19 + x3_20 + x3_21 = 8
deg4: x0_4 + x1_4 + x2_4 + x3_4 + x4_5 + x4_6 + x4_7 + x4_8 + x4_9 + x4_10 + x4_11 + x4_12 + x4_13 + x4_14 + x4_15 + x4_16 + x4_17 + x4_18 + x4_19 + x4_20 + x4_21 = 8
deg5: x0_5 + x1_5 + x2_5 + x3_5 + x4_5 + x5_6 + x5_7 + x5_8 + x5_9 + x5_10 + x5_11 + x5_12 + x5_13 + x5_14 + x5_15 + x5_16 + x5_17 + x5_18 + x5_19 + x5_20 + x5_21 = 8
deg6: x0_6 + x1_6 + x2_6 + x3_6 + x4_6 + x5_6 + x6_7 + x6_8 + x6_9 + x6_10 + x6_11 + x6_12 + x6_13 + x6_14 + x6_15 + x6_16 + x6_17 + x6_18 + x6_19 + x6_20 + x6_21 = 8
deg7: x0_7 + x1_7 + x2_7 + x3_7 + x4_7 + x5_7 + x6_7 + x7_8 + x7_9 + x7_10 + x7_11 + x7_12 + x7_13 + x7_14 + x7_15 + x7_16 + x7_17 + x7_18 + x7_19 + x7_20 + x7_21 = 8
deg8: x0_8 + x1_8 + x2_8 + x3_8 + x4_8 + x5_8 + x6_8 + x7_8 + x8_9 + x8_10 + x8_11 + x8_12 + x8_13 + x8_14 + x8_15 + x8_16 + x8_17 + x8_18 + x8_19 + x8_20 + x8_21 = 8
deg9: x0_9 + x1_9 + x2_9 + x3_9 + x4_9 + x5_9 + x6_9 + x7_9 + x8_9 + x9_10 + x9_11 + x9_12 + x9_13 + x9_14 + x9_15 + x9_16 + x9_17 + x9_18 + x9_19 + x9_20 + x9_21 = 8
deg10: x0_10 + x1_10 + x2_10 + x3_10 + x4_10 + x5_10 + x6_10 + x7_10 + x8_10 + x9_10 + x10_11 + x10_12 + x10_13 + x10_14 + x10_15 + x10_16 + x10_17 + x10_18 + x10_19 + x10_20 + x10_21 = 8
deg11: x0_11 + x1_11 + x2_11 + x3_11 + x4_11 + x5_11 + x6_11 + x7_11 + x8_11 + x9_11 + x10_11 + x11_12 + x11_13 + x11_14 + x11_15 + x11_16 + x11_17 + x11_18 + x11_19 + x11_20 + x11_21 = 8
deg12: x0_12 + x1_12 + x2_12 + x3_12 + x4_12 + x5_12 + x6_12 + x7_12 + x8_12 + x9_12 + x10_12 + x11_12 + x12_13 + x12_14 + x12_15 + x12_16 + x12_17 + x12_18 + x12_19 + x12_20 + x12_21 = 8
deg13: x0_13 + x1_13 + x2_13 + x3_13 + x4_13 + x5_13 + x6_13 + x7_13 + x8_13 + x9_13 + x10_13 + x11_13 + x12_13 + x13_14 + x13_15 + x13_16 + x13_17 + x13_18 + x13_19 + x13_20 + x13_21 = 8
deg14: x0_14 + x1_14 + x2_14 + x3_14 + x4_14 + x5_14 + x6_14 + x7_14 + x8_14 + x9_14 + x10_14 + x11_14 + x12_14 + x13_14 + x14_15 + x14_16 + x14_17 + x14_18 + x14_19 + x14_20 + x14_21 = 8
deg15: x0_15 + x1_15 + x2_15 + x3_15 + x4_15 + x5_15 + x6_15 + x7_15 + x8_15 + x9_15 + x10_15 + x11_15 + x12_15 + x13_15 + x14_15 + x15_16 + x15_17 + x15_18 + x15_19 + x15_20 + x15_21 = 8
deg16: x0_16 + x1_16 + x2_16 + x3_16 + x4_16 + x5_16 + x6_16 + x7_16 + x8_16 + x9_16 + x10_16 + x11_16 + x12_16 + x13_16 + x14_16 + x15_16 + x16_17 + x16_18 + x16_19 + x16_20 + x16_21 = 8
deg17: x0_17 + x1_17 + x2_17 + x3_17 + x4_17 + x5_17 + x6_17 + x7_17 + x8_17 + x9_17 + x10_17 + x11_17 + x12_17 + x13_17 + x14_17 + x15_17 + x16_17 + x17_18 + x17_19 + x17_20 + x17_21 = 8
deg18: x0_18 + x1_18 + x2_18 + x3_18 + x4_18 + x5_18 + x6_18 + x7_18 + x8_18 + x9_18 + x10_18 + x11_18 + x12_18 + x13_18 + x14_18 + x15_18 + x16_18 + x17_18 + x18_19 + x18_20 + x18_21 = 8
deg19: x0_19 + x1_19 + x2_19 + x3_19 + x4_19 + x5_19 + x6_19 + x7_19 + x8_19 + x9_19 + x10_19 + x11_19 + x12_19 + x13_19 + x14_19 + x15_19 + x16_19 + x17_19 + x18_19 + x19_20 + x19_21 = 8
deg20: x0_20 + x1_20 + x2_20 + x3_20 + x4_20 + x5_20 + x6_20 + x7_20 + x8_20 + x9_20 + x10_20 + x11_20 + x12_20 + x13_20 + x14_20 + x15_20 + x16_20 + x17_20 + x18_20 + x19_20 + x20_21 = 8
deg21: x0_21 + x1_21 + x2_21 + x3_21 + x4_21 + x5_21 + x6_21 + x7_21 + x8_21 + x9_21 + x10_21 + x11_21 + x12_21 + x13_21 + x14_21 + x15_21 + x16_21 + x17_21 + x18_21 + x19_21 + x20_21 = 8
tri1_0_1_2: t0_1_2 - x0_1 <= 0
tri2_0_1_2: t0_1_2 - x0_2 <= 0
tri3_0_1_2: t0_1_2 - x1_2 <= 0
tri4_0_1_2: t0_1_2 - x0_1 - x0_2 - x1_2 >= -2
tri1_0_1_3: t0_1_3 - x0_1 <= 0
tri2_0_1_3: t0_1_3 - x0_3 <= 0
tri3_0_1_3: t0_1_3 - x1_3 <= 0
tri4_0_1_3: t0_1_3 - x0_1 - x0_3 - x1_3 >= -2
tri1_0_1_4: t0_1_4 - x0_1 <= 0
tri2_0_1_4: t0_1_4 - x0_4 <= 0
tri3_0_1_4: t0_1_4 - x1_4 <= 0
tri4_0_1_4: t0_1_4 - x0_1 - x0_4 - x1_4 >= -2
tri1_0_1_5: t0_1_5 - x0_1 <= 0
tri2_0_1_5: t0_1_5 - x0_5 <= 0
tri3_0_1_5: t0_1_5 - x1_5 <= 0
tri4_0_1_5: t0_1_5 - x0_1 - x0_5 - x1_5 >= -2
tri1_0_1_6: t0_1_6 - x0_1 <= 0
tri2_0_1_6: t0_1_6 - x0_6 <= 0
tri3_0_1_6: t0_1_6 - x1_6 <= 0
tri4_0_1_6: t0_1_6 - x0_1 - x0_6 - x1_6 >= -2
tri1_0_1_7: t0_1_7 - x0_1 <= 0
tri2_0_1_7: t0_1_7 - x0_7 <= 0
tri3_0_1_7: t0_1_7 - x1_7 <= 0
tri4_0_1_7: t0_1_7 - x0_1 - x0_7 - x1_7 >= -2
tri1_0_1_8: t0_1_8 - x0_1 <= 0
tri2_0_1_8: t0_1_8 - x0_8 <= 0
tri3_0_1_8: t0_1_8 - x1_8 <= 0
tri4_0_1_8: t0_1_8 - x0_1 - x0_8 - x1_8 >= -2
tri1_0_1_9: t0_1_9 - x0_1 <= 0
tri2_0_1_9: t0_1_9 - x0_9 <= 0
tri3_0_1_9: t0_1_9 - x1_9 <= 0
tri4_0_1_9: t0_1_9 - x0_1 - x0_9 - x1_9 >= -2
tri1_0_1_10: t0_1_10 - x0_1 <= 0
tri2_0_1_10: t0_1_10 - x0_10 <= 0
tri3_0_1_10: t0_1_10 - x1_10 <= 0
tri4_0_1_10: t0_1_10 - x0_1 - x0_10 - x1_10 >= -2
tri1_0_1_11: t0_1_11 - x0_1 <= 0
tri2_0_1_11: t0_1_11 - x0_11 <= 0
tri3_0_1_11: t0_1_11 - x1_11 <= 0
tri4_0_1_11: t0_1_11 - x0_1 - x0_11 - x1_11 >= -2
tri1_0_1_12: t0_1_12 - x0_1 <= 0
tri2_0_1_12: t0_1_12 - x0_12 <= 0
tri3_0_1_12: t0_1_12 - x1_12 <= 0
tri4_0_1_12: t0_1_12 - x0_1 - x0_12 - x1_12 >= -2
tri1_0_1_13: t0_1_13 - x0_1 <= 0
tri2_0_1_13: t0_1_13 - x0_13 <= 0
tri3_0_1_13: t0_1_13 - x1_13 <= 0
tri4_0_1_13: t0_1_13 - x0_1 - x0_13 - x1_13 >= -2
tri1_0_1_14: t0_1_14 - x0_1 <= 0
tri2_0_1_14: t0_1_14 - x0_14 <= 0
tri3_0_1_14: t0_1_14 - x1_14 <= 0
tri4_0_1_14: t0_1_14 - x0_1 - x0_14 - x1_14 >= -2
tri1_0_1_15: t0_1_15 - x0_1 <= 0
tri2_0_1_15: t0_1_15 - x0_15 <= 0
tri3_0_1_15: t0_1_15 - x1_15 <= 0
tri4_0_1_15: t0_1_15 - x0_1 - x0_15 - x1_15 >= -2
tri1_0_1_16: t0_1_16 - x0_1 <= 0
tri2_0_1_16: t0_1_16 - x0_16 <= 0
tri3_0_1_16: t0_1_16 - x1_16 <= 0
tri4_0_1_16: t0_1_16 - x0_1 - x0_16 - x1_16 >= -2
tri1_0_1_17: t0_1_17 - x0_1 <= 0
tri2_0_1_17: t0_1_17 - x0_17 <= 0
tri3_0_1_17: t0_1_17 - x1_17 <= 0
tri4_0_1_17: t0_1_17 - x0_1 - x0_17 - x1_17 >= -2
tri1_0_1_18: t0_1_18 - x0_1 <= 0
tri2_0_1_18: t0_1_18 - x0_18 <= 0
tri3_0_1_18: t0_1_18 - x1_18 <= 0
tri4_0_1_18: t0_1_18 - x0_1 - x0_18 - x1_18 >= -2
tri1_0_1_19: t0_1_19 - x0_1 <= 0
tri2_0_1_19: t0_1_19 - x0_19 <= 0
tri3_0_1_19: t0_1_19 - x1_19 <= 0
tri4_0_1_19: t0_1_19 - x0_1 - x0_19 - x1_19 >= -2
tri1_0_1_20: t0_1_20 - x0_1 <= 0
tri2_0_1_20: t0_1_20 - x0_20 <= 0
tri3_0_1_20: t0_1_20 - x1_20 <= 0
tri4_0_1_20: t0_1_20 - x0_1 - x0_20 - x1_20 >= -2
tri1_0_1_21: t0_1_21 - x0_1 <= 0
tri2_0_1_21: t0_1_21 - x0_21 <= 0
tri3_0_1_21: t0_1_21 - x1_21 <= 0
tri4_0_1_21: t0_1_21 - x0_1 - x0_21 - x1_21 >= -2
tri1_0_2_3: t0_2_3 - x0_2 <= 0
tri2_0_2_3: t0_2_3 - x0_3 <= 0
tri3_0_2_3: t0_2_3 - x2_3 <= 0
tri4_0_2_3: t0_2_3 - x0_2 - x0_3 - x2_3 >= -2
tri1_0_2_4: t0_2_4 - x0_2 <= 0
tri2_0_2_4: t0_2_4 - x0_4 <= 0
tri3_0_2_4: t0_2_4 - x2_4 <= 0
tri4_0_2_4: t0_2_4 - x0_2 - x0_4 - x2_4 >= -2
tri1_0_2_5: t0_2_5 - x0_2 <= 0
tri2_0_2_5: t0_2_5 - x0_5 <= 0
tri3_0_2_5: t0_2_5 - x2_5 <= 0
tri4_0_2_5: t0_2_5 - x0_2 - x0_5 - x2_5 >= -2
tri1_0_2_6: t0_2_6 - x0_2 <= 0
tri2_0_2_6: t0_2_6 - x0_6 <= 0
tri3_0_2_6: t0_2_6 - x2_6 <= 0
tri4_0_2_6: t0_2_6 - x0_2 - x0_6 - x2_6 >= -2
tri1_0_2_7: t0_2_7 - x0_2 <= 0
tri2_0_2_7: t0_2_7 - x0_7 <= 0
tri3_0_2_7: t0_2_7 - x2_7 <= 0
tri4_0_2_7: t0_2_7 - x0_2 - x0_7 - x2_7 >= -2
tri1_0_2_8: t0_2_8 - x0_2 <= 0
tri2_0_2_8: t0_2_8 - x0_8 <= 0
tri3_0_2_8: t0_2_8 - x2_8 <= 0
tri4_0_2_8: t0_2_8 - x0_2 - x0_8 - x2_8 >= -2
tri1_0_2_9: t0_2_9 - x0_2 <= 0
tri2_0_2_9: t0_2_9 - x0_9 <= 0
tri3_0_2_9: t0_2_9 - x2_9 <= 0
tri4_0_2_9: t0_2_9 - x0_2 - x0_9 - x2_9 >= -2
tri1_0_2_10: t0_2_10 - x0_2 <= 0
tri2_0_2_10: t0_2_10 - x0_10 <= 0
tri3_0_2_10: t0_2_10 - x2_10 <= 0
tri4_0_2_10: t0_2_10 - x0_2 - x0_10 - x2_10 >= -2
tri1_0_2_11: t0_2_11 - x0_2 <= 0
tri2_0_2_11: t0_2_11 - x0_11 <= 0
tri3_0_2_11: t0_2_11 - x2_11 <= 0
tri4_0_2_11: t0_2_11 - x0_2 - x0_11 - x2_11 >= -2
tri1_0_2_12: t0_2_12 - x0_2 <= 0
tri2_0_2_12: t0_2_12 - x0_12 <= 0
tri3_0_2_12: t0_2_12 - x2_12 <= 0
tri4_0_2_12: t0_2_12 - x0_2 - x0_12 - x2_12 >= -2
tri1_0_2_13: t0_2_13 - x0_2 <= 0
tri2_0_2_13: t0_2_13 - x0_13 <= 0
tri3_0_2_13: t0_2_13 - x2_13 <= 0
tri4_0_2_13: t0_2_13 - x0_2 - x0_13 - x2_13 >= -2
tri1_0_2_14: t0_2_14 - x0_2 <= 0
tri2_0_2_14: t0_2_14 - x0_14 <= 0
tri3_0_2_14: t0_2_14 - x2_14 <= 0
tri4_0_2_14: t0_2_14 - x0_2 - x0_14 - x2_14 >= -2
tri1_0_2_15: t0_2_15 - x0_2 <= 0
tri2_0_2_15: t0_2_15 - x0_15 <= 0
tri3_0_2_15: t0_2_15 - x2_15 <= 0
tri4_0_2_15: t0_2_15 - x0_2 - x0_15 - x2_15 >= -2
tri1_0_2_16: t0_2_16 - x0_2 <= 0
tri2_0_2_16: t0_2_16 - x0_16 <= 0
tri3_0_2_16: t0_2_16 - x2_16 <= 0
tri4_0_2_16: t0_2_16 - x0_2 - x0_16 - x2_16 >= -2
tri1_0_2_17: t0_2_17 - x0_2 <= 0
tri2_0_2_17: t0_2_17 - x0_17 <= 0
tri3_0_2_17: t0_2_17 - x2_17 <= 0
tri4_0_2_17: t0_2_17 - x0_2 - x0_17 - x2_17 >= -2
tri1_0_2_18: t0_2_18 - x0_2 <= 0
tri2_0_2_18: t0_2_18 - x0_18 <= 0
tri3_0_2_18: t0_2_18 - x2_18 <= 0
tri4_0_2_18: t0_2_18 - x0_2 - x0_18 - x2_18 >= -2
tri1_0_2_19: t0_2_19 - x0_2 <= 0
tri2_0_2_19: t0_2_19 - x0_19 <= 0
tri3_0_2_19: t0_2_19 - x2_19 <= 0
tri4_0_2_19: t0_2_19 - x0_2 - x0_19 - x2_19 >= -2
tri1_0_2_20: t0_2_20 - x0_2 <= 0
tri2_0_2_20: t0_2_20 - x0_20 <= 0
tri3_0_2_20: t0_2_20 - x2_20 <= 0
tri4_0_2_20: t0_2_20 - x0_2 - x0_20 - x2_20 >= -2
tri1_0_2_21: t0_2_21 - x0_2 <= 0
tri2_0_2_21: t0_2_21 - x0_21 <= 0
tri3_0_2_21: t0_2_21 - x2_21 <= 0
tri4_0_2_21: t0_2_21 - x0_2 - x0_21 - x2_21 >= -2
tri1_0_3_4: t0_3_4 - x0_3 <= 0
tri2_0_3_4: t0_3_4 - x0_4 <= 0
tri3_0_3_4: t0_3_4 - x3_4 <= 0
tri4_0_3_4: t0_3_4 - x0_3 - x0_4 - x3_4 >= -2
tri1_0_3_5: t0_3_5 - x0_3 <= 0
tri2_0_3_5: t0_3_5 - x0_5 <= 0
tri3_0_3_5: t0_3_5 - x3_5 <= 0
tri4_0_3_5: t0_3_5 - x0_3 - x0_5 - x3_5 >= -2
tri1_0_3_6: t0_3_6 - x0_3 <= 0
tri2_0_3_6: t0_3_6 - x0_6 <= 0
tri3_0_3_6: t0_3_6 - x3_6 <= 0
tri4_0_3_6: t0_3_6 - x0_3 - x0_6 - x3_6 >= -2
tri1_0_3_7: t0_3_7 - x0_3 <= 0
tri2_0_3_7: t0_3_7 - x0_7 <= 0
tri3_0_3_7: t0_3_7 - x3_7 <= 0
tri4_0_3_7: t0_3_7 - x0_3 - x0_7 - x3_7 >= -2
tri1_0_3_8: t0_3_8 - x0_3 <= 0
tri2_0_3_8: t0_3_8 - x0_8 <= 0
tri3_0_3_8: t0_3_8 - x3_8 <= 0
tri4_0_3_8: t0_3_8 - x0_3 - x0_8 - x3_8 >= -2
tri1_0_3_9: t0_3_9 - x0_3 <= 0
tri2_0_3_9: t0_3_9 - x0_9 <= 0
tri3_0_3_9: t0_3_9 - x3_9 <= 0
tri4_0_3_9: t0_3_9 - x0_3 - x0_9 - x3_9 >= -2
tri1_0_3_10: t0_3_10 - x0_3 <= 0
tri2_0_3_10: t0_3_10 - x0_10 <= 0
tri3_0_3_10: t0_3_10 - x3_10 <= 0
tri4_0_3_10: t0_3_10 - x0_3 - x0_10 - x3_10 >= -2
tri1_0_3_11: t0_3_11 - x0_3 <= 0
tri2_0_3_11: t0_3_11 - x0_11 <= 0
tri3_0_3_11: t0_3_11 - x3_11 <= 0
tri4_0_3_11: t0_3_11 - x0_3 - x0_11 - x3_11 >= -2
tri1_0_3_12: t0_3_12 - x0_3 <= 0
tri2_0_3_12: t0_3_12 - x0_12 <= 0
tri3_0_3_12: t0_3_12 - x3_12 <= 0
tri4_0_3_12: t0_3_12 - x0_3 - x0_12 - x3_12 >= -2
tri1_0_3_13: t0_3_13 - x0_3 <= 0
tri2_0_3_13: t0_3_13 - x0_13 <= 0
tri3_0_3_13: t0_3_13 - x3_13 <= 0
tri4_0_3_13: t0_3_13 - x0_3 - x0_13 - x3_13 >= -2
tri1_0_3_14: t0_3_14 - x0_3 <= 0
tri2_0_3_14: t0_3_14 - x0_14 <= 0
tri3_0_3_14: t0_3_14 - x3_14 <= 0
tri4_0_3_14: t0_3_14 - x0_3 - x0_14 - x3_14 >= -2
tri1_0_3_15: t0_3_15 - x0_3 <= 0
tri2_0_3_15: t0_3_15 - x0_15 <= 0
tri3_0_3_15: t0_3_15 - x3_15 <= 0
tri4_0_3_15: t0_3_15 - x0_3 - x0_15 - x3_15 >= -2
tri1_0_3_16: t0_3_16 - x0_3 <= 0
tri2_0_3_16: t0_3_16 - x0_16 <= 0
tri3_0_3_16: t0_3_16 - x3_16 <= 0
tri4_0_3_16: t0_3_16 - x0_3 - x0_16 - x3_16 >= -2
tri1_0_3_17: t0_3_17 - x0_3 <= 0
tri2_0_3_17: t0_3_17 - x0_17 <= 0
tri3_0_3_17: t0_3_17 - x3_17 <= 0
tri4_0_3_17: t0_3_17 - x0_3 - x0_17 - x3_17 >= -2
tri1_0_3_18: t0_3_18 - x0_3 <= 0
tri2_0_3_18: t0_3_18 - x0_18 <= 0
tri3_0_3_18: t0_3_18 - x3_18 <= 0
tri4_0_3_18: t0_3_18 - x0_3 - x0_18 - x3_18 >= -2
tri1_0_3_19: t0_3_19 - x0_3 <= 0
tri2_0_3_19: t0_3_19 - x0_19 <= 0
tri3_0_3_19: t0_3_19 - x3_19 <= 0
tri4_0_3_19: t0_3_19 - x0_3 - x0_19 - x3_19 >= -2
tri1_0_3_20: t0_3_20 - x0_3 <= 0
tri2_0_3_20: t0_3_20 - x0_20 <= 0
tri3_0_3_20: t0_3_20 - x3_20 <= 0
tri4_0_3_20: t0_3_20 - x0_3 - x0_20 - x3_20 >= -2
tri1_0_3_21: t0_3_21 - x0_3 <= 0
tri2_0_3_21: t0_3_21 - x0_21 <= 0
tri3_0_3_21: t0_3_21 - x3_21 <= 0
tri4_0_3_21: t0_3_21 - x0_3 - x0_21 - x3_21 >= -2
tri1_0_4_5: t0_4_5 - x0_4 <= 0
tri2_0_4_5: t0_4_5 - x0_5 <= 0
tri3_0_4_5: t0_4_5 - x4_5 <= 0
tri4_0_4_5: t0_4_5 - x0_4 - x0_5 - x4_5 >= -2
tri1_0_4_6: t0_4_6 - x0_4 <= 0
tri2_0_4_6: t0_4_6 - x0_6 <= 0
tri3_0_4_6: t0_4_6 - x4_6 <= 0
tri4_0_4_6: t0_4_6 - x0_4 - x0_6 - x4_6 >= -2
tri1_0_4_7: t0_4_7 - x0_4 <= 0
tri2_0_4_7: t0_4_7 - x0_7 <= 0
tri3_0_4_7: t0_4_7 - x4_7 <= 0
tri4_0_4_7: t0_4_7 - x0_4 - x0_7 - x4_7 >= -2
tri1_0_4_8: t0_4_8 - x0_4 <= 0
tri2_0_4_8: t0_4_8 - x0_8 <= 0
tri3_0_4_8: t0_4_8 - x4_8 <= 0
tri4_0_4_8: t0_4_8 - x0_4 - x0_8 - x4_8 >= -2
tri1_0_4_9: t0_4_9 - x0_4 <= 0
tri2_0_4_9: t0_4_9 - x0_9 <= 0
tri3_0_4_9: t0_4_9 - x4_9 <= 0
tri4_0_4_9: t0_4_9 - x0_4 - x0_9 - x4_9 >= -2
tri1_0_4_10: t0_4_10 - x0_4 <= 0
tri2_0_4_10: t0_4_10 - x0_10 <= 0
tri3_0_4_10: t0_4_10 - x4_10 <= 0
tri4_0_4_10: t0_4_10 - x0_4 - x0_10 - x4_10 >= -2
tri1_0_4_11: t0_4_11 - x0_4 <= 0
tri2_0_4_11: t0_4_11 - x0_11 <= 0
tri3_0_4_11: t0_4_11 - x4_11 <= 0
tri4_0_4_11: t0_4_11 - x0_4 - x0_11 - x4_11 >= -2
tri1_0_4_12: t0_4_12 - x0_4 <= 0
tri2_0_4_12: t0_4_12 - x0_12 <= 0
tri3_0_4_12: t0_4_12 - x4_12 <= 0
tri4_0_4_12: t0_4_12 - x0_4 - x0_12 - x4_12 >= -2
tri1_0_4_13: t0_4_13 - x0_4 <= 0
tri2_0_4_13: t0_4_13 - x0_13 <= 0
tri3_0_4_13: t0_4_13 - x4_13 <= 0
tri4_0_4_13: t0_4_13 - x0_4 - x0_13 - x4_13 >= -2
tri1_0_4_14: t0_4_14 - x0_4 <= 0
tri2_0_4_14: t0_4_14 - x0_14 <= 0
tri3_0_4_14: t0_4_14 - x4_14 <= 0
tri4_0_4_14: t0_4_14 - x0_4 - x0_14 - x4_14 >= -2
tri1_0_4_15: t0_4_15 - x0_4 <= 0
tri2_0_4_15: t0_4_15 - x0_15 <= 0
tri3_0_4_15: t0_4_15 - x4_15 <= 0
tri4_0_4_15: t0_4_15 - x0_4 - x0_15 - x4_15 >= -2
tri1_0_4_16: t0_4_16 - x0_4 <= 0
tri2_0_4_16: t0_4_16 - x0_16 <= 0
tri3_0_4_16: t0_4_16 - x4_16 <= 0
tri4_0_4_16: t0_4_16 - x0_4 - x0_16 - x4_16 >= -2
tri1_0_4_17: t0_4_17 - x0_4 <= 0
tri2_0_4_17: t0_4_17 - x0_17 <= 0
tri3_0_4_17: t0_4_17 - x4_17 <= 0
tri4_0_4_17: t0_4_17 - x0_4 - x0_17 - x4_17 >= -2
tri1_0_4_18: t0_4_18 - x0_4 <= 0
tri2_0_4_18: t0_4_18 - x0_18 <= 0
tri3_0_4_18: t0_4_18 - x4_18 <= 0
tri4_0_4_18: t0_4_18 - x0_4 - x0_18 - x4_18 >= -2
tri1_0_4_19: t0_4_19 - x0_4 <= 0
tri2_0_4_19: t0_4_19 - x0_19 <= 0
tri3_0_4_19: t0_4_19 - x4_19 <= 0
tri4_0_4_19: t0_4_19 - x0_4 - x0_19 - x4_19 >= -2
tri1_0_4_20: t0_4_20 - x0_4 <= 0
tri2_0_4_20: t0_4_20 - x0_20 <= 0
tri3_0_4_20: t0_4_20 - x4_20 <= 0
tri4_0_4_20: t0_4_20 - x0_4 - x0_20 - x4_20 >= -2
tri1_0_4_21: t0_4_21 - x0_4 <= 0
tri2_0_4_21: t0_4_21 - x0_21 <= 0
tri3_0_4_21: t0_4_21 - x4_21 <= 0
tri4_0_4_21: t0_4_21 - x0_4 - x0_21 - x4_21 >= -2
tri1_0_5_6: t0_5_6 - x0_5 <= 0
tri2_0_5_6: t0_5_6 - x0_6 <= 0
tri3_0_5_6: t0_5_6 - x5_6 <= 0
tri4_0_5_6: t0_5_6 - x0_5 - x0_6 - x5_6 >= -2
tri1_0_5_7: t0_5_7 - x0_5 <= 0
tri2_0_5_7: t0_5_7 - x0_7 <= 0
tri3_0_5_7: t0_5_7 - x5_7 <= 0
tri4_0_5_7: t0_5_7 - x0_5 - x0_7 - x5_7 >= -2
tri1_0_5_8: t0_5_8 - x0_5 <= 0
tri2_0_5_8: t0_5_8 - x0_8 <= 0
tri3_0_5_8: t0_5_8 - x5_8 <= 0
tri4_0_5_8: t0_5_8 - x0_5 - x0_8 - x5_8 >= -2
tri1_0_5_9: t0_5_9 - x0_5 <= 0
tri2_0_5_9: t0_5_9 - x0_9 <= 0
tri3_0_5_9: t0_5_9 - x5_9 <= 0
tri4_0_5_9: t0_5_9 - x0_5 - x0_9 - x5_9 >= -2
tri1_0_5_10: t0_5_10 - x0_5 <= 0
tri2_0_5_10: t0_5_10 - x0_10 <= 0
tri3_0_5_10: t0_5_10 - x5_10 <= 0
tri4_0_5_10: t0_5_10 - x0_5 - x0_10 - x5_10 >= -2
tri1_0_5_11: t0_5_11 - x0_5 <= 0
tri2_0_5_11: t0_5_11 - x0_11 <= 0
tri3_0_5_11: t0_5_11 - x5_11 <= 0
tri4_0_5_11: t0_5_11 - x0_5 - x0_11 - x5_11 >= -2
tri1_0_5_12: t0_5_12 - x0_5 <= 0
tri2_0_5_12: t0_5_12 - x0_12 <= 0
tri3_0_5_12: t0_5_12 - x5_12 <= 0
tri4_0_5_12: t0_5_12 - x0_5 - x0_12 - x5_12 >= -2
tri1_0_5_13: t0_5_13 - x0_5 <= 0
tri2_0_5_13: t0_5_13 - x0_13 <= 0
tri3_0_5_13: t0_5_13 - x5_13 <= 0
tri4_0_5_13: t0_5_13 - x0_5 - x0_13 - x5_13 >= -2
tri1_0_5_14: t0_5_14 - x0_5 <= 0
tri2_0_5_14: t0_5_14 - x0_14 <= 0
tri3_0_5_14: t0_5_14 - x5_14 <= 0
tri4_0_5_14: t0_5_14 - x0_5 - x0_14 - x5_14 >= -2
tri1_0_5_15: t0_5_15 - x0_5 <= 0
tri2_0_5_15: t0_5_15 - x0_15 <= 0
tri3_0_5_15: t0_5_15 - x5_15 <= 0
tri4_0_5_15: t0_5_15 - x0_5 - x0_15 - x5_15 >= -2
tri1_0_5_16: t0_5_16 - x0_5 <= 0
tri2_0_5_16: t0_5_16 - x0_16 <= 0
tri3_0_5_16: t0_5_16 - x5_16 <= 0
tri4_0_5_16: t0_5_16 - x0_5 - x0_16 - x5_16 >= -2
tri1_0_5_17: t0_5_17 - x0_5 <= 0
tri2_0_5_17: t0_5_17 - x0_17 <= 0
tri3_0_5_17: t0_5_17 - x5_17 <= 0
tri4_0_5_17: t0_5_17 - x0_5 - x0_17 - x5_17 >= -2
tri1_0_5_18: t0_5_18 - x0_5 <= 0
tri2_0_5_18: t0_5_18 - x0_18 <= 0
tri3_0_5_18: t0_5_18 - x5_18 <= 0
tri4_0_5_18: t0_5_18 - x0_5 - x0_18 - x5_18 >= -2
tri1_0_5_19: t0_5_19 - x0_5 <= 0
tri2_0_5_19: t0_5_19 - x0_19 <= 0
tri3_0_5_19: t0_5_19 - x5_19 <= 0
tri4_0_5_19: t0_5_19 - x0_5 - x0_19 - x5_19 >= -2
tri1_0_5_20: t0_5_20 - x0_5 <= 0
tri2_0_5_20: t0_5_20 - x0_20 <= 0
tri3_0_5_20: t0_5_20 - x5_20 <= 0
tri4_0_5_20: t0_5_20 - x0_5 - x0_20 - x5_20 >= -2
tri1_0_5_21: t0_5_21 - x0_5 <= 0
tri2_0_5_21: t0_5_21 - x0_21 <= 0
tri3_0_5_21: t0_5_21 - x5_21 <= 0
tri4_0_5_21: t0_5_21 - x0_5 - x0_21 - x5_21 >= -2
tri1_0_6_7: t0_6_7 - x0_6 <= 0
tri2_0_6_7: t0_6_7 - x0_7 <= 0
tri3_0_6_7: t0_6_7 - x6_7 <= 0
tri4_0_6_7: t0_6_7 - x0_6 - x0_7 - x6_7 >= -2
tri1_0_6_8: t0_6_8 - x0_6 <= 0
tri2_0_6_8: t0_6_8 - x0_8 <= 0
tri3_0_6_8: t0_6_8 - x6_8 <= 0
tri4_0_6_8: t0_6_8 - x0_6 - x0_8 - x6_8 >= -2
tri1_0_6_9: t0_6_9 - x0_6 <= 0
tri2_0_6_9: t0_6_9 - x0_9 <= 0
tri3_0_6_9: t0_6_9 - x6_9 <= 0
tri4_0_6_9: t0_6_9 - x0_6 - x0_9 - x6_9 >= -2
tri1_0_6_10: t0_6_10 - x0_6 <= 0
tri2_0_6_10: t0_6_10 - x0_10 <= 0
tri3_0_6_10: t0_6_10 - x6_10 <= 0
tri4_0_6_10: t0_6_10 - x0_6 - x0_10 - x6_10 >= -2
tri1_0_6_11: t0_6_11 - x0_6 <= 0
tri2_0_6_11: t0_6_11 - x0_11 <= 0
tri3_0_6_11: t0_6_11 - x6_11 <= 0
tri4_0_6_11: t0_6_11 - x0_6 - x0_11 - x6_11 >= -2
tri1_0_6_12: t0_6_12 - x0_6 <= 0
tri2_0_6_12: t0_6_12 - x0_12 <= 0
tri3_0_6_12: t0_6_12 - x6_12 <= 0
tri4_0_6_12: t0_6_12 - x0_6 - x0_12 - x6_12 >= -2
tri1_0_6_13: t0_6_13 - x0_6 <= 0
tri2_0_6_13: t0_6_13 - x0_13 <= 0
tri3_0_6_13: t0_6_13 - x6_13 <= 0
tri4_0_6_13: t0_6_13 - x0_6 - x0_13 - x6_13 >= -2
tri1_0_6_14: t0_6_14 - x0_6 <= 0
tri2_0_6_14: t0_6_14 - x0_14 <= 0
tri3_0_6_14: t0_6_14 - x6_14 <= 0
tri4_0_6_14: t0_6_14 - x0_6 - x0_14 - x6_14 >= -2
tri1_0_6_15: t0_6_15 - x0_6 <= 0
tri2_0_6_15: t0_6_15 - x0_15 <= 0
tri3_0_6_15: t0_6_15 - x6_15 <= 0
tri4_0_6_15: t0_6_15 - x0_6 - x0_15 - x6_15 >= -2
tri1_0_6_16: t0_6_16 - x0_6 <= 0
tri2_0_6_16: t0_6_16 - x0_16 <= 0
tri3_0_6_16: t0_6_16 - x6_16 <= 0
tri4_0_6_16: t0_6_16 - x0_6 - x0_16 - x6_16 >= -2
tri1_0_6_17: t0_6_17 - x0_6 <= 0
tri2_0_6_17: t0_6_17 - x0_17 <= 0
tri3_0_6_17: t0_6_17 - x6_17 <= 0
tri4_0_6_17: t0_6_17 - x0_6 - x0_17 - x6_17 >= -2
tri1_0_6_18: t0_6_18 - x0_6 <= 0
tri2_0_6_18: t0_6_18 - x0_18 <= 0
tri3_0_6_18: t0_6_18 - x6_18 <= 0
tri4_0_6_18: t0_6_18 - x0_6 - x0_18 - x6_18 >= -2
tri1_0_6_19: t0_6_19 - x0_6 <= 0
tri2_0_6_19: t0_6_19 - x0_19 <= 0
tri3_0_6_19: t0_6_19 - x6_19 <= 0
tri4_0_6_19: t0_6_19 - x0_6 - x0_19 - x6_19 >= -2
tri1_0_6_20: t0_6_20 - x0_6 <= 0
tri2_0_6_20: t0_6_20 - x0_20 <= 0
tri3_0_6_20: t0_6_20 - x6_20 <= 0
tri4_0_6_20: t0_6_20 - x0_6 - x0_20 - x6_20 >= -2
tri1_0_6_21: t0_6_21 - x0_6 <= 0
tri2_0_6_21: t0_6_21 - x0_21 <= 0
tri3_0_6_21: t0_6_21 - x6_21 <= 0
tri4_0_6_21: t0_6_21 - x0_6 - x0_21 - x6_21 >= -2
tri1_0_7_8: t0_7_8 - x0_7 <= 0
tri2_0_7_8: t0_7_8 - x0_8 <= 0
tri3_0_7_8: t0_7_8 - x7_8 <= 0
tri4_0_7_8: t0_7_8 - x0_7 - x0_8 - x7_8 >= -2
tri1_0_7_9: t0_7_9 - x0_7 <= 0
tri2_0_7_9: t0_7_9 - x0_9 <= 0
tri3_0_7_9: t0_7_9 - x7_9 <= 0
tri4_0_7_9: t0_7_9 - x0_7 - x0_9 - x7_9 >= -2
tri1_0_7_10: t0_7_10 - x0_7 <= 0
tri2_0_7_10: t0_7_10 - x0_10 <= 0
tri3_0_7_10: t0_7_10 - x7_10 <= 0
tri4_0_7_10: t0_7_10 - x0_7 - x0_10 - x7_10 >= -2
tri1_0_7_11: t0_7_11 - x0_7 <= 0
tri2_0_7_11: t0_7_11 - x0_11 <= 0
tri3_0_7_11: t0_7_11 - x7_11 <= 0
tri4_0_7_11: t0_7_11 - x0_7 - x0_11 - x7_11 >= -2
tri1_0_7_12: t0_7_12 - x0_7 <= 0
tri2_0_7_12: t0_7_12 - x0_12 <= 0
tri3_0_7_12: t0_7_12 - x7_12 <= 0
tri4_0_7_12: t0_7_12 - x0_7 - x0_12 - x7_12 >= -2
tri1_0_7_13: t0_7_13 - x0_7 <= 0
tri2_0_7_13: t0_7_13 - x0_13 <= 0
tri3_0_7_13: t0_7_13 - x7_13 <= 0
tri4_0_7_13: t0_7_13 - x0_7 - x0_13 - x7_13 >= -2
tri1_0_7_14: t0_7_14 - x0_7 <= 0
tri2_0_7_14: t0_7_14 - x0_14 <= 0
tri3_0_7_14: t0_7_14 - x7_14 <= 0
tri4_0_7_14: t0_7_14 - x0_7 - x0_14 - x7_14 >= -2
tri1_0_7_15: t0_7_15 - x0_7 <= 0
tri2_0_7_15: t0_7_15 - x0_15 <= 0
tri3_0_7_15: t0_7_15 - x7_15 <= 0
tri4_0_7_15: t0_7_15 - x0_7 - x0_15 - x7_15 >= -2
tri1_0_7_16: t0_7_16 - x0_7 <= 0
tri2_0_7_16: t0_7_16 - x0_16 <= 0
tri3_0_7_16: t0_7_16 - x7_16 <= 0
tri4_0_7_16: t0_7_16 - x0_7 - x0_16 - x7_16 >= -2
tri1_0_7_17: t0_7_17 - x0_7 <= 0
tri2_0_7_17: t0_7_17 - x0_17 <= 0
tri3_0_7_17: t0_7_17 - x7_17 <= 0
tri4_0_7_17: t0_7_17 - x0_7 - x0_17 - x7_17 >= -2
tri1_0_7_18: t0_7_18 - x0_7 <= 0
tri2_0_7_18: t0_7_18 - x0_18 <= 0
tri3_0_7_18: t0_7_18 - x7_18 <= 0
tri4_0_7_18: t0_7_18 - x0_7 - x0_18 - x7_18 >= -2
tri1_0_7_19: t0_7_19 - x0_7 <= 0
tri2_0_7_19: t0_7_19 - x0_19 <= 0
tri3_0_7_19: t0_7_19 - x7_19 <= 0
tri4_0_7_19: t0_7_19 - x0_7 - x0_19 - x7_19 >= -2
tri1_0_7_20: t0_7_20 - x0_7 <= 0
tri2_0_7_20: t0_7_20 - x0_20 <= 0
tri3_0_7_20: t0_7_20 - x7_20 <= 0
tri4_0_7_20: t0_7_20 - x0_7 - x0_20 - x7_20 >= -2
tri1_0_7_21: t0_7_21 - x0_7 <= 0
tri2_0_7_21: t0_7_21 - x0_21 <= 0
tri3_0_7_21: t0_7_21 - x7_21 <= 0
tri4_0_7_21: t0_7_21 - x0_7 - x0_21 - x7_21 >= -2
tri1_0_8_9: t0_8_9 - x0_8 <= 0
tri2_0_8_9: t0_8_9 - x0_9 <= 0
tri3_0_8_9: t0_8_9 - x8_9 <= 0
tri4_0_8_9: t0_8_9 - x0_8 - x0_9 - x8_9 >= -2
tri1_0_8_10: t0_8_10 - x0_8 <= 0
tri2_0_8_10: t0_8_10 - x0_10 <= 0
tri3_0_8_10: t0_8_10 - x8_10 <= 0
tri4_0_8_10: t0_8_10 - x0_8 - x0_10 - x8_10 >= -2
tri1_0_8_11: t0_8_11 - x0_8 <= 0
tri2_0_8_11: t0_8_11 - x0_11 <= 0
tri3_0_8_11: t0_8_11 - x8_11 <= 0
tri4_0_8_11: t0_8_11 - x0_8 - x0_11 - x8_11 >= -2
tri1_0_8_12: t0_8_12 - x0_8 <= 0
tri2_0_8_12: t0_8_12 - x0_12 <= 0
tri3_0_8_12: t0_8_12 - x8_12 <= 0
tri4_0_8_12: t0_8_12 - x0_8 - x0_12 - x8_12 >= -2
tri1_0_8_13: t0_8_13 - x0_8 <= 0
tri2_0_8_13: t0_8_13 - x0_13 <= 0
tri3_0_8_13: t0_8_13 - x8_13 <= 0
tri4_0_8_13: t0_8_13 - x0_8 - x0_13 - x8_13 >= -2
tri1_0_8_14: t0_8_14 - x0_8 <= 0
tri2_0_8_14: t0_8_14 - x0_14 <= 0
tri3_0_8_14: t0_8_14 - x8_14 <= 0
tri4_0_8_14: t0_8_14 - x0_8 - x0_14 - x8_14 >= -2
tri1_0_8_15: t0_8_15 - x0_8 <= 0
tri2_0_8_15: t0_8_15 - x0_15 <= 0
tri3_0_8_15: t0_8_15 - x8_15 <= 0
tri4_0_8_15: t0_8_15 - x0_8 - x0_15 - x8_15 >= -2
tri1_0_8_16: t0_8_16 - x0_8 <= 0
tri2_0_8_16: t0_8_16 - x0_16 <= 0
tri3_0_8_16: t0_8_16 - x8_16 <= 0
tri4_0_8_16: t0_8_16 - x0_8 - x0_16 - x8_16 >= -2
tri1_0_8_17: t0_8_17 - x0_8 <= 0
tri2_0_8_17: t0_8_17 - x0_17 <= 0
tri3_0_8_17: t0_8_17 - x8_17 <= 0
tri4_0_8_17: t0_8_17 - x0_8 - x0_17 - x8_17 >= -2
tri1_0_8_18: t0_8_18 - x0_8 <= 0
tri2_0_8_18: t0_8_18 - x0_18 <= 0
tri3_0_8_18: t0_8_18 - x8_18 <= 0
tri4_0_8_18: t0_8_18 - x0_8 - x0_18 - x8_18 >= -2
tri1_0_8_19: t0_8_19 - x0_8 <= 0
tri2_0_8_19: t0_8_19 - x0_19 <= 0
tri3_0_8_19: t0_8_19 - x8_19 <= 0
tri4_0_8_19: t0_8_19 - x0_8 - x0_19 - x8_19 >= -2
tri1_0_8_20: t0_8_20 - x0_8 <= 0
tri2_0_8_20: t0_8_20 - x0_20 <= 0
tri3_0_8_20: t0_8_20 - x8_20 <= 0
tri4_0_8_20: t0_8_20 - x0_8 - x0_20 - x8_20 >= -2
tri1_0_8_21: t0_8_21 - x0_8 <= 0
tri2_0_8_21: t0_8_21 - x0_21 <= 0
tri3_0_8_21: t0_8_21 - x8_21 <= 0
tri4_0_8_21: t0_8_21 - x0_8 - x0_21 - x8_21 >= -2
tri1_0_9_10: t0_9_10 - x0_9 <= 0
tri2_0_9_10: t0_9_10 - x0_10 <= 0
tri3_0_9_10: t0_9_10 - x9_10 <= 0
tri4_0_9_10: t0_9_10 - x0_9 - x0_10 - x9_10 >= -2
tri1_0_9_11: t0_9_11 - x0_9 <= 0
tri2_0_9_11: t0_9_11 - x0_11 <= 0
tri3_0_9_11: t0_9_11 - x9_11 <= 0
tri4_0_9_11: t0_9_11 - x0_9 - x0_11 - x9_11 >= -2
tri1_0_9_12: t0_9_12 - x0_9 <= 0
tri2_0_9_12: t0_9_12 - x0_12 <= 0
tri3_0_9_12: t0_9_12 - x9_12 <= 0
tri4_0_9_12: t0_9_12 - x0_9 - x0_12 - x9_12 >= -2
tri1_0_9_13: t0_9_13 - x0_9 <= 0
tri2_0_9_13: t0_9_13 - x0_13 <= 0
tri3_0_9_13: t0_9_13 - x9_13 <= 0
tri4_0_9_13: t0_9_13 - x0_9 - x0_13 - x9_13 >= -2
tri1_0_9_14: t0_9_14 - x0_9 <= 0
tri2_0_9_14: t0_9_14 - x0_14 <= 0
tri3_0_9_14: t0_9_14 - x9_14 <= 0
tri4_0_9_14: t0_9_14 - x0_9 - x0_14 - x9_14 >= -2
tri1_0_9_15: t0_9_15 - x0_9 <= 0
tri2_0_9_15: t0_9_15 - x0_15 <= 0
tri3_0_9_15: t0_9_15 - x9_15 <= 0
tri4_0_9_15: t0_9_15 - x0_9 - x0_15 - x9_15 >= -2
tri1_0_9_16: t0_9_16 - x0_9 <= 0
tri2_0_9_16: t0_9_16 - x0_16 <= 0
tri3_0_9_16: t0_9_16 - x9_16 <= 0
tri4_0_9_16: t0_9_16 - x0_9 - x0_16 - x9_16 >= -2
tri1_0_9_17: t0_9_17 - x0_9 <= 0
tri2_0_9_17: t0_9_17 - x0_17 <= 0
tri3_0_9_17: t0_9_17 - x9_17 <= 0
tri4_0_9_17: t0_9_17 - x0_9 - x0_17 - x9_17 >= -2
tri1_0_9_18: t0_9_18 - x0_9 <= 0
tri2_0_9_18: t0_9_18 - x0_18 <= 0
tri3_0_9_18: t0_9_18 - x9_18 <= 0
tri4_0_9_18: t0_9_18 - x0_9 - x0_18 - x9_18 >= -2
tri1_0_9_19: t0_9_19 - x0_9 <= 0
tri2_0_9_19: t0_9_19 - x0_19 <= 0
tri3_0_9_19: t0_9_19 - x9_19 <= 0
tri4_0_9_19: t0_9_19 - x0_9 - x0_19 - x9_19 >= -2
tri1_0_9_20: t0_9_20 - x0_9 <= 0
tri2_0_9_20: t0_9_20 - x0_20 <= 0
tri3_0_9_20: t0_9_20 - x9_20 <= 0
tri4_0_9_20: t0_9_20 - x0_9 - x0_20 - x9_20 >= -2
tri1_0_9_21: t0_9_21 - x0_9 <= 0
tri2_0_9_21: t0_9_21 - x0_21 <= 0
tri3_0_9_21: t0_9_21 - x9_21 <= 0
tri4_0_9_21: t0_9_21 - x0_9 - x0_21 - x9_21 >= -2
tri1_0_10_11: t0_10_11 - x0_10 <= 0
tri2_0_10_11: t0_10_11 - x0_11 <= 0
tri3_0_10_11: t0_10_11 - x10_11 <= 0
tri4_0_10_11: t0_10_11 - x0_10 - x0_11 - x10_11 >= -2
tri1_0_10_12: t0_10_12 - x0_10 <= 0
tri2_0_10_12: t0_10_12 - x0_12 <= 0
tri3_0_10_12: t0_10_12 - x10_12 <= 0
tri4_0_10_12: t0_10_12 - x0_10 - x0_12 - x10_12 >= -2
tri1_0_10_13: t0_10_13 - x0_10 <= 0
tri2_0_10_13: t0_10_13 - x0_13 <= 0
tri3_0_10_13: t0_10_13 - x10_13 <= 0
tri4_0_10_13: t0_10_13 - x0_10 - x0_13 - x10_13 >= -2
tri1_0_10_14: t0_10_14 - x0_10 <= 0
tri2_0_10_14: t0_10_14 - x0_14 <= 0
tri3_0_10_14: t0_10_14 - x10_14 <= 0
tri4_0_10_14: t0_10_14 - x0_10 - x0_14 - x10_14 >= -2
tri1_0_10_15: t0_10_15 - x0_10 <= 0
tri2_0_10_15: t0_10_15 - x0_15 <= 0
tri3_0_10_15: t0_10_15 - x10_15 <= 0
tri4_0_10_15: t0_10_15 - x0_10 - x0_15 - x10_15 >= -2
tri1_0_10_16: t0_10_16 - x0_10 <= 0
tri2_0_10_16: t0_10_16 - x0_16 <= 0
tri3_0_10_16: t0_10_16 - x10_16 <= 0
tri4_0_10_16: t0_10_16 - x0_10 - x0_16 - x10_16 >= -2
tri1_0_10_17: t0_10_17 - x0_10 <= 0
tri2_0_10_17: t0_10_17 - x0_17 <= 0
tri3_0_10_17: t0_10_17 - x10_17 <= 0
tri4_0_10_17: t0_10_17 - x0_10 - x0_17 - x10_17 >= -2
tri1_0_10_18: t0_10_18 - x0_10 <= 0
tri2_0_10_18: t0_10_18 - x0_18 <= 0
tri3_0_10_18: t0_10_18 - x10_18 <= 0
tri4_0_10_18: t0_10_18 - x0_10 - x0_18 - x10_18 >= -2
tri1_0_10_19: t0_10_19 - x0_10 <= 0
tri2_0_10_19: t0_10_19 - x0_19 <= 0
tri3_0_10_19: t0_10_19 - x10_19 <= 0
tri4_0_10_19: t0_10_19 - x0_10 - x0_19 - x10_19 >= -2
tri1_0_10_20: t0_10_20 - x0_10 <= 0
tri2_0_10_20: t0_10_20 - x0_20 <= 0
tri3_0_10_20: t0_10_20 - x10_20 <= 0
tri4_0_10_20: t0_10_20 - x0_10 - x0_20 - x10_20 >= -2
tri1_0_10_21: t0_10_21 - x0_10 <= 0
tri2_0_10_21: t0_10_21 - x0_21 <= 0
tri3_0_10_21: t0_10_21 - x10_21 <= 0
tri4_0_10_21: t0_10_21 - x0_10 - x0_21 - x10_21 >= -2
tri1_0_11_12: t0_11_12 - x0_11 <= 0
tri2_0_11_12: t0_11_12 - x0_12 <= 0
tri3_0_11_12: t0_11_12 - x11_12 <= 0
tri4_0_11_12: t0_11_12 - x0_11 - x0_12 - x11_12 >= -2
tri1_0_11_13: t0_11_13 - x0_11 <= 0
tri2_0_11_13: t0_11_13 - x0_13 <= 0
tri3_0_11_13: t0_11_13 - x11_13 <= 0
tri4_0_11_13: t0_11_13 - x0_11 - x0_13 - x11_13 >= -2
tri1_0_11_14: t0_11_14 - x0_11 <= 0
tri2_0_11_14: t0_11_14 - x0_14 <= 0
tri3_0_11_14: t0_11_14 - x11_14 <= 0
tri4_0_11_14: t0_11_14 - x0_11 - x0_14 - x11_14 >= -2
tri1_0_11_15: t0_11_15 - x0_11 <= 0
tri2_0_11_15: t0_11_15 - x0_15 <= 0
tri3_0_11_15: t0_11_15 - x11_15 <= 0
tri4_0_11_15: t0_11_15 - x0_11 - x0_15 - x11_15 >= -2
tri1_0_11_16: t0_11_16 - x0_11 <= 0
tri2_0_11_16: t0_11_16 - x0_16 <= 0
tri3_0_11_16: t0_11_16 - x11_16 <= 0
tri4_0_11_16: t0_11_16 - x0_11 - x0_16 - x11_16 >= -2
tri1_0_11_17: t0_11_17 - x0_11 <= 0
tri2_0_11_17: t0_11_17 - x0_17 <= 0
tri3_0_11_17: t0_11_17 - x11_17 <= 0
tri4_0_11_17: t0_11_17 - x0_11 - x0_17 - x11_17 >= -2
tri1_0_11_18: t0_11_18 - x0_11 <= 0
tri2_0_11_18: t0_11_18 - x0_18 <= 0
tri3_0_11_18: t0_11_18 - x11_18 <= 0
tri4_0_11_18: t0_11_18 - x0_11 - x0_18 - x11_18 >= -2
tri1_0_11_19: t0_11_19 - x0_11 <= 0
tri2_0_11_19: t0_11_19 - x0_19 <= 0
tri3_0_11_19: t0_11_19 - x11_19 <= 0
tri4_0_11_19: t0_11_19 - x0_11 - x0_19 - x11_19 >= -2
tri1_0_11_20: t0_11_20 - x0_11 <= 0
tri2_0_11_20: t0_11_20 - x0_20 <= 0
tri3_0_11_20: t0_11_20 - x11_20 <= 0
tri4_0_11_20: t0_11_20 - x0_11 - x0_20 - x11_20 >= -2
tri1_0_11_21: t0_11_21 - x0_11 <= 0
tri2_0_11_21: t0_11_21 - x0_21 <= 0
tri3_0_11_21: t0_11_21 - x11_21 <= 0
tri4_0_11_21: t0_11_21 - x0_11 - x0_21 - x11_21 >= -2
tri1_0_12_13: t0_12_13 - x0_12 <= 0
tri2_0_12_13: t0_12_13 - x0_13 <= 0
tri3_0_12_13: t0_12_13 - x12_13 <= 0
tri4_0_12_13: t0_12_13 - x0_12 - x0_13 - x12_13 >= -2
tri1_0_12_14: t0_12_14 - x0_12 <= 0
tri2_0_12_14: t0_12_14 - x0_14 <= 0
tri3_0_12_14: t0_12_14 - x12_14 <= 0
tri4_0_12_14: t0_12_14 - x0_12 - x0_14 - x12_14 >= -2
tri1_0_12_15: t0_12_15 - x0_12 <= 0
tri2_0_12_15: t0_12_15 - x0_15 <= 0
tri3_0_12_15: t0_12_15 - x12_15 <= 0
tri4_0_12_15: t0_12_15 - x0_12 - x0_15 - x12_15 >= -2
tri1_0_12_16: t0_12_16 - x0_12 <= 0
tri2_0_12_16: t0_12_16 - x0_16 <= 0
tri3_0_12_16: t0_12_16 - x12_16 <= 0
tri4_0_12_16: t0_12_16 - x0_12 - x0_16 - x12_16 >= -2
tri1_0_12_17: t0_12_17 - x0_12 <= 0
tri2_0_12_17: t0_12_17 - x0_17 <= 0
tri3_0_12_17: t0_12_17 - x12_17 <= 0
tri4_0_12_17: t0_12_17 - x0_12 - x0_17 - x12_17 >= -2
tri1_0_12_18: t0_12_18 - x0_12 <= 0
tri2_0_12_18: t0_12_18 - x0_18 <= 0
tri3_0_12_18: t0_12_18 - x12_18 <= 0
tri4_0_12_18: t0_12_18 - x0_12 - x0_18 - x12_18 >= -2
tri1_0_12_19: t0_12_19 - x0_12 <= 0
tri2_0_12_19: t0_12_19 - x0_19 <= 0
tri3_0_12_19: t0_12_19 - x12_19 <= 0
tri4_0_12_19: t0_12_19 - x0_12 - x0_19 - x12_19 >= -2
tri1_0_12_20: t0_12_20 - x0_12 <= 0
tri2_0_12_20: t0_12_20 - x0_20 <= 0
tri3_0_12_20: t0_12_20 - x12_20 <= 0
tri4_0_12_20: t0_12_20 - x0_12 - x0_20 - x12_20 >= -2
tri1_0_12_21: t0_12_21 - x0_12 <= 0
tri2_0_12_21: t0_12_21 - x0_21 <= 0
tri3_0_12_21: t0_12_21 - x12_21 <= 0
tri4_0_12_21: t0_12_21 - x0_12 - x0_21 - x12_21 >= -2
tri1_0_13_14: t0_13_14 - x0_13 <= 0
tri2_0_13_14: t0_13_14 - x0_14 <= 0
tri3_0_13_14: t0_13_14 - x13_14 <= 0
tri4_0_13_14: t0_13_14 - x0_13 - x0_14 - x13_14 >= -2
tri1_0_13_15: t0_13_15 - x0_13 <= 0
tri2_0_13_15: t0_13_15 - x0_15 <= 0
tri3_0_13_15: t0_13_15 - x13_15 <= 0
tri4_0_13_15: t0_13_15 - x0_13 - x0_15 - x13_15 >= -2
tri1_0_13_16: t0_13_16 - x0_13 <= 0
tri2_0_13_16: t0_13_16 - x0_16 <= 0
tri3_0_13_16: t0_13_16 - x13_16 <= 0
tri4_0_13_16: t0_13_16 - x0_13 - x0_16 - x13_16 >= -2
tri1_0_13_17: t0_13_17 - x0_13 <= 0
tri2_0_13_17: t0_13_17 - x0_17 <= 0
tri3_0_13_17: t0_13_17 - x13_17 <= 0
tri4_0_13_17: t0_13_17 - x0_13 - x0_17 - x13_17 >= -2
tri1_0_13_18: t0_13_18 - x0_13 <= 0
tri2_0_13_18: t0_13_18 - x0_18 <= 0
tri3_0_13_18: t0_13_18 - x13_18 <= 0
tri4_0_13_18: t0_13_18 - x0_13 - x0_18 - x13_18 >= -2
tri1_0_13_19: t0_13_19 - x0_13 <= 0
tri2_0_13_19: t0_13_19 - x0_19 <= 0
tri3_0_13_19: t0_13_19 - x13_19 <= 0
tri4_0_13_19: t0_13_19 - x0_13 - x0_19 - x13_19 >= -2
tri1_0_13_20: t0_13_20 - x0_13 <= 0
tri2_0_13_20: t0_13_20 - x0_20 <= 0
tri3_0_13_20: t0_13_20 - x13_20 <= 0
tri4_0_13_20: t0_13_20 - x0_13 - x0_20 - x13_20 >= -2
tri1_0_13_21: t0_13_21 - x0_13 <= 0
tri2_0_13_21: t0_13_21 - x0_21 <= 0
tri3_0_13_21: t0_13_21 - x13_21 <= 0
tri4_0_13_21: t0_13_21 - x0_13 - x0_21 - x13_21 >= -2
tri1_0_14_15: t0_14_15 - x0_14 <= 0
tri2_0_14_15: t0_14_15 - x0_15 <= 0
tri3_0_14_15: t0_14_15 - x14_15 <= 0
tri4_0_14_15: t0_14_15 - x0_14 - x0_15 - x14_15 >= -2
tri1_0_14_16: t0_14_16 - x0_14 <= 0
tri2_0_14_16: t0_14_16 - x0_16 <= 0
tri3_0_14_16: t0_14_16 - x14_16 <= 0
tri4_0_14_16: t0_14_16 - x0_14 - x0_16 - x14_16 >= -2
tri1_0_14_17: t0_14_17 - x0_14 <= 0
tri2_0_14_17: t0_14_17 - x0_17 <= 0
tri3_0_14_17: t0_14_17 - x14_17 <= 0
tri4_0_14_17: t0_14_17 - x0_14 - x0_17 - x14_17 >= -2
tri1_0_14_18: t0_14_18 - x0_14 <= 0
tri2_0_14_18: t0_14_18 - x0_18 <= 0
tri3_0_14_18: t0_14_18 - x14_18 <= 0
tri4_0_14_18: t0_14_18 - x0_14 - x0_18 - x14_18 >= -2
tri1_0_14_19: t0_14_19 - x0_14 <= 0
tri2_0_14_19: t0_14_19 - x0_19 <= 0
tri3_0_14_19: t0_14_19 - x14_19 <= 0
tri4_0_14_19: t0_14_19 - x0_14 - x0_19 - x14_19 >= -2
tri1_0_14_20: t0_14_20 - x0_14 <= 0
tri2_0_14_20: t0_14_20 - x0_20 <= 0
tri3_0_14_20: t0_14_20 - x14_20 <= 0
tri4_0_14_20: t0_14_20 - x0_14 - x0_20 - x14_20 >= -2
tri1_0_14_21: t0_14_21 - x0_14 <= 0
tri2_0_14_21: t0_14_21 - x0_21 <= 0
tri3_0_14_21: t0_14_21 - x14_21 <= 0
tri4_0_14_21: t0_14_21 - x0_14 - x0_21 - x14_21 >= -2
tri1_0_15_16: t0_15_16 - x0_15 <= 0
tri2_0_15_16: t0_15_16 - x0_16 <= 0
tri3_0_15_16: t0_15_16 - x15_16 <= 0
tri4_0_15_16: t0_15_16 - x0_15 - x0_16 - x15_16 >= -2
tri1_0_15_17: t0_15_17 - x0_15 <= 0
tri2_0_15_17: t0_15_17 - x0_17 <= 0
tri3_0_15_17: t0_15_17 - x15_17 <= 0
tri4_0_15_17: t0_15_17 - x0_15 - x0_17 - x15_17 >= -2
tri1_0_15_18: t0_15_18 - x0_15 <= 0
tri2_0_15_18: t0_15_18 - x0_18 <= 0
tri3_0_15_18: t0_15_18 - x15_18 <= 0
tri4_0_15_18: t0_15_18 - x0_15 - x0_18 - x15_18 >= -2
tri1_0_15_19: t0_15_19 - x0_15 <= 0
tri2_0_15_19: t0_15_19 - x0_19 <= 0
tri3_0_15_19: t0_15_19 - x15_19 <= 0
tri4_0_15_19: t0_15_19 - x0_15 - x0_19 - x15_19 >= -2
tri1_0_15_20: t0_15_20 - x0_15 <= 0
tri2_0_15_20: t0_15_20 - x0_20 <= 0
tri3_0_15_20: t0_15_20 - x15_20 <= 0
tri4_0_15_20: t0_15_20 - x0_15 - x0_20 - x15_20 >= -2
tri1_0_15_21: t0_15_21 - x0_15 <= 0
tri2_0_15_21: t0_15_21 - x0_21 <= 0
tri3_0_15_21: t0_15_21 - x15_21 <= 0
tri4_0_15_21: t0_15_21 - x0_15 - x0_21 - x15_21 >= -2
tri1_0_16_17: t0_16_17 - x0_16 <= 0
tri2_0_16_17: t0_16_17 - x0_17 <= 0
tri3_0_16_17: t0_16_17 - x16_17 <= 0
tri4_0_16_17: t0_16_17 - x0_16 - x0_17 - x16_17 >= -2
tri1_0_16_18: t0_16_18 - x0_16 <= 0
tri2_0_16_18: t0_16_18 - x0_18 <= 0
tri3_0_16_18: t0_16_18 - x16_18 <= 0
tri4_0_16_18: t0_16_18 - x0_16 - x0_18 - x16_18 >= -2
tri1_0_16_19: t0_16_19 - x0_16 <= 0
tri2_0_16_19: t0_16_19 - x0_19 <= 0
tri3_0_16_19: t0_16_19 - x16_19 <= 0
tri4_0_16_19: t0_16_19 - x0_16 - x0_19 - x16_19 >= -2
tri1_0_16_20: t0_16_20 - x0_16 <= 0
tri2_0_16_20: t0_16_20 - x0_20 <= 0
tri3_0_16_20: t0_16_20 - x16_20 <= 0
tri4_0_16_20: t0_16_20 - x0_16 - x0_20 - x16_20 >= -2
tri1_0_16_21: t0_16_21 - x0_16 <= 0
tri2_0_16_21: t0_16_21 - x0_21 <= 0
tri3_0_16_21: t0_16_21 - x16_21 <= 0
tri4_0_16_21: t0_16_21 - x0_16 - x0_21 - x16_21 >= -2
tri1_0_17_18: t0_17_18 - x0_17 <= 0
tri2_0_17_18: t0_17_18 - x0_18 <= 0
tri3_0_17_18: t0_17_18 - x17_18 <= 0
tri4_0_17_18: t0_17_18 - x0_17 - x0_18 - x17_18 >= -2
tri1_0_17_19: t0_17_19 - x0_17 <= 0
tri2_0_17_19: t0_17_19 - x0_19 <= 0
tri3_0_17_19: t0_17_19 - x17_19 <= 0
tri4_0_17_19: t0_17_19 - x0_17 - x0_19 - x17_19 >= -2
tri1_0_17_20: t0_17_20 - x0_17 <= 0
tri2_0_17_20: t0_17_20 - x0_20 <= 0
tri3_0_17_20: t0_17_20 - x17_20 <= 0
tri4_0_17_20: t0_17_20 - x0_17 - x0_20 - x17_20 >= -2
tri1_0_17_21: t0_17_21 - x0_17 <= 0
tri2_0_17_21: t0_17_21 - x0_21 <= 0
tri3_0_17_21: t0_17_21 - x17_21 <= 0
tri4_0_17_21: t0_17_21 - x0_17 - x0_21 - x17_21 >= -2
tri1_0_18_19: t0_18_19 - x0_18 <= 0
tri2_0_18_19: t0_18_19 - x0_19 <= 0
tri3_0_18_19: t0_18_19 - x18_19 <= 0
tri4_0_18_19: t0_18_19 - x0_18 - x0_19 - x18_19 >= -2
tri1_0_18_20: t0_18_20 - x0_18 <= 0
tri2_0_18_20: t0_18_20 - x0_20 <= 0
tri3_0_18_20: t0_18_20 - x18_20 <= 0
tri4_0_18_20: t0_18_20 - x0_18 - x0_20 - x18_20 >= -2
tri1_0_18_21: t0_18_21 - x0_18 <= 0
tri2_0_18_21: t0_18_21 - x0_21 <= 0
tri3_0_18_21: t0_18_21 - x18_21 <= 0
tri4_0_18_21: t0_18_21 - x0_18 - x0_21 - x18_21 >= -2
tri1_0_19_20: t0_19_20 - x0_19 <= 0
tri2_0_19_20: t0_19_20 - x0_20 <= 0
tri3_0_19_20: t0_19_20 - x19_20 <= 0
tri4_0_19_20: t0_19_20 - x0_19 - x0_20 - x19_20 >= -2
tri1_0_19_21: t0_19_21 - x0_19 <= 0
tri2_0_19_21: t0_19_21 - x0_21 <= 0
tri3_0_19_21: t0_19_21 - x19_21 <= 0
tri4_0_19_21: t0_19_21 - x0_19 - x0_21 - x19_21 >= -2
tri1_0_20_21: t0_20_21 - x0_20 <= 0
tri2_0_20_21: t0_20_21 - x0_21 <= 0
tri3_0_20_21: t0_20_21 - x20_21 <= 0
tri4_0_20_21: t0_20_21 - x0_20 - x0_21 - x20_21 >= -2
tri1_1_2_3: t1_2_3 - x1_2 <= 0
tri2_1_2_3: t1_2_3 - x1_3 <= 0
tri3_1_2_3: t1_2_3 - x2_3 <= 0
tri4_1_2_3: t1_2_3 - x1_2 - x1_3 - x2_3 >= -2
tri1_1_2_4: t1_2_4 - x1_2 <= 0
tri2_1_2_4: t1_2_4 - x1_4 <= 0
tri3_1_2_4: t1_2_4 - x2_4 <= 0
tri4_1_2_4: t1_2_4 - x1_2 - x1_4 - x2_4 >= -2
tri1_1_2_5: t1_2_5 - x1_2 <= 0
tri2_1_2_5: t1_2_5 - x1_5 <= 0
tri3_1_2_5: t1_2_5 - x2_5 <= 0
tri4_1_2_5: t1_2_5 - x1_2 - x1_5 - x2_5 >= -2
tri1_1_2_6: t1_2_6 - x1_2 <= 0
tri2_1_2_6: t1_2_6 - x1_6 <= 0
tri3_1_2_6: t1_2_6 - x2_6 <= 0
tri4_1_2_6: t1_2_6 - x1_2 - x1_6 - x2_6 >= -2
tri1_1_2_7: t1_2_7 - x1_2 <= 0
tri2_1_2_7: t1_2_7 - x1_7 <= 0
tri3_1_2_7: t1_2_7 - x2_7 <= 0
tri4_1_2_7: t1_2_7 - x1_2 - x1_7 - x2_7 >= -2
tri1_1_2_8: t1_2_8 - x1_2 <= 0
tri2_1_2_8: t1_2_8 - x1_8 <= 0
tri3_1_2_8: t1_2_8 - x2_8 <= 0
tri4_1_2_8: t1_2_8 - x1_2 - x1_8 - x2_8 >= -2
tri1_1_2_9: t1_2_9 - x1_2 <= 0
tri2_1_2_9: t1_2_9 - x1_9 <= 0
tri3_1_2_9: t1_2_9 - x2_9 <= 0
tri4_1_2_9: t1_2_9 - x1_2 - x1_9 - x2_9 >= -2
tri1_1_2_10: t1_2_10 - x1_2 <= 0
tri2_1_2_10: t1_2_10 - x1_10 <= 0
tri3_1_2_10: t1_2_10 - x2_10 <= 0
tri4_1_2_10: t1_2_10 - x1_2 - x1_10 - x2_10 >= -2
tri1_1_2_11: t1_2_11 - x1_2 <= 0
tri2_1_2_11: t1_2_11 - x1_11 <= 0
tri3_1_2_11: t1_2_11 - x2_11 <= 0
tri4_1_2_11: t1_2_11 - x1_2 - x1_11 - x2_11 >= -2
tri1_1_2_12: t1_2_12 - x1_2 <= 0
tri2_1_2_12: t1_2_12 - x1_12 <= 0
tri3_1_2_12: t1_2_12 - x2_12 <= 0
tri4_1_2_12: t1_2_12 - x1_2 - x1_12 - x2_12 >= -2
tri1_1_2_13: t1_2_13 - x1_2 <= 0
tri2_1_2_13: t1_2_13 - x1_13 <= 0
tri3_1_2_13: t1_2_13 - x2_13 <= 0
tri4_1_2_13: t1_2_13 - x1_2 - x1_13 - x2_13 >= -2
tri1_1_2_14: t1_2_14 - x1_2 <= 0
tri2_1_2_14: t1_2_14 - x1_14 <= 0
tri3_1_2_14: t1_2_14 - x2_14 <= 0
tri4_1_2_14: t1_2_14 - x1_2 - x1_14 - x2_14 >= -2
tri1_1_2_15: t1_2_15 - x1_2 <= 0
tri2_1_2_15: t1_2_15 - x1_15 <= 0
tri3_1_2_15: t1_2_15 - x2_15 <= 0
tri4_1_2_15: t1_2_15 - x1_2 - x1_15 - x2_15 >= -2
tri1_1_2_16: t1_2_16 - x1_2 <= 0
tri2_1_2_16: t1_2_16 - x1_16 <= 0
tri3_1_2_16: t1_2_16 - x2_16 <= 0
tri4_1_2_16: t1_2_16 - x1_2 - x1_16 - x2_16 >= -2
tri1_1_2_17: t1_2_17 - x1_2 <= 0
tri2_1_2_17: t1_2_17 - x1_17 <= 0
tri3_1_2_17: t1_2_17 - x2_17 <= 0
tri4_1_2_17: t1_2_17 - x1_2 - x1_17 - x2_17 >= -2
tri1_1_2_18: t1_2_18 - x1_2 <= 0
tri2_1_2_18: t1_2_18 - x1_18 <= 0
tri3_1_2_18: t1_2_18 - x2_18 <= 0
tri4_1_2_18: t1_2_18 - x1_2 - x1_18 - x2_18 >= -2
tri1_1_2_19: t1_2_19 - x1_2 <= 0
tri2_1_2_19: t1_2_19 - x1_19 <= 0
tri3_1_2_19: t1_2_19 - x2_19 <= 0
tri4_1_2_19: t1_2_19 - x1_2 - x1_19 - x2_19 >= -2
tri1_1_2_20: t1_2_20 - x1_2 <= 0
tri2_1_2_20: t1_2_20 - x1_20 <= 0
tri3_1_2_20: t1_2_20 - x2_20 <= 0
tri4_1_2_20: t1_2_20 - x1_2 - x1_20 - x2_20 >= -2
tri1_1_2_21: t1_2_21 - x1_2 <= 0
tri2_1_2_21: t1_2_21 - x1_21 <= 0
tri3_1_2_21: t1_2_21 - x2_21 <= 0
tri4_1_2_21: t1_2_21 - x1_2 - x1_21 - x2_21 >= -2
tri1_1_3_4: t1_3_4 - x1_3 <= 0
tri2_1_3_4: t1_3_4 - x1_4 <= 0
tri3_1_3_4: t1_3_4 - x3_4 <= 0
tri4_1_3_4: t1_3_4 - x1_3 - x1_4 - x3_4 >= -2
tri1_1_3_5: t1_3_5 - x1_3 <= 0
tri2_1_3_5: t1_3_5 - x1_5 <= 0
tri3_1_3_5: t1_3_5 - x3_5 <= 0
tri4_1_3_5: t1_3_5 - x1_3 - x1_5 - x3_5 >= -2
tri1_1_3_6: t1_3_6 - x1_3 <= 0
tri2_1_3_6: t1_3_6 - x1_6 <= 0
tri3_1_3_6: t1_3_6 - x3_6 <= 0
tri4_1_3_6: t1_3_6 - x1_3 - x1_6 - x3_6 >= -2
tri1_1_3_7: t1_3_7 - x1_3 <= 0
tri2_1_3_7: t1_3_7 - x1_7 <= 0
tri3_1_3_7: t1_3_7 - x3_7 <= 0
tri4_1_3_7: t1_3_7 - x1_3 - x1_7 - x3_7 >= -2
tri1_1_3_8: t1_3_8 - x1_3 <= 0
tri2_1_3_8: t1_3_8 - x1_8 <= 0
tri3_1_3_8: t1_3_8 - x3_8 <= 0
tri4_1_3_8: t1_3_8 - x1_3 - x1_8 - x3_8 >= -2
tri1_1_3_9: t1_3_9 - x1_3 <= 0
tri2_1_3_9: t1_3_9 - x1_9 <= 0
tri3_1_3_9: t1_3_9 - x3_9 <= 0
tri4_1_3_9: t1_3_9 - x1_3 - x1_9 - x3_9 >= -2
tri1_1_3_10: t1_3_10 - x1_3 <= 0
tri2_1_3_10: t1_3_10 - x1_10 <= 0
tri3_1_3_10: t1_3_10 - x3_10 <= 0
tri4_1_3_10: t1_3_10 - x1_3 - x1_10 - x3_10 >= -2
tri1_1_3_11: t1_3_11 - x1_3 <= 0
tri2_1_3_11: t1_3_11 - x1_11 <= 0
tri3_1_3_11: t1_3_11 - x3_11 <= 0
tri4_1_3_11: t1_3_11 - x1_3 - x1_11 - x3_11 >= -2
tri1_1_3_12: t1_3_12 - x1_3 <= 0
tri2_1_3_12: t1_3_12 - x1_12 <= 0
tri3_1_3_12: t1_3_12 - x3_12 <= 0
tri4_1_3_12: t1_3_12 - x1_3 - x1_12 - x3_12 >= -2
tri1_1_3_13: t1_3_13 - x1_3 <= 0
tri2_1_3_13: t1_3_13 - x1_13 <= 0
tri3_1_3_13: t1_3_13 - x3_13 <= 0
tri4_1_3_13: t1_3_13 - x1_3 - x1_13 - x3_13 >= -2
tri1_1_3_14: t1_3_14 - x1_3 <= 0
tri2_1_3_14: t1_3_14 - x1_14 <= 0
tri3_1_3_14: t1_3_14 - x3_14 <= 0
tri4_1_3_14: t1_3_14 - x1_3 - x1_14 - x3_14 >= -2
tri1_1_3_15: t1_3_15 - x1_3 <= 0
tri2_1_3_15: t1_3_15 - x1_15 <= 0
tri3_1_3_15: t1_3_15 - x3_15 <= 0
tri4_1_3_15: t1_3_15 - x1_3 - x1_15 - x3_15 >= -2
tri1_1_3_16: t1_3_16 - x1_3 <= 0
tri2_1_3_16: t1_3_16 - x1_16 <= 0
tri3_1_3_16: t1_3_16 - x3_16 <= 0
tri4_1_3_16: t1_3_16 - x1_3 - x1_16 - x3_16 >= -2
tri1_1_3_17: t1_3_17 - x1_3 <= 0
tri2_1_3_17: t1_3_17 - x1_17 <= 0
tri3_1_3_17: t1_3_17 - x3_17 <= 0
tri4_1_3_17: t1_3_17 - x1_3 - x1_17 - x3_17 >= -2
tri1_1_3_18: t1_3_18 - x1_3 <= 0
tri2_1_3_18: t1_3_18 - x1_18 <= 0
tri3_1_3_18: t1_3_18 - x3_18 <= 0
tri4_1_3_18: t1_3_18 - x1_3 - x1_18 - x3_18 >= -2
tri1_1_3_19: t1_3_19 - x1_3 <= 0
tri2_1_3_19: t1_3_19 - x1_19 <= 0
tri3_1_3_19: t1_3_19 - x3_19 <= 0
tri4_1_3_19: t1_3_19 - x1_3 - x1_19 - x3_19 >= -2
tri1_1_3_20: t1_3_20 - x1_3 <= 0
tri2_1_3_20: t1_3_20 - x1_20 <= 0
tri3_1_3_20: t1_3_20 - x3_20 <= 0
tri4_1_3_20: t1_3_20 - x1_3 - x1_20 - x3_20 >= -2
tri1_1_3_21: t1_3_21 - x1_3 <= 0
tri2_1_3_21: t1_3_21 - x1_21 <= 0
tri3_1_3_21: t1_3_21 - x3_21 <= 0
tri4_1_3_21: t1_3_21 - x1_3 - x1_21 - x3_21 >= -2
tri1_1_4_5: t1_4_5 - x1_4 <= 0
tri2_1_4_5: t1_4_5 - x1_5 <= 0
tri3_1_4_5: t1_4_5 - x4_5 <= 0
tri4_1_4_5: t1_4_5 - x1_4 - x1_5 - x4_5 >= -2
tri1_1_4_6: t1_4_6 - x1_4 <= 0
tri2_1_4_6: t1_4_6 - x1_6 <= 0
tri3_1_4_6: t1_4_6 - x4_6 <= 0
tri4_1_4_6: t1_4_6 - x1_4 - x1_6 - x4_6 >= -2
tri1_1_4_7: t1_4_7 - x1_4 <= 0
tri2_1_4_7: t1_4_7 - x1_7 <= 0
tri3_1_4_7: t1_4_7 - x4_7 <= 0
tri4_1_4_7: t1_4_7 - x1_4 - x1_7 - x4_7 >= -2
tri1_1_4_8: t1_4_8 - x1_4 <= 0
tri2_1_4_8: t1_4_8 - x1_8 <= 0
tri3_1_4_8: t1_4_8 - x4_8 <= 0
tri4_1_4_8: t1_4_8 - x1_4 - x1_8 - x4_8 >= -2
tri1_1_4_9: t1_4_9 - x1_4 <= 0
tri2_1_4_9: t1_4_9 - x1_9 <= 0
tri3_1_4_9: t1_4_9 - x4_9 <= 0
tri4_1_4_9: t1_4_9 - x1_4 - x1_9 - x4_9 >= -2
tri1_1_4_10: t1_4_10 - x1_4 <= 0
tri2_1_4_10: t1_4_10 - x1_10 <= 0
tri3_1_4_10: t1_4_10 - x4_10 <= 0
tri4_1_4_10: t1_4_10 - x1_4 - x1_10 - x4_10 >= -2
tri1_1_4_11: t1_4_11 - x1_4 <= 0
tri2_1_4_11: t1_4_11 - x1_11 <= 0
tri3_1_4_11: t1_4_11 - x4_11 <= 0
tri4_1_4_11: t1_4_11 - x1_4 - x1_11 - x4_11 >= -2
tri1_1_4_12: t1_4_12 - x1_4 <= 0
tri2_1_4_12: t1_4_12 - x1_12 <= 0
tri3_1_4_12: t1_4_12 - x4_12 <= 0
tri4_1_4_12: t1_4_12 - x1_4 - x1_12 - x4_12 >= -2
tri1_1_4_13: t1_4_13 - x1_4 <= 0
tri2_1_4_13: t1_4_13 - x1_13 <= 0
tri3_1_4_13: t1_4_13 - x4_13 <= 0
tri4_1_4_13: t1_4_13 - x1_4 - x1_13 - x4_13 >= -2
tri1_1_4_14: t1_4_14 - x1_4 <= 0
tri2_1_4_14: t1_4_14 - x1_14 <= 0
tri3_1_4_14: t1_4_14 - x4_14 <= 0
tri4_1_4_14: t1_4_14 - x1_4 - x1_14 - x4_14 >= -2
tri1_1_4_15: t1_4_15 - x1_4 <= 0
tri2_1_4_15: t1_4_15 - x1_15 <= 0
tri3_1_4_15: t1_4_15 - x4_15 <= 0
tri4_1_4_15: t1_4_15 - x1_4 - x1_15 - x4_15 >= -2
tri1_1_4_16: t1_4_16 - x1_4 <= 0
tri2_1_4_16: t1_4_16 - x1_16 <= 0
tri3_1_4_16: t1_4_16 - x4_16 <= 0
tri4_1_4_16: t1_4_16 - x1_4 - x1_16 - x4_16 >= -2
tri1_1_4_17: t1_4_17 - x1_4 <= 0
tri2_1_4_17: t1_4_17 - x1_17 <= 0
tri3_1_4_17: t1_4_17 - x4_17 <= 0
tri4_1_4_17: t1_4_17 - x1_4 - x1_17 - x4_17 >= -2
tri1_1_4_18: t1_4_18 - x1_4 <= 0
tri2_1_4_18: t1_4_18 - x1_18 <= 0
tri3_1_4_18: t1_4_18 - x4_18 <= 0
tri4_1_4_18: t1_4_18 - x1_4 - x1_18 - x4_18 >= -2
tri1_1_4_19: t1_4_19 - x1_4 <= 0
tri2_1_4_19: t1_4_19 - x1_19 <= 0
tri3_1_4_19: t1_4_19 - x4_19 <= 0
tri4_1_4_19: t1_4_19 - x1_4 - x1_19 - x4_19 >= -2
tri1_1_4_20: t1_4_20 - x1_4 <= 0
tri2_1_4_20: t1_4_20 - x1_20 <= 0
tri3_1_4_20: t1_4_20 - x4_20 <= 0
tri4_1_4_20: t1_4_20 - x1_4 - x1_20 - x4_20 >= -2
tri1_1_4_21: t1_4_21 - x1_4 <= 0
tri2_1_4_21: t1_4_21 - x1_21 <= 0
tri3_1_4_21: t1_4_21 - x4_21 <= 0
tri4_1_4_21: t1_4_21 - x1_4 - x1_21 - x4_21 >= -2
tri1_1_5_6: t1_5_6 - x1_5 <= 0
tri2_1_5_6: t1_5_6 - x1_6 <= 0
tri3_1_5_6: t1_5_6 - x5_6 <= 0
tri4_1_5_6: t1_5_6 - x1_5 - x1_6 - x5_6 >= -2
tri1_1_5_7: t1_5_7 - x1_5 <= 0
tri2_1_5_7: t1_5_7 - x1_7 <= 0
tri3_1_5_7: t1_5_7 - x5_7 <= 0
tri4_1_5_7: t1_5_7 - x1_5 - x1_7 - x5_7 >= -2
tri1_1_5_8: t1_5_8 - x1_5 <= 0
tri2_1_5_8: t1_5_8 - x1_8 <= 0
tri3_1_5_8: t1_5_8 - x5_8 <= 0
tri4_1_5_8: t1_5_8 - x1_5 - x1_8 - x5_8 >= -2
tri1_1_5_9: t1_5_9 - x1_5 <= 0
tri2_1_5_9: t1_5_9 - x1_9 <= 0
tri3_1_5_9: t1_5_9 - x5_9 <= 0
tri4_1_5_9: t1_5_9 - x1_5 - x1_9 - x5_9 >= -2
tri1_1_5_10: t1_5_10 - x1_5 <= 0
tri2_1_5_10: t1_5_10 - x1_10 <= 0
tri3_1_5_10: t1_5_10 - x5_10 <= 0
tri4_1_5_10: t1_5_10 - x1_5 - x1_10 - x5_10 >= -2
tri1_1_5_11: t1_5_11 - x1_5 <= 0
tri2_1_5_11: t1_5_11 - x1_11 <= 0
tri3_1_5_11: t1_5_11 - x5_11 <= 0
tri4_1_5_11: t1_5_11 - x1_5 - x1_11 - x5_11 >= -2
tri1_1_5_12: t1_5_12 - x1_5 <= 0
tri2_1_5_12: t1_5_12 - x1_12 <= 0
tri3_1_5_12: t1_5_12 - x5_12 <= 0
tri4_1_5_12: t1_5_12 - x1_5 - x1_12 - x5_12 >= -2
tri1_1_5_13: t1_5_13 - x1_5 <= 0
tri2_1_5_13: t1_5_13 - x1_13 <= 0
tri3_1_5_13: t1_5_13 - x5_13 <= 0
tri4_1_5_13: t1_5_13 - x1_5 - x1_13 - x5_13 >= -2
tri1_1_5_14: t1_5_14 - x1_5 <= 0
tri2_1_5_14: t1_5_14 - x1_14 <= 0
tri3_1_5_14: t1_5_14 - x5_14 <= 0
tri4_1_5_14: t1_5_14 - x1_5 - x1_14 - x5_14 >= -2
tri1_1_5_15: t1_5_15 - x1_5 <= 0
tri2_1_5_15: t1_5_15 - x1_15 <= 0
tri3_1_5_15: t1_5_15 - x5_15 <= 0
tri4_1_5_15: t1_5_15 - x1_5 - x1_15 - x5_15 >= -2
tri1_1_5_16: t1_5_16 - x1_5 <= 0
tri2_1_5_16: t1_5_16 - x1_16 <= 0
tri3_1_5_16: t1_5_16 - x5_16 <= 0
tri4_1_5_16: t1_5_16 - x1_5 - x1_16 - x5_16 >= -2
tri1_1_5_17: t1_5_17 - x1_5 <= 0
tri2_1_5_17: t1_5_17 - x1_17 <= 0
tri3_1_5_17: t1_5_17 - x5_17 <= 0
tri4_1_5_17: t1_5_17 - x1_5 - x1_17 - x5_17 >= -2
tri1_1_5_18: t1_5_18 - x1_5 <= 0
tri2_1_5_18: t1_5_18 - x1_18 <= 0
tri3_1_5_18: t1_5_18 - x5_18 <= 0
tri4_1_5_18: t1_5_18 - x1_5 - x1_18 - x5_18 >= -2
tri1_1_5_19: t1_5_19 - x1_5 <= 0
tri2_1_5_19: t1_5_19 - x1_19 <= 0
tri3_1_5_19: t1_5_19 - x5_19 <= 0
tri4_1_5_19: t1_5_19 - x1_5 - x1_19 - x5_19 >= -2
tri1_1_5_20: t1_5_20 - x1_5 <= 0
tri2_1_5_20: t1_5_20 - x1_20 <= 0
tri3_1_5_20: t1_5_20 - x5_20 <= 0
tri4_1_5_20: t1_5_20 - x1_5 - x1_20 - x5_20 >= -2
tri1_1_5_21: t1_5_21 - x1_5 <= 0
tri2_1_5_21: t1_5_21 - x1_21 <= 0
tri3_1_5_21: t1_5_21 - x5_21 <= 0
tri4_1_5_21: t1_5_21 - x1_5 - x1_21 - x5_21 >= -2
tri1_1_6_7: t1_6_7 - x1_6 <= 0
tri2_1_6_7: t1_6_7 - x1_7 <= 0
tri3_1_6_7: t1_6_7 - x6_7 <= 0
tri4_1_6_7: t1_6_7 - x1_6 - x1_7 - x6_7 >= -2
tri1_1_6_8: t1_6_8 - x1_6 <= 0
tri2_1_6_8: t1_6_8 - x1_8 <= 0
tri3_1_6_8: t1_6_8 - x6_8 <= 0
tri4_1_6_8: t1_6_8 - x1_6 - x1_8 - x6_8 >= -2
tri1_1_6_9: t1_6_9 - x1_6 <= 0
tri2_1_6_9: t1_6_9 - x1_9 <= 0
tri3_1_6_9: t1_6_9 - x6_9 <= 0
tri4_1_6_9: t1_6_9 - x1_6 - x1_9 - x6_9 >= -2
tri1_1_6_10: t1_6_10 - x1_6 <= 0
tri2_1_6_10: t1_6_10 - x1_10 <= 0
tri3_1_6_10: t1_6_10 - x6_10 <= 0
tri4_1_6_10: t1_6_10 - x1_6 - x1_10 - x6_10 >= -2
tri1_1_6_11: t1_6_11 - x1_6 <= 0
tri2_1_6_11: t1_6_11 - x1_11 <= 0
tri3_1_6_11: t1_6_11 - x6_11 <= 0
tri4_1_6_11: t1_6_11 - x1_6 - x1_11 - x6_11 >= -2
tri1_1_6_12: t1_6_12 - x1_6 <= 0
tri2_1_6_12: t1_6_12 - x1_12 <= 0
tri3_1_6_12: t1_6_12 - x6_12 <= 0
tri4_1_6_12: t1_6_12 - x1_6 - x1_12 - x6_12 >= -2
tri1_1_6_13: t1_6_13 - x1_6 <= 0
tri2_1_6_13: t1_6_13 - x1_13 <= 0
tri3_1_6_13: t1_6_13 - x6_13 <= 0
tri4_1_6_13: t1_6_13 - x1_6 - x1_13 - x6_13 >= -2
tri1_1_6_14: t1_6_14 - x1_6 <= 0
tri2_1_6_14: t1_6_14 - x1_14 <= 0
tri3_1_6_14: t1_6_14 - x6_14 <= 0
tri4_1_6_14: t1_6_14 - x1_6 - x1_14 - x6_14 >= -2
tri1_1_6_15: t1_6_15 - x1_6 <= 0
tri2_1_6_15: t1_6_15 - x1_15 <= 0
tri3_1_6_15: t1_6_15 - x6_15 <= 0
tri4_1_6_15: t1_6_15 - x1_6 - x1_15 - x6_15 >= -2
tri1_1_6_16: t1_6_16 - x1_6 <= 0
tri2_1_6_16: t1_6_16 - x1_16 <= 0
tri3_1_6_16: t1_6_16 - x6_16 <= 0
tri4_1_6_16: t1_6_16 - x1_6 - x1_16 - x6_16 >= -2
tri1_1_6_17: t1_6_17 - x1_6 <= 0
tri2_1_6_17: t1_6_17 - x1_17 <= 0
tri3_1_6_17: t1_6_17 - x6_17 <= 0
tri4_1_6_17: t1_6_17 - x1_6 - x1_17 - x6_17 >= -2
tri1_1_6_18: t1_6_18 - x1_6 <= 0
tri2_1_6_18: t1_6_18 - x1_18 <= 0
tri3_1_6_18: t1_6_18 - x6_18 <= 0
tri4_1_6_18: t1_6_18 - x1_6 - x1_18 - x6_18 >= -2
tri1_1_6_19: t1_6_19 - x1_6 <= 0
tri2_1_6_19: t1_6_19 - x1_19 <= 0
tri3_1_6_19: t1_6_19 - x6_19 <= 0
tri4_1_6_19: t1_6_19 - x1_6 - x1_19 - x6_19 >= -2
tri1_1_6_20: t1_6_20 - x1_6 <= 0
tri2_1_6_20: t1_6_20 - x1_20 <= 0
tri3_1_6_20: t1_6_20 - x6_20 <= 0
tri4_1_6_20: t1_6_20 - x1_6 - x1_20 - x6_20 >= -2
tri1_1_6_21: t1_6_21 - x1_6 <= 0
tri2_1_6_21: t1_6_21 - x1_21 <= 0
tri3_1_6_21: t1_6_21 - x6_21 <= 0
tri4_1_6_21: t1_6_21 - x1_6 - x1_21 - x6_21 >= -2
tri1_1_7_8: t1_7_8 - x1_7 <= 0
tri2_1_7_8: t1_7_8 - x1_8 <= 0
tri3_1_7_8: t1_7_8 - x7_8 <= 0
tri4_1_7_8: t1_7_8 - x1_7 - x1_8 - x7_8 >= -2
tri1_1_7_9: t1_7_9 - x1_7 <= 0
tri2_1_7_9: t1_7_9 - x1_9 <= 0
tri3_1_7_9: t1_7_9 - x7_9 <= 0
tri4_1_7_9: t1_7_9 - x1_7 - x1_9 - x7_9 >= -2
tri1_1_7_10: t1_7_10 - x1_7 <= 0
tri2_1_7_10: t1_7_10 - x1_10 <= 0
tri3_1_7_10: t1_7_10 - x7_10 <= 0
tri4_1_7_10: t1_7_10 - x1_7 - x1_10 - x7_10 >= -2
tri1_1_7_11: t1_7_11 - x1_7 <= 0
tri2_1_7_11: t1_7_11 - x1_11 <= 0
tri3_1_7_11: t1_7_11 - x7_11 <= 0
tri4_1_7_11: t1_7_11 - x1_7 - x1_11 - x7_11 >= -2
tri1_1_7_12: t1_7_12 - x1_7 <= 0
tri2_1_7_12: t1_7_12 - x1_12 <= 0
tri3_1_7_12: t1_7_12 - x7_12 <= 0
tri4_1_7_12: t1_7_12 - x1_7 - x1_12 - x7_12 >= -2
tri1_1_7_13: t1_7_13 - x1_7 <= 0
tri2_1_7_13: t1_7_13 - x1_13 <= 0
tri3_1_7_13: t1_7_13 - x7_13 <= 0
tri4_1_7_13: t1_7_13 - x1_7 - x1_13 - x7_13 >= -2
tri1_1_7_14: t1_7_14 - x1_7 <= 0
tri2_1_7_14: t1_7_14 - x1_14 <= 0
tri3_1_7_14: t1_7_14 - x7_14 <= 0
tri4_1_7_14: t1_7_14 - x1_7 - x1_14 - x7_14 >= -2
tri1_1_7_15: t1_7_15 - x1_7 <= 0
tri2_1_7_15: t1_7_15 - x1_15 <= 0
tri3_1_7_15: t1_7_15 - x7_15 <= 0
tri4_1_7_15: t1_7_15 - x1_7 - x1_15 - x7_15 >= -2
tri1_1_7_16: t1_7_16 - x1_7 <= 0
tri2_1_7_16: t1_7_16 - x1_16 <= 0
tri3_1_7_16: t1_7_16 - x7_16 <= 0
tri4_1_7_16: t1_7_16 - x1_7 - x1_16 - x7_16 >= -2
tri1_1_7_17: t1_7_17 - x1_7 <= 0
tri2_1_7_17: t1_7_17 - x1_17 <= 0
tri3_1_7_17: t1_7_17 - x7_17 <= 0
tri4_1_7_17: t1_7_17 - x1_7 - x1_17 - x7_17 >= -2
tri1_1_7_18: t1_7_18 - x1_7 <= 0
tri2_1_7_18: t1_7_18 - x1_18 <= 0
tri3_1_7_18: t1_7_18 - x7_18 <= 0
tri4_1_7_18: t1_7_18 - x1_7 - x1_18 - x7_18 >= -2
tri1_1_7_19: t1_7_19 - x1_7 <= 0
tri2_1_7_19: t1_7_19 - x1_19 <= 0
tri3_1_7_19: t1_7_19 - x7_19 <= 0
tri4_1_7_19: t1_7_19 - x1_7 - x1_19 - x7_19 >= -2
tri1_1_7_20: t1_7_20 - x1_7 <= 0
tri2_1_7_20: t1_7_20 - x1_20 <= 0
tri3_1_7_20: t1_7_20 - x7_20 <= 0
tri4_1_7_20: t1_7_20 - x1_7 - x1_20 - x7_20 >= -2
tri1_1_7_21: t1_7_21 - x1_7 <= 0
tri2_1_7_21: t1_7_21 - x1_21 <= 0
tri3_1_7_21: t1_7_21 - x7_21 <= 0
tri4_1_7_21: t1_7_21 - x1_7 - x1_21 - x7_21 >= -2
tri1_1_8_9: t1_8_9 - x1_8 <= 0
tri2_1_8_9: t1_8_9 - x1_9 <= 0
tri3_1_8_9: t1_8_9 - x8_9 <= 0
tri4_1_8_9: t1_8_9 - x1_8 - x1_9 - x8_9 >= -2
tri1_1_8_10: t1_8_10 - x1_8 <= 0
tri2_1_8_10: t1_8_10 - x1_10 <= 0
tri3_1_8_10: t1_8_10 - x8_10 <= 0
tri4_1_8_10: t1_8_10 - x1_8 - x1_10 - x8_10 >= -2
tri1_1_8_11: t1_8_11 - x1_8 <= 0
tri2_1_8_11: t1_8_11 - x1_11 <= 0
tri3_1_8_11: t1_8_11 - x8_11 <= 0
tri4_1_8_11: t1_8_11 - x1_8 - x1_11 - x8_11 >= -2
tri1_1_8_12: t1_8_12 - x1_8 <= 0
tri2_1_8_12: t1_8_12 - x1_12 <= 0
tri3_1_8_12: t1_8_12 - x8_12 <= 0
tri4_1_8_12: t1_8_12 - x1_8 - x1_12 - x8_12 >= -2
tri1_1_8_13: t1_8_13 - x1_8 <= 0
tri2_1_8_13: t1_8_13 - x1_13 <= 0
tri3_1_8_13: t1_8_13 - x8_13 <= 0
tri4_1_8_13: t1_8_13 - x1_8 - x1_13 - x8_13 >= -2
tri1_1_8_14: t1_8_14 - x1_8 <= 0
tri2_1_8_14: t1_8_14 - x1_14 <= 0
tri3_1_8_14: t1_8_14 - x8_14 <= 0
tri4_1_8_14: t1_8_14 - x1_8 - x1_14 - x8_14 >= -2
tri1_1_8_15: t1_8_15 - x1_8 <= 0
tri2_1_8_15: t1_8_15 - x1_15 <= 0
tri3_1_8_15: t1_8_15 - x8_15 <= 0
tri4_1_8_15: t1_8_15 - x1_8 - x1_15 - x8_15 >= -2
tri1_1_8_16: t1_8_16 - x1_8 <= 0
tri2_1_8_16: t1_8_16 - x1_16 <= 0
tri3_1_8_16: t1_8_16 - x8_16 <= 0
tri4_1_8_16: t1_8_16 - x1_8 - x1_16 - x8_16 >= -2
tri1_1_8_17: t1_8_17 - x1_8 <= 0
tri2_1_8_17: t1_8_17 - x1_17 <= 0
tri3_1_8_17: t1_8_17 - x8_17 <= 0
tri4_1_8_17: t1_8_17 - x1_8 - x1_17 - x8_17 >= -2
tri1_1_8_18: t1_8_18 - x1_8 <= 0
tri2_1_8_18: t1_8_18 - x1_18 <= 0
tri3_1_8_18: t1_8_18 - x8_18 <= 0
tri4_1_8_18: t1_8_18 - x1_8 - x1_18 - x8_18 >= -2
tri1_1_8_19: t1_8_19 - x1_8 <= 0
tri2_1_8_19: t1_8_19 - x1_19 <= 0
tri3_1_8_19: t1_8_19 - x8_19 <= 0
tri4_1_8_19: t1_8_19 - x1_8 - x1_19 - x8_19 >= -2
tri1_1_8_20: t1_8_20 - x1_8 <= 0
tri2_1_8_20: t1_8_20 - x1_20 <= 0
tri3_1_8_20: t1_8_20 - x8_20 <= 0
tri4_1_8_20: t1_8_20 - x1_8 - x1_20 - x8_20 >= -2
tri1_1_8_21: t1_8_21 - x1_8 <= 0
tri2_1_8_21: t1_8_21 - x1_21 <= 0
tri3_1_8_21: t1_8_21 - x8_21 <= 0
tri4_1_8_21: t1_8_21 - x1_8 - x1_21 - x8_21 >= -2
tri1_1_9_10: t1_9_10 - x1_9 <= 0
tri2_1_9_10: t1_9_10 - x1_10 <= 0
tri3_1_9_10: t1_9_10 - x9_10 <= 0
tri4_1_9_10: t1_9_10 - x1_9 - x1_10 - x9_10 >= -2
tri1_1_9_11: t1_9_11 - x1_9 <= 0
tri2_1_9_11: t1_9_11 - x1_11 <= 0
tri3_1_9_11: t1_9_11 - x9_11 <= 0
tri4_1_9_11: t1_9_11 - x1_9 - x1_11 - x9_11 >= -2
tri1_1_9_12: t1_9_12 - x1_9 <= 0
tri2_1_9_12: t1_9_12 - x1_12 <= 0
tri3_1_9_12: t1_9_12 - x9_12 <= 0
tri4_1_9_12: t1_9_12 - x1_9 - x1_12 - x9_12 >= -2
tri1_1_9_13: t1_9_13 - x1_9 <= 0
tri2_1_9_13: t1_9_13 - x1_13 <= 0
tri3_1_9_13: t1_9_13 - x9_13 <= 0
tri4_1_9_13: t1_9_13 - x1_9 - x1_13 - x9_13 >= -2
tri1_1_9_14: t1_9_14 - x1_9 <= 0
tri2_1_9_14: t1_9_14 - x1_14 <= 0
tri3_1_9_14: t1_9_14 - x9_14 <= 0
tri4_1_9_14: t1_9_14 - x1_9 - x1_14 - x9_14 >= -2
tri1_1_9_15: t1_9_15 - x1_9 <= 0
tri2_1_9_15: t1_9_15 - x1_15 <= 0
tri3_1_9_15: t1_9_15 - x9_15 <= 0
tri4_1_9_15: t1_9_15 - x1_9 - x1_15 - x9_15 >= -2
tri1_1_9_16: t1_9_16 - x1_9 <= 0
tri2_1_9_16: t1_9_16 - x1_16 <= 0
tri3_1_9_16: t1_9_16 - x9_16 <= 0
tri4_1_9_16: t1_9_16 - x1_9 - x1_16 - x9_16 >= -2
tri1_1_9_17: t1_9_17 - x1_9 <= 0
tri2_1_9_17: t1_9_17 - x1_17 <= 0
tri3_1_9_17: t1_9_17 - x9_17 <= 0
tri4_1_9_17: t1_9_17 - x1_9 - x1_17 - x9_17 >= -2
tri1_1_9_18: t1_9_18 - x1_9 <= 0
tri2_1_9_18: t1_9_18 - x1_18 <= 0
tri3_1_9_18: t1_9_18 - x9_18 <= 0
tri4_1_9_18: t1_9_18 - x1_9 - x1_18 - x9_18 >= -2
tri1_1_9_19: t1_9_19 - x1_9 <= 0
tri2_1_9_19: t1_9_19 - x1_19 <= 0
tri3_1_9_19: t1_9_19 - x9_19 <= 0
tri4_1_9_19: t1_9_19 - x1_9 - x1_19 - x9_19 >= -2
tri1_1_9_20: t1_9_20 - x1_9 <= 0
tri2_1_9_20: t1_9_20 - x1_20 <= 0
tri3_1_9_20: t1_9_20 - x9_20 <= 0
tri4_1_9_20: t1_9_20 - x1_9 - x1_20 - x9_20 >= -2
tri1_1_9_21: t1_9_21 - x1_9 <= 0
tri2_1_9_21: t1_9_21 - x1_21 <= 0
tri3_1_9_21: t1_9_21 - x9_21 <= 0
tri4_1_9_21: t1_9_21 - x1_9 - x1_21 - x9_21 >= -2
tri1_1_10_11: t1_10_11 - x1_10 <= 0
tri2_1_10_11: t1_10_11 - x1_11 <= 0
tri3_1_10_11: t1_10_11 - x10_11 <= 0
tri4_1_10_11: t1_10_11 - x1_10 - x1_11 - x10_11 >= -2
tri1_1_10_12: t1_10_12 - x1_10 <= 0
tri2_1_10_12: t1_10_12 - x1_12 <= 0
tri3_1_10_12: t1_10_12 - x10_12 <= 0
tri4_1_10_12: t1_10_12 - x1_10 - x1_12 - x10_12 >= -2
tri1_1_10_13: t1_10_13 - x1_10 <= 0
tri2_1_10_13: t1_10_13 - x1_13 <= 0
tri3_1_10_13: t1_10_13 - x10_13 <= 0
tri4_1_10_13: t1_10_13 - x1_10 - x1_13 - x10_13 >= -2
tri1_1_10_14: t1_10_14 - x1_10 <= 0
tri2_1_10_14: t1_10_14 - x1_14 <= 0
tri3_1_10_14: t1_10_14 - x10_14 <= 0
tri4_1_10_14: t1_10_14 - x1_10 - x1_14 - x10_14 >= -2
tri1_1_10_15: t1_10_15 - x1_10 <= 0
tri2_1_10_15: t1_10_15 - x1_15 <= 0
tri3_1_10_15: t1_10_15 - x10_15 <= 0
tri4_1_10_15: t1_10_15 - x1_10 - x1_15 - x10_15 >= -2
tri1_1_10_16: t1_10_16 - x1_10 <= 0
tri2_1_10_16: t1_10_16 - x1_16 <= 0
tri3_1_10_16: t1_10_16 - x10_16 <= 0
tri4_1_10_16: t1_10_16 - x1_10 - x1_16 - x10_16 >= -2
tri1_1_10_17: t1_10_17 - x1_10 <= 0
tri2_1_10_17: t1_10_17 - x1_17 <= 0
tri3_1_10_17: t1_10_17 - x10_17 <= 0
tri4_1_10_17: t1_10_17 - x1_10 - x1_17 - x10_17 >= -2
tri1_1_10_18: t1_10_18 - x1_10 <= 0
tri2_1_10_18: t1_10_18 - x1_18 <= 0
tri3_1_10_18: t1_10_18 - x10_18 <= 0
tri4_1_10_18: t1_10_18 - x1_10 - x1_18 - x10_18 >= -2
tri1_1_10_19: t1_10_19 - x1_10 <= 0
tri2_1_10_19: t1_10_19 - x1_19 <= 0
tri3_1_10_19: t1_10_19 - x10_19 <= 0
tri4_1_10_19: t1_10_19 - x1_10 - x1_19 - x10_19 >= -2
tri1_1_10_20: t1_10_20 - x1_10 <= 0
tri2_1_10_20: t1_10_20 - x1_20 <= 0
tri3_1_10_20: t1_10_20 - x10_20 <= 0
tri4_1_10_20: t1_10_20 - x1_10 - x1_20 - x10_20 >= -2
tri1_1_10_21: t1_10_21 - x1_10 <= 0
tri2_1_10_21: t1_10_21 - x1_21 <= 0
tri3_1_10_21: t1_10_21 - x10_21 <= 0
tri4_1_10_21: t1_10_21 - x1_10 - x1_21 - x10_21 >= -2
tri1_1_11_12: t1_11_12 - x1_11 <= 0
tri2_1_11_12: t1_11_12 - x1_12 <= 0
tri3_1_11_12: t1_11_12 - x11_12 <= 0
tri4_1_11_12: t1_11_12 - x1_11 - x1_12 - x11_12 >= -2
tri1_1_11_13: t1_11_13 - x1_11 <= 0
tri2_1_11_13: t1_11_13 - x1_13 <= 0
tri3_1_11_13: t1_11_13 - x11_13 <= 0
tri4_1_11_13: t1_11_13 - x1_11 - x1_13 - x11_13 >= -2
tri1_1_11_14: t1_11_14 - x1_11 <= 0
tri2_1_11_14: t1_11_14 - x1_14 <= 0
tri3_1_11_14: t1_11_14 - x11_14 <= 0
tri4_1_11_14: t1_11_14 - x1_11 - x1_14 - x11_14 >= -2
tri1_1_11_15: t1_11_15 - x1_11 <= 0
tri2_1_11_15: t1_11_15 - x1_15 <= 0
tri3_1_11_15: t1_11_15 - x11_15 <= 0
tri4_1_11_15: t1_11_15 - x1_11 - x1_15 - x11_15 >= -2
tri1_1_11_16: t1_11_16 - x1_11 <= 0
tri2_1_11_16: t1_11_16 - x1_16 <= 0
tri3_1_11_16: t1_11_16 - x11_16 <= 0
tri4_1_11_16: t1_11_16 - x1_11 - x1_16 - x11_16 >= -2
tri1_1_11_17: t1_11_17 - x1_11 <= 0
tri2_1_11_17: t1_11_17 - x1_17 <= 0
tri3_1_11_17: t1_11_17 - x11_17 <= 0
tri4_1_11_17: t1_11_17 - x1_11 - x1_17 - x11_17 >= -2
tri1_1_11_18: t1_11_18 - x1_11 <= 0
tri2_1_11_18: t1_11_18 - x1_18 <= 0
tri3_1_11_18: t1_11_18 - x11_18 <= 0
tri4_1_11_18: t1_11_18 - x1_11 - x1_18 - x11_18 >= -2
tri1_1_11_19: t1_11_19 - x1_11 <= 0
tri2_1_11_19: t1_11_19 - x1_19 <= 0
tri3_1_11_19: t1_11_19 - x11_19 <= 0
tri4_1_11_19: t1_11_19 - x1_11 - x1_19 - x11_19 >= -2
tri1_1_11_20: t1_11_20 - x1_11 <= 0
tri2_1_11_20: t1_11_20 - x1_20 <= 0
tri3_1_11_20: t1_11_20 - x11_20 <= 0
tri4_1_11_20: t1_11_20 - x1_11 - x1_20 - x11_20 >= -2
tri1_1_11_21: t1_11_21 - x1_11 <= 0
tri2_1_11_21: t1_11_21 - x1_21 <= 0
tri3_1_11_21: t1_11_21 - x11_21 <= 0
tri4_1_11_21: t1_11_21 - x1_11 - x1_21 - x11_21 >= -2
tri1_1_12_13: t1_12_13 - x1_12 <= 0
tri2_1_12_13: t1_12_13 - x1_13 <= 0
tri3_1_12_13: t1_12_13 - x12_13 <= 0
tri4_1_12_13: t1_12_13 - x1_12 - x1_13 - x12_13 >= -2
tri1_1_12_14: t1_12_14 - x1_12 <= 0
tri2_1_12_14: t1_12_14 - x1_14 <= 0
tri3_1_12_14: t1_12_14 - x12_14 <= 0
tri4_1_12_14: t1_12_14 - x1_12 - x1_14 - x12_14 >= -2
tri1_1_12_15: t1_12_15 - x1_12 <= 0
tri2_1_12_15: t1_12_15 - x1_15 <= 0
tri3_1_12_15: t1_12_15 - x12_15 <= 0
tri4_1_12_15: t1_12_15 - x1_12 - x1_15 - x12_15 >= -2
tri1_1_12_16: t1_12_16 - x1_12 <= 0
tri2_1_12_16: t1_12_16 - x1_16 <= 0
tri3_1_12_16: t1_12_16 - x12_16 <= 0
tri4_1_12_16: t1_12_16 - x1_12 - x1_16 - x12_16 >= -2
tri1_1_12_17: t1_12_17 - x1_12 <= 0
tri2_1_12_17: t1_12_17 - x1_17 <= 0
tri3_1_12_17: t1_12_17 - x12_17 <= 0
tri4_1_12_17: t1_12_17 - x1_12 - x1_17 - x12_17 >= -2
tri1_1_12_18: t1_12_18 - x1_12 <= 0
tri2_1_12_18: t1_12_18 - x1_18 <= 0
tri3_1_12_18: t1_12_18 - x12_18 <= 0
tri4_1_12_18: t1_12_18 - x1_12 - x1_18 - x12_18 >= -2
tri1_1_12_19: t1_12_19 - x1_12 <= 0
tri2_1_12_19: t1_12_19 - x1_19 <= 0
tri3_1_12_19: t1_12_19 - x12_19 <= 0
tri4_1_12_19: t1_12_19 - x1_12 - x1_19 - x12_19 >= -2
tri1_1_12_20: t1_12_20 - x1_12 <= 0
tri2_1_12_20: t1_12_20 - x1_20 <= 0
tri3_1_12_20: t1_12_20 - x12_20 <= 0
tri4_1_12_20: t1_12_20 - x1_12 - x1_20 - x12_20 >= -2
tri1_1_12_21: t1_12_21 - x1_12 <= 0
tri2_1_12_21: t1_12_21 - x1_21 <= 0
tri3_1_12_21: t1_12_21 - x12_21 <= 0
tri4_1_12_21: t1_12_21 - x1_12 - x1_21 - x12_21 >= -2
tri1_1_13_14: t1_13_14 - x1_13 <= 0
tri2_1_13_14: t1_13_14 - x1_14 <= 0
tri3_1_13_14: t1_13_14 - x13_14 <= 0
tri4_1_13_14: t1_13_14 - x1_13 - x1_14 - x13_14 >= -2
tri1_1_13_15: t1_13_15 - x1_13 <= 0
tri2_1_13_15: t1_13_15 - x1_15 <= 0
tri3_1_13_15: t1_13_15 - x13_15 <= 0
tri4_1_13_15: t1_13_15 - x1_13 - x1_15 - x13_15 >= -2
tri1_1_13_16: t1_13_16 - x1_13 <= 0
tri2_1_13_16: t1_13_16 - x1_16 <= 0
tri3_1_13_16: t1_13_16 - x13_16 <= 0
tri4_1_13_16: t1_13_16 - x1_13 - x1_16 - x13_16 >= -2
tri1_1_13_17: t1_13_17 - x1_13 <= 0
tri2_1_13_17: t1_13_17 - x1_17 <= 0
tri3_1_13_17: t1_13_17 - x13_17 <= 0
tri4_1_13_17: t1_13_17 - x1_13 - x1_17 - x13_17 >= -2
tri1_1_13_18: t1_13_18 - x1_13 <= 0
tri2_1_13_18: t1_13_18 - x1_18 <= 0
tri3_1_13_18: t1_13_18 - x13_18 <= 0
tri4_1_13_18: t1_13_18 - x1_13 - x1_18 - x13_18 >= -2
tri1_1_13_19: t1_13_19 - x1_13 <= 0
tri2_1_13_19: t1_13_19 - x1_19 <= 0
tri3_1_13_19: t1_13_19 - x13_19 <= 0
tri4_1_13_19: t1_13_19 - x1_13 - x1_19 - x13_19 >= -2
tri1_1_13_20: t1_13_20 - x1_13 <= 0
tri2_1_13_20: t1_13_20 - x1_20 <= 0
tri3_1_13_20: t1_13_20 - x13_20 <= 0
tri4_1_13_20: t1_13_20 - x1_13 - x1_20 - x13_20 >= -2
tri1_1_13_21: t1_13_21 - x1_13 <= 0
tri2_1_13_21: t1_13_21 - x1_21 <= 0
tri3_1_13_21: t1_13_21 - x13_21 <= 0
tri4_1_13_21: t1_13_21 - x1_13 - x1_21 - x13_21 >= -2
tri1_1_14_15: t1_14_15 - x1_14 <= 0
tri2_1_14_15: t1_14_15 - x1_15 <= 0
tri3_1_14_15: t1_14_15 - x14_15 <= 0
tri4_1_14_15: t1_14_15 - x1_14 - x1_15 - x14_15 >= -2
tri1_1_14_16: t1_14_16 - x1_14 <= 0
tri2_1_14_16: t1_14_16 - x1_16 <= 0
tri3_1_14_16: t1_14_16 - x14_16 <= 0
tri4_1_14_16: t1_14_16 - x1_14 - x1_16 - x14_16 >= -2
tri1_1_14_17: t1_14_17 - x1_14 <= 0
tri2_1_14_17: t1_14_17 - x1_17 <= 0
tri3_1_14_17: t1_14_17 - x14_17 <= 0
tri4_1_14_17: t1_14_17 - x1_14 - x1_17 - x14_17 >= -2
tri1_1_14_18: t1_14_18 - x1_14 <= 0
tri2_1_14_18: t1_14_18 - x1_18 <= 0
tri3_1_14_18: t1_14_18 - x14_18 <= 0
tri4_1_14_18: t1_14_18 - x1_14 - x1_18 - x14_18 >= -2
tri1_1_14_19: t1_14_19 - x1_14 <= 0
tri2_1_14_19: t1_14_19 - x1_19 <= 0
tri3_1_14_19: t1_14_19 - x14_19 <= 0
tri4_1_14_19: t1_14_19 - x1_14 - x1_19 - x14_19 >= -2
tri1_1_14_20: t1_14_20 - x1_14 <= 0
tri2_1_14_20: t1_14_20 - x1_20 <= 0
tri3_1_14_20: t1_14_20 - x14_20 <= 0
tri4_1_14_20: t1_14_20 - x1_14 - x1_20 - x14_20 >= -2
tri1_1_14_21: t1_14_21 - x1_14 <= 0
tri2_1_14_21: t1_14_21 - x1_21 <= 0
tri3_1_14_21: t1_14_21 - x14_21 <= 0
tri4_1_14_21: t1_14_21 - x1_14 - x1_21 - x14_21 >= -2
tri1_1_15_16: t1_15_16 - x1_15 <= 0
tri2_1_15_16: t1_15_16 - x1_16 <= 0
tri3_1_15_16: t1_15_16 - x15_16 <= 0
tri4_1_15_16: t1_15_16 - x1_15 - x1_16 - x15_16 >= -2
tri1_1_15_17: t1_15_17 - x1_15 <= 0
tri2_1_15_17: t1_15_17 - x1_17 <= 0
tri3_1_15_17: t1_15_17 - x15_17 <= 0
tri4_1_15_17: t1_15_17 - x1_15 - x1_17 - x15_17 >= -2
tri1_1_15_18: t1_15_18 - x1_15 <= 0
tri2_1_15_18: t1_15_18 - x1_18 <= 0
tri3_1_15_18: t1_15_18 - x15_18 <= 0
tri4_1_15_18: t1_15_18 - x1_15 - x1_18 - x15_18 >= -2
tri1_1_15_19: t1_15_19 - x1_15 <= 0
tri2_1_15_19: t1_15_19 - x1_19 <= 0
tri3_1_15_19: t1_15_19 - x15_19 <= 0
tri4_1_15_19: t1_15_19 - x1_15 - x1_19 - x15_19 >= -2
tri1_1_15_20: t1_15_20 - x1_15 <= 0
tri2_1_15_20: t1_15_20 - x1_20 <= 0
tri3_1_15_20: t1_15_20 - x15_20 <= 0
tri4_1_15_20: t1_15_20 - x1_15 - x1_20 - x15_20 >= -2
tri1_1_15_21: t1_15_21 - x1_15 <= 0
tri2_1_15_21: t1_15_21 - x1_21 <= 0
tri3_1_15_21: t1_15_21 - x15_21 <= 0
tri4_1_15_21: t1_15_21 - x1_15 - x1_21 - x15_21 >= -2
tri1_1_16_17: t1_16_17 - x1_16 <= 0
tri2_1_16_17: t1_16_17 - x1_17 <= 0
tri3_1_16_17: t1_16_17 - x16_17 <= 0
tri4_1_16_17: t1_16_17 - x1_16 - x1_17 - x16_17 >= -2
tri1_1_16_18: t1_16_18 - x1_16 <= 0
tri2_1_16_18: t1_16_18 - x1_18 <= 0
tri3_1_16_18: t1_16_18 - x16_18 <= 0
tri4_1_16_18: t1_16_18 - x1_16 - x1_18 - x16_18 >= -2
tri1_1_16_19: t1_16_19 - x1_16 <= 0
tri2_1_16_19: t1_16_19 - x1_19 <= 0
tri3_1_16_19: t1_16_19 - x16_19 <= 0
tri4_1_16_19: t1_16_19 - x1_16 - x1_19 - x16_19 >= -2
tri1_1_16_20: t1_16_20 - x1_16 <= 0
tri2_1_16_20: t1_16_20 - x1_20 <= 0
tri3_1_16_20: t1_16_20 - x16_20 <= 0
tri4_1_16_20: t1_16_20 - x1_16 - x1_20 - x16_20 >= -2
tri1_1_16_21: t1_16_21 - x1_16 <= 0
tri2_1_16_21: t1_16_21 - x1_21 <= 0
tri3_1_16_21: t1_16_21 - x16_21 <= 0
tri4_1_16_21: t1_16_21 - x1_16 - x1_21 - x16_21 >= -2
tri1_1_17_18: t1_17_18 - x1_17 <= 0
tri2_1_17_18: t1_17_18 - x1_18 <= 0
tri3_1_17_18: t1_17_18 - x17_18 <= 0
tri4_1_17_18: t1_17_18 - x1_17 - x1_18 - x17_18 >= -2
tri1_1_17_19: t1_17_19 - x1_17 <= 0
tri2_1_17_19: t1_17_19 - x1_19 <= 0
tri3_1_17_19: t1_17_19 - x17_19 <= 0
tri4_1_17_19: t1_17_19 - x1_17 - x1_19 - x17_19 >= -2
tri1_1_17_20: t1_17_20 - x1_17 <= 0
tri2_1_17_20: t1_17_20 - x1_20 <= 0
tri3_1_17_20: t1_17_20 - x17_20 <= 0
tri4_1_17_20: t1_17_20 - x1_17 - x1_20 - x17_20 >= -2
tri1_1_17_21: t1_17_21 - x1_17 <= 0
tri2_1_17_21: t1_17_21 - x1_21 <= 0
tri3_1_17_21: t1_17_21 - x17_21 <= 0
tri4_1_17_21: t1_17_21 - x1_17 - x1_21 - x17_21 >= -2
tri1_1_18_19: t1_18_19 - x1_18 <= 0
tri2_1_18_19: t1_18_19 - x1_19 <= 0
tri3_1_18_19: t1_18_19 - x18_19 <= 0
tri4_1_18_19: t1_18_19 - x1_18 - x1_19 - x18_19 >= -2
tri1_1_18_20: t1_18_20 - x1_18 <= 0
tri2_1_18_20: t1_18_20 - x1_20 <= 0
tri3_1_18_20: t1_18_20 - x18_20 <= 0
tri4_1_18_20: t1_18_20 - x1_18 - x1_20 - x18_20 >= -2
tri1_1_18_21: t1_18_21 - x1_18 <= 0
tri2_1_18_21: t1_18_21 - x1_21 <= 0
tri3_1_18_21: t1_18_21 - x18_21 <= 0
tri4_1_18_21: t1_18_21 - x1_18 - x1_21 - x18_21 >= -2
tri1_1_19_20: t1_19_20 - x1_19 <= 0
tri2_1_19_20: t1_19_20 - x1_20 <= 0
tri3_1_19_20: t1_19_20 - x19_20 <= 0
tri4_1_19_20: t1_19_20 - x1_19 - x1_20 - x19_20 >= -2
tri1_1_19_21: t1_19_21 - x1_19 <= 0
tri2_1_19_21: t1_19_21 - x1_21 <= 0
tri3_1_19_21: t1_19_21 - x19_21 <= 0
tri4_1_19_21: t1_19_21 - x1_19 - x1_21 - x19_21 >= -2
tri1_1_20_21: t1_20_21 - x1_20 <= 0
tri2_1_20_21: t1_20_21 - x1_21 <= 0
tri3_1_20_21: t1_20_21 - x20_21 <= 0
tri4_1_20_21: t1_20_21 - x1_20 - x1_21 - x20_21 >= -2
tri1_2_3_4: t2_3_4 - x2_3 <= 0
tri2_2_3_4: t2_3_4 - x2_4 <= 0
tri3_2_3_4: t2_3_4 - x3_4 <= 0
tri4_2_3_4: t2_3_4 - x2_3 - x2_4 - x3_4 >= -2
tri1_2_3_5: t2_3_5 - x2_3 <= 0
tri2_2_3_5: t2_3_5 - x2_5 <= 0
tri3_2_3_5: t2_3_5 - x3_5 <= 0
tri4_2_3_5: t2_3_5 - x2_3 - x2_5 - x3_5 >= -2
tri1_2_3_6: t2_3_6 - x2_3 <= 0
tri2_2_3_6: t2_3_6 - x2_6 <= 0
tri3_2_3_6: t2_3_6 - x3_6 <= 0
tri4_2_3_6: t2_3_6 - x2_3 - x2_6 - x3_6 >= -2
tri1_2_3_7: t2_3_7 - x2_3 <= 0
tri2_2_3_7: t2_3_7 - x2_7 <= 0
tri3_2_3_7: t2_3_7 - x3_7 <= 0
tri4_2_3_7: t2_3_7 - x2_3 - x2_7 - x3_7 >= -2
tri1_2_3_8: t2_3_8 - x2_3 <= 0
tri2_2_3_8: t2_3_8 - x2_8 <= 0
tri3_2_3_8: t2_3_8 - x3_8 <= 0
tri4_2_3_8: t2_3_8 - x2_3 - x2_8 - x3_8 >= -2
tri1_2_3_9: t2_3_9 - x2_3 <= 0
tri2_2_3_9: t2_3_9 - x2_9 <= 0
tri3_2_3_9: t2_3_9 - x3_9 <= 0
tri4_2_3_9: t2_3_9 - x2_3 - x2_9 - x3_9 >= -2
tri1_2_3_10: t2_3_10 - x2_3 <= 0
tri2_2_3_10: t2_3_10 - x2_10 <= 0
tri3_2_3_10: t2_3_10 - x3_10 <= 0
tri4_2_3_10: t2_3_10 - x2_3 - x2_10 - x3_10 >= -2
tri1_2_3_11: t2_3_11 - x2_3 <= 0
tri2_2_3_11: t2_3_11 - x2_11 <= 0
tri3_2_3_11: t2_3_11 - x3_11 <= 0
tri4_2_3_11: t2_3_11 - x2_3 - x2_11 - x3_11 >= -2
tri1_2_3_12: t2_3_12 - x2_3 <= 0
tri2_2_3_12: t2_3_12 - x2_12 <= 0
tri3_2_3_12: t2_3_12 - x3_12 <= 0
tri4_2_3_12: t2_3_12 - x2_3 - x2_12 - x3_12 >= -2
tri1_2_3_13: t2_3_13 - x2_3 <= 0
tri2_2_3_13: t2_3_13 - x2_13 <= 0
tri3_2_3_13: t2_3_13 - x3_13 <= 0
tri4_2_3_13: t2_3_13 - x2_3 - x2_13 - x3_13 >= -2
tri1_2_3_14: t2_3_14 - x2_3 <= 0
tri2_2_3_14: t2_3_14 - x2_14 <= 0
tri3_2_3_14: t2_3_14 - x3_14 <= 0
tri4_2_3_14: t2_3_14 - x2_3 - x2_14 - x3_14 >= -2
tri1_2_3_15: t2_3_15 - x2_3 <= 0
tri2_2_3_15: t2_3_15 - x2_15 <= 0
tri3_2_3_15: t2_3_15 - x3_15 <= 0
tri4_2_3_15: t2_3_15 - x2_3 - x2_15 - x3_15 >= -2
tri1_2_3_16: t2_3_16 - x2_3 <= 0
tri2_2_3_16: t2_3_16 - x2_16 <= 0
tri3_2_3_16: t2_3_16 - x3_16 <= 0
tri4_2_3_16: t2_3_16 - x2_3 - x2_16 - x3_16 >= -2
tri1_2_3_17: t2_3_17 - x2_3 <= 0
tri2_2_3_17: t2_3_17 - x2_17 <= 0
tri3_2_3_17: t2_3_17 - x3_17 <= 0
tri4_2_3_17: t2_3_17 - x2_3 - x2_17 - x3_17 >= -2
tri1_2_3_18: t2_3_18 - x2_3 <= 0
tri2_2_3_18: t2_3_18 - x2_18 <= 0
tri3_2_3_18: t2_3_18 - x3_18 <= 0
tri4_2_3_18: t2_3_18 - x2_3 - x2_18 - x3_18 >= -2
tri1_2_3_19: t2_3_19 - x2_3 <= 0
tri2_2_3_19: t2_3_19 - x2_19 <= 0
tri3_2_3_19: t2_3_19 - x3_19 <= 0
tri4_2_3_19: t2_3_19 - x2_3 - x2_19 - x3_19 >= -2
tri1_2_3_20: t2_3_20 - x2_3 <= 0
tri2_2_3_20: t2_3_20 - x2_20 <= 0
tri3_2_3_20: t2_3_20 - x3_20 <= 0
tri4_2_3_20: t2_3_20 - x2_3 - x2_20 - x3_20 >= -2
tri1_2_3_21: t2_3_21 - x2_3 <= 0
tri2_2_3_21: t2_3_21 - x2_21 <= 0
tri3_2_3_21: t2_3_21 - x3_21 <= 0
tri4_2_3_21: t2_3_21 - x2_3 - x2_21 - x3_21 >= -2
tri1_2_4_5: t2_4_5 - x2_4 <= 0
tri2_2_4_5: t2_4_5 - x2_5 <= 0
tri3_2_4_5: t2_4_5 - x4_5 <= 0
tri4_2_4_5: t2_4_5 - x2_4 - x2_5 - x4_5 >= -2
tri1_2_4_6: t2_4_6 - x2_4 <= 0
tri2_2_4_6: t2_4_6 - x2_6 <= 0
tri3_2_4_6: t2_4_6 - x4_6 <= 0
tri4_2_4_6: t2_4_6 - x2_4 - x2_6 - x4_6 >= -2
tri1_2_4_7: t2_4_7 - x2_4 <= 0
tri2_2_4_7: t2_4_7 - x2_7 <= 0
tri3_2_4_7: t2_4_7 - x4_7 <= 0
tri4_2_4_7: t2_4_7 - x2_4 - x2_7 - x4_7 >= -2
tri1_2_4_8: t2_4_8 - x2_4 <= 0
tri2_2_4_8: t2_4_8 - x2_8 <= 0
tri3_2_4_8: t2_4_8 - x4_8 <= 0
tri4_2_4_8: t2_4_8 - x2_4 - x2_8 - x4_8 >= -2
tri1_2_4_9: t2_4_9 - x2_4 <= 0
tri2_2_4_9: t2_4_9 - x2_9 <= 0
tri3_2_4_9: t2_4_9 - x4_9 <= 0
tri4_2_4_9: t2_4_9 - x2_4 - x2_9 - x4_9 >= -2
tri1_2_4_10: t2_4_10 - x2_4 <= 0
tri2_2_4_10: t2_4_10 - x2_10 <= 0
tri3_2_4_10: t2_4_10 - x4_10 <= 0
tri4_2_4_10: t2_4_10 - x2_4 - x2_10 - x4_10 >= -2
tri1_2_4_11: t2_4_11 - x2_4 <= 0
tri2_2_4_11: t2_4_11 - x2_11 <= 0
tri3_2_4_11: t2_4_11 - x4_11 <= 0
tri4_2_4_11: t2_4_11 - x2_4 - x2_11 - x4_11 >= -2
tri1_2_4_12: t2_4_12 - x2_4 <= 0
tri2_2_4_12: t2_4_12 - x2_12 <= 0
tri3_2_4_12: t2_4_12 - x4_12 <= 0
tri4_2_4_12: t2_4_12 - x2_4 - x2_12 - x4_12 >= -2
tri1_2_4_13: t2_4_13 - x2_4 <= 0
tri2_2_4_13: t2_4_13 - x2_13 <= 0
tri3_2_4_13: t2_4_13 - x4_13 <= 0
tri4_2_4_13: t2_4_13 - x2_4 - x2_13 - x4_13 >= -2
tri1_2_4_14: t2_4_14 - x2_4 <= 0
tri2_2_4_14: t2_4_14 - x2_14 <= 0
tri3_2_4_14: t2_4_14 - x4_14 <= 0
tri4_2_4_14: t2_4_14 - x2_4 - x2_14 - x4_14 >= -2
tri1_2_4_15: t2_4_15 - x2_4 <= 0
tri2_2_4_15: t2_4_15 - x2_15 <= 0
tri3_2_4_15: t2_4_15 - x4_15 <= 0
tri4_2_4_15: t2_4_15 - x2_4 - x2_15 - x4_15 >= -2
tri1_2_4_16: t2_4_16 - x2_4 <= 0
tri2_2_4_16: t2_4_16 - x2_16 <= 0
tri3_2_4_16: t2_4_16 - x4_16 <= 0
tri4_2_4_16: t2_4_16 - x2_4 - x2_16 - x4_16 >= -2
tri1_2_4_17: t2_4_17 - x2_4 <= 0
tri2_2_4_17: t2_4_17 - x2_17 <= 0
tri3_2_4_17: t2_4_17 - x4_17 <= 0
tri4_2_4_17: t2_4_17 - x2_4 - x2_17 - x4_17 >= -2
tri1_2_4_18: t2_4_18 - x2_4 <= 0
tri2_2_4_18: t2_4_18 - x2_18 <= 0
tri3_2_4_18: t2_4_18 - x4_18 <= 0
tri4_2_4_18: t2_4_18 - x2_4 - x2_18 - x4_18 >= -2
tri1_2_4_19: t2_4_19 - x2_4 <= 0
tri2_2_4_19: t2_4_19 - x2_19 <= 0
tri3_2_4_19: t2_4_19 - x4_19 <= 0
tri4_2_4_19: t2_4_19 - x2_4 - x2_19 - x4_19 >= -2
tri1_2_4_20: t2_4_20 - x2_4 <= 0
tri2_2_4_20: t2_4_20 - x2_20 <= 0
tri3_2_4_20: t2_4_20 - x4_20 <= 0
tri4_2_4_20: t2_4_20 - x2_4 - x2_20 - x4_20 >= -2
tri1_2_4_21: t2_4_21 - x2_4 <= 0
tri2_2_4_21: t2_4_21 - x2_21 <= 0
tri3_2_4_21: t2_4_21 - x4_21 <= 0
tri4_2_4_21: t2_4_21 - x2_4 - x2_21 - x4_21 >= -2
tri1_2_5_6: t2_5_6 - x2_5 <= 0
tri2_2_5_6: t2_5_6 - x2_6 <= 0
tri3_2_5_6: t2_5_6 - x5_6 <= 0
tri4_2_5_6: t2_5_6 - x2_5 - x2_6 - x5_6 >= -2
tri1_2_5_7: t2_5_7 - x2_5 <= 0
tri2_2_5_7: t2_5_7 - x2_7 <= 0
tri3_2_5_7: t2_5_7 - x5_7 <= 0
tri4_2_5_7: t2_5_7 - x2_5 - x2_7 - x5_7 >= -2
tri1_2_5_8: t2_5_8 - x2_5 <= 0
tri2_2_5_8: t2_5_8 - x2_8 <= 0
tri3_2_5_8: t2_5_8 - x5_8 <= 0
tri4_2_5_8: t2_5_8 - x2_5 - x2_8 - x5_8 >= -2
tri1_2_5_9: t2_5_9 - x2_5 <= 0
tri2_2_5_9: t2_5_9 - x2_9 <= 0
tri3_2_5_9: t2_5_9 - x5_9 <= 0
tri4_2_5_9: t2_5_9 - x2_5 - x2_9 - x5_9 >= -2
tri1_2_5_10: t2_5_10 - x2_5 <= 0
tri2_2_5_10: t2_5_10 - x2_10 <= 0
tri3_2_5_10: t2_5_10 - x5_10 <= 0
tri4_2_5_10: t2_5_10 - x2_5 - x2_10 - x5_10 >= -2
tri1_2_5_11: t2_5_11 - x2_5 <= 0
tri2_2_5_11: t2_5_11 - x2_11 <= 0
tri3_2_5_11: t2_5_11 - x5_11 <= 0
tri4_2_5_11: t2_5_11 - x2_5 - x2_11 - x5_11 >= -2
tri1_2_5_12: t2_5_12 - x2_5 <= 0
tri2_2_5_12: t2_5_12 - x2_12 <= 0
tri3_2_5_12: t2_5_12 - x5_12 <= 0
tri4_2_5_12: t2_5_12 - x2_5 - x2_12 - x5_12 >= -2
tri1_2_5_13: t2_5_13 - x2_5 <= 0
tri2_2_5_13: t2_5_13 - x2_13 <= 0
tri3_2_5_13: t2_5_13 - x5_13 <= 0
tri4_2_5_13: t2_5_13 - x2_5 - x2_13 - x5_13 >= -2
tri1_2_5_14: t2_5_14 - x2_5 <= 0
tri2_2_5_14: t2_5_14 - x2_14 <= 0
tri3_2_5_14: t2_5_14 - x5_14 <= 0
tri4_2_5_14: t2_5_14 - x2_5 - x2_14 - x5_14 >= -2
tri1_2_5_15: t2_5_15 - x2_5 <= 0
tri2_2_5_15: t2_5_15 - x2_15 <= 0
tri3_2_5_15: t2_5_15 - x5_15 <= 0
tri4_2_5_15: t2_5_15 - x2_5 - x2_15 - x5_15 >= -2
tri1_2_5_16: t2_5_16 - x2_5 <= 0
tri2_2_5_16: t2_5_16 - x2_16 <= 0
tri3_2_5_16: t2_5_16 - x5_16 <= 0
tri4_2_5_16: t2_5_16 - x2_5 - x2_16 - x5_16 >= -2
tri1_2_5_17: t2_5_17 - x2_5 <= 0
tri2_2_5_17: t2_5_17 - x2_17 <= 0
tri3_2_5_17: t2_5_17 - x5_17 <= 0
tri4_2_5_17: t2_5_17 - x2_5 - x2_17 - x5_17 >= -2
tri1_2_5_18: t2_5_18 - x2_5 <= 0
tri2_2_5_18: t2_5_18 - x2_18 <= 0
tri3_2_5_18: t2_5_18 - x5_18 <= 0
tri4_2_5_18: t2_5_18 - x2_5 - x2_18 - x5_18 >= -2
tri1_2_5_19: t2_5_19 - x2_5 <= 0
tri2_2_5_19: t2_5_19 - x2_19 <= 0
tri3_2_5_19: t2_5_19 - x5_19 <= 0
tri4_2_5_19: t2_5_19 - x2_5 - x2_19 - x5_19 >= -2
tri1_2_5_20: t2_5_20 - x2_5 <= 0
tri2_2_5_20: t2_5_20 - x2_20 <= 0
tri3_2_5_20: t2_5_20 - x5_20 <= 0
tri4_2_5_20: t2_5_20 - x2_5 - x2_20 - x5_20 >= -2
tri1_2_5_21: t2_5_21 - x2_5 <= 0
tri2_2_5_21: t2_5_21 - x2_21 <= 0
tri3_2_5_21: t2_5_21 - x5_21 <= 0
tri4_2_5_21: t2_5_21 - x2_5 - x2_21 - x5_21 >= -2
tri1_2_6_7: t2_6_7 - x2_6 <= 0
tri2_2_6_7: t2_6_7 - x2_7 <= 0
tri3_2_6_7: t2_6_7 - x6_7 <= 0
tri4_2_6_7: t2_6_7 - x2_6 - x2_7 - x6_7 >= -2
tri1_2_6_8: t2_6_8 - x2_6 <= 0
tri2_2_6_8: t2_6_8 - x2_8 <= 0
tri3_2_6_8: t2_6_8 - x6_8 <= 0
tri4_2_6_8: t2_6_8 - x2_6 - x2_8 - x6_8 >= -2
tri1_2_6_9: t2_6_9 - x2_6 <= 0
tri2_2_6_9: t2_6_9 - x2_9 <= 0
tri3_2_6_9: t2_6_9 - x6_9 <= 0
tri4_2_6_9: t2_6_9 - x2_6 - x2_9 - x6_9 >= -2
tri1_2_6_10: t2_6_10 - x2_6 <= 0
tri2_2_6_10: t2_6_10 - x2_10 <= 0
tri3_2_6_10: t2_6_10 - x6_10 <= 0
tri4_2_6_10: t2_6_10 - x2_6 - x2_10 - x6_10 >= -2
tri1_2_6_11: t2_6_11 - x2_6 <= 0
tri2_2_6_11: t2_6_11 - x2_11 <= 0
tri3_2_6_11: t2_6_11 - x6_11 <= 0
tri4_2_6_11: t2_6_11 - x2_6 - x2_11 - x6_11 >= -2
tri1_2_6_12: t2_6_12 - x2_6 <= 0
tri2_2_6_12: t2_6_12 - x2_12 <= 0
tri3_2_6_12: t2_6_12 - x6_12 <= 0
tri4_2_6_12: t2_6_12 - x2_6 - x2_12 - x6_12 >= -2
tri1_2_6_13: t2_6_13 - x2_6 <= 0
tri2_2_6_13: t2_6_13 - x2_13 <= 0
tri3_2_6_13: t2_6_13 - x6_13 <= 0
tri4_2_6_13: t2_6_13 - x2_6 - x2_13 - x6_13 >= -2
tri1_2_6_14: t2_6_14 - x2_6 <= 0
tri2_2_6_14: t2_6_14 - x2_14 <= 0
tri3_2_6_14: t2_6_14 - x6_14 <= 0
tri4_2_6_14: t2_6_14 - x2_6 - x2_14 - x6_14 >= -2
tri1_2_6_15: t2_6_15 - x2_6 <= 0
tri2_2_6_15: t2_6_15 - x2_15 <= 0
tri3_2_6_15: t2_6_15 - x6_15 <= 0
tri4_2_6_15: t2_6_15 - x2_6 - x2_15 - x6_15 >= -2
tri1_2_6_16: t2_6_16 - x2_6 <= 0
tri2_2_6_16: t2_6_16 - x2_16 <= 0
tri3_2_6_16: t2_6_16 - x6_16 <= 0
tri4_2_6_16: t2_6_16 - x2_6 - x2_16 - x6_16 >= -2
tri1_2_6_17: t2_6_17 - x2_6 <= 0
tri2_2_6_17: t2_6_17 - x2_17 <= 0
tri3_2_6_17: t2_6_17 - x6_17 <= 0
tri4_2_6_17: t2_6_17 - x2_6 - x2_17 - x6_17 >= -2
tri1_2_6_18: t2_6_18 - x2_6 <= 0
tri2_2_6_18: t2_6_18 - x2_18 <= 0
tri3_2_6_18: t2_6_18 - x6_18 <= 0
tri4_2_6_18: t2_6_18 - x2_6 - x2_18 - x6_18 >= -2
tri1_2_6_19: t2_6_19 - x2_6 <= 0
tri2_2_6_19: t2_6_19 - x2_19 <= 0
tri3_2_6_19: t2_6_19 - x6_19 <= 0
tri4_2_6_19: t2_6_19 - x2_6 - x2_19 - x6_19 >= -2
tri1_2_6_20: t2_6_20 - x2_6 <= 0
tri2_2_6_20: t2_6_20 - x2_20 <= 0
tri3_2_6_20: t2_6_20 - x6_20 <= 0
tri4_2_6_20: t2_6_20 - x2_6 - x2_20 - x6_20 >= -2
tri1_2_6_21: t2_6_21 - x2_6 <= 0
tri2_2_6_21: t2_6_21 - x2_21 <= 0
tri3_2_6_21: t2_6_21 - x6_21 <= 0
tri4_2_6_21: t2_6_21 - x2_6 - x2_21 - x6_21 >= -2
tri1_2_7_8: t2_7_8 - x2_7 <= 0
tri2_2_7_8: t2_7_8 - x2_8 <= 0
tri3_2_7_8: t2_7_8 - x7_8 <= 0
tri4_2_7_8: t2_7_8 - x2_7 - x2_8 - x7_8 >= -2
tri1_2_7_9: t2_7_9 - x2_7 <= 0
tri2_2_7_9: t2_7_9 - x2_9 <= 0
tri3_2_7_9: t2_7_9 - x7_9 <= 0
tri4_2_7_9: t2_7_9 - x2_7 - x2_9 - x7_9 >= -2
tri1_2_7_10: t2_7_10 - x2_7 <= 0
tri2_2_7_10: t2_7_10 - x2_10 <= 0
tri3_2_7_10: t2_7_10 - x7_10 <= 0
tri4_2_7_10: t2_7_10 - x2_7 - x2_10 - x7_10 >= -2
tri1_2_7_11: t2_7_11 - x2_7 <= 0
tri2_2_7_11: t2_7_11 - x2_11 <= 0
tri3_2_7_11: t2_7_11 - x7_11 <= 0
tri4_2_7_11: t2_7_11 - x2_7 - x2_11 - x7_11 >= -2
tri1_2_7_12: t2_7_12 - x2_7 <= 0
tri2_2_7_12: t2_7_12 - x2_12 <= 0
tri3_2_7_12: t2_7_12 - x7_12 <= 0
tri4_2_7_12: t2_7_12 - x2_7 - x2_12 - x7_12 >= -2
tri1_2_7_13: t2_7_13 - x2_7 <= 0
tri2_2_7_13: t2_7_13 - x2_13 <= 0
tri3_2_7_13: t2_7_13 - x7_13 <= 0
tri4_2_7_13: t2_7_13 - x2_7 - x2_13 - x7_13 >= -2
tri1_2_7_14: t2_7_14 - x2_7 <= 0
tri2_2_7_14: t2_7_14 - x2_14 <= 0
tri3_2_7_14: t2_7_14 - x7_14 <= 0
tri4_2_7_14: t2_7_14 - x2_7 - x2_14 - x7_14 >= -2
tri1_2_7_15: t2_7_15 - x2_7 <= 0
tri2_2_7_15: t2_7_15 - x2_15 <= 0
tri3_2_7_15: t2_7_15 - x7_15 <= 0
tri4_2_7_15: t2_7_15 - x2_7 - x2_15 - x7_15 >= -2
tri1_2_7_16: t2_7_16 - x2_7 <= 0
tri2_2_7_16: t2_7_16 - x2_16 <= 0
tri3_2_7_16: t2_7_16 - x7_16 <= 0
tri4_2_7_16: t2_7_16 - x2_7 - x2_16 - x7_16 >= -2
tri1_2_7_17: t2_7_17 - x2_7 <= 0
tri2_2_7_17: t2_7_17 - x2_17 <= 0
tri3_2_7_17: t2_7_17 - x7_17 <= 0
tri4_2_7_17: t2_7_17 - x2_7 - x2_17 - x7_17 >= -2
tri1_2_7_18: t2_7_18 - x2_7 <= 0
tri2_2_7_18: t2_7_18 - x2_18 <= 0
tri3_2_7_18: t2_7_18 - x7_18 <= 0
tri4_2_7_18: t2_7_18 - x2_7 - x2_18 - x7_18 >= -2
tri1_2_7_19: t2_7_19 - x2_7 <= 0
tri2_2_7_19: t2_7_19 - x2_19 <= 0
tri3_2_7_19: t2_7_19 - x7_19 <= 0
tri4_2_7_19: t2_7_19 - x2_7 - x2_19 - x7_19 >= -2
tri1_2_7_20: t2_7_20 - x2_7 <= 0
tri2_2_7_20: t2_7_20 - x2_20 <= 0
tri3_2_7_20: t2_7_20 - x7_20 <= 0
tri4_2_7_20: t2_7_20 - x2_7 - x2_20 - x7_20 >= -2
tri1_2_7_21: t2_7_21 - x2_7 <= 0
tri2_2_7_21: t2_7_21 - x2_21 <= 0
tri3_2_7_21: t2_7_21 - x7_21 <= 0
tri4_2_7_21: t2_7_21 - x2_7 - x2_21 - x7_21 >= -2
tri1_2_8_9: t2_8_9 - x2_8 <= 0
tri2_2_8_9: t2_8_9 - x2_9 <= 0
tri3_2_8_9: t2_8_9 - x8_9 <= 0
tri4_2_8_9: t2_8_9 - x2_8 - x2_9 - x8_9 >= -2
tri1_2_8_10: t2_8_10 - x2_8 <= 0
tri2_2_8_10: t2_8_10 - x2_10 <= 0
tri3_2_8_10: t2_8_10 - x8_10 <= 0
tri4_2_8_10: t2_8_10 - x2_8 - x2_10 - x8_10 >= -2
tri1_2_8_11: t2_8_11 - x2_8 <= 0
tri2_2_8_11: t2_8_11 - x2_11 <= 0
tri3_2_8_11: t2_8_11 - x8_11 <= 0
tri4_2_8_11: t2_8_11 - x2_8 - x2_11 - x8_11 >= -2
tri1_2_8_12: t2_8_12 - x2_8 <= 0
tri2_2_8_12: t2_8_12 - x2_12 <= 0
tri3_2_8_12: t2_8_12 - x8_12 <= 0
tri4_2_8_12: t2_8_12 - x2_8 - x2_12 - x8_12 >= -2
tri1_2_8_13: t2_8_13 - x2_8 <= 0
tri2_2_8_13: t2_8_13 - x2_13 <= 0
tri3_2_8_13: t2_8_13 - x8_13 <= 0
tri4_2_8_13: t2_8_13 - x2_8 - x2_13 - x8_13 >= -2
tri1_2_8_14: t2_8_14 - x2_8 <= 0
tri2_2_8_14: t2_8_14 - x2_14 <= 0
tri3_2_8_14: t2_8_14 - x8_14 <= 0
tri4_2_8_14: t2_8_14 - x2_8 - x2_14 - x8_14 >= -2
tri1_2_8_15: t2_8_15 - x2_8 <= 0
tri2_2_8_15: t2_8_15 - x2_15 <= 0
tri3_2_8_15: t2_8_15 - x8_15 <= 0
tri4_2_8_15: t2_8_15 - x2_8 - x2_15 - x8_15 >= -2
tri1_2_8_16: t2_8_16 - x2_8 <= 0
tri2_2_8_16: t2_8_16 - x2_16 <= 0
tri3_2_8_16: t2_8_16 - x8_16 <= 0
tri4_2_8_16: t2_8_16 - x2_8 - x2_16 - x8_16 >= -2
tri1_2_8_17: t2_8_17 - x2_8 <= 0
tri2_2_8_17: t2_8_17 - x2_17 <= 0
tri3_2_8_17: t2_8_17 - x8_17 <= 0
tri4_2_8_17: t2_8_17 - x2_8 - x2_17 - x8_17 >= -2
tri1_2_8_18: t2_8_18 - x2_8 <= 0
tri2_2_8_18: t2_8_18 - x2_18 <= 0
tri3_2_8_18: t2_8_18 - x8_18 <= 0
tri4_2_8_18: t2_8_18 - x2_8 - x2_18 - x8_18 >= -2
tri1_2_8_19: t2_8_19 - x2_8 <= 0
tri2_2_8_19: t2_8_19 - x2_19 <= 0
tri3_2_8_19: t2_8_19 - x8_19 <= 0
tri4_2_8_19: t2_8_19 - x2_8 - x2_19 - x8_19 >= -2
tri1_2_8_20: t2_8_20 - x2_8 <= 0
tri2_2_8_20: t2_8_20 - x2_20 <= 0
tri3_2_8_20: t2_8_20 - x8_20 <= 0
tri4_2_8_20: t2_8_20 - x2_8 - x2_20 - x8_20 >= -2
tri1_2_8_21: t2_8_21 - x2_8 <= 0
tri2_2_8_21: t2_8_21 - x2_21 <= 0
tri3_2_8_21: t2_8_21 - x8_21 <= 0
tri4_2_8_21: t2_8_21 - x2_8 - x2_21 - x8_21 >= -2
tri1_2_9_10: t2_9_10 - x2_9 <= 0
tri2_2_9_10: t2_9_10 - x2_10 <= 0
tri3_2_9_10: t2_9_10 - x9_10 <= 0
tri4_2_9_10: t2_9_10 - x2_9 - x2_10 - x9_10 >= -2
tri1_2_9_11: t2_9_11 - x2_9 <= 0
tri2_2_9_11: t2_9_11 - x2_11 <= 0
tri3_2_9_11: t2_9_11 - x9_11 <= 0
tri4_2_9_11: t2_9_11 - x2_9 - x2_11 - x9_11 >= -2
tri1_2_9_12: t2_9_12 - x2_9 <= 0
tri2_2_9_12: t2_9_12 - x2_12 <= 0
tri3_2_9_12: t2_9_12 - x9_12 <= 0
tri4_2_9_12: t2_9_12 - x2_9 - x2_12 - x9_12 >= -2
tri1_2_9_13: t2_9_13 - x2_9 <= 0
tri2_2_9_13: t2_9_13 - x2_13 <= 0
tri3_2_9_13: t2_9_13 - x9_13 <= 0
tri4_2_9_13: t2_9_13 - x2_9 - x2_13 - x9_13 >= -2
tri1_2_9_14: t2_9_14 - x2_9 <= 0
tri2_2_9_14: t2_9_14 - x2_14 <= 0
tri3_2_9_14: t2_9_14 - x9_14 <= 0
tri4_2_9_14: t2_9_14 - x2_9 - x2_14 - x9_14 >= -2
tri1_2_9_15: t2_9_15 - x2_9 <= 0
tri2_2_9_15: t2_9_15 - x2_15 <= 0
tri3_2_9_15: t2_9_15 - x9_15 <= 0
tri4_2_9_15: t2_9_15 - x2_9 - x2_15 - x9_15 >= -2
tri1_2_9_16: t2_9_16 - x2_9 <= 0
tri2_2_9_16: t2_9_16 - x2_16 <= 0
tri3_2_9_16: t2_9_16 - x9_16 <= 0
tri4_2_9_16: t2_9_16 - x2_9 - x2_16 - x9_16 >= -2
tri1_2_9_17: t2_9_17 - x2_9 <= 0
tri2_2_9_17: t2_9_17 - x2_17 <= 0
tri3_2_9_17: t2_9_17 - x9_17 <= 0
tri4_2_9_17: t2_9_17 - x2_9 - x2_17 - x9_17 >= -2
tri1_2_9_18: t2_9_18 - x2_9 <= 0
tri2_2_9_18: t2_9_18 - x2_18 <= 0
tri3_2_9_18: t2_9_18 - x9_18 <= 0
tri4_2_9_18: t2_9_18 - x2_9 - x2_18 - x9_18 >= -2
tri1_2_9_19: t2_9_19 - x2_9 <= 0
tri2_2_9_19: t2_9_19 - x2_19 <= 0
tri3_2_9_19: t2_9_19 - x9_19 <= 0
tri4_2_9_19: t2_9_19 - x2_9 - x2_19 - x9_19 >= -2
tri1_2_9_20: t2_9_20 - x2_9 <= 0
tri2_2_9_20: t2_9_20 - x2_20 <= 0
tri3_2_9_20: t2_9_20 - x9_20 <= 0
tri4_2_9_20: t2_9_20 - x2_9 - x2_20 - x9_20 >= -2
tri1_2_9_21: t2_9_21 - x2_9 <= 0
tri2_2_9_21: t2_9_21 - x2_21 <= 0
tri3_2_9_21: t2_9_21 - x9_21 <= 0
tri4_2_9_21: t2_9_21 - x2_9 - x2_21 - x9_21 >= -2
tri1_2_10_11: t2_10_11 - x2_10 <= 0
tri2_2_10_11: t2_10_11 - x2_11 <= 0
tri3_2_10_11: t2_10_11 - x10_11 <= 0
tri4_2_10_11: t2_10_11 - x2_10 - x2_11 - x10_11 >= -2
tri1_2_10_12: t2_10_12 - x2_10 <= 0
tri2_2_10_12: t2_10_12 - x2_12 <= 0
tri3_2_10_12: t2_10_12 - x10_12 <= 0
tri4_2_10_12: t2_10_12 - x2_10 - x2_12 - x10_12 >= -2
tri1_2_10_13: t2_10_13 - x2_10 <= 0
tri2_2_10_13: t2_10_13 - x2_13 <= 0
tri3_2_10_13: t2_10_13 - x10_13 <= 0
tri4_2_10_13: t2_10_13 - x2_10 - x2_13 - x10_13 >= -2
tri1_2_10_14: t2_10_14 - x2_10 <= 0
tri2_2_10_14: t2_10_14 - x2_14 <= 0
tri3_2_10_14: t2_10_14 - x10_14 <= 0
tri4_2_10_14: t2_10_14 - x2_10 - x2_14 - x10_14 >= -2
tri1_2_10_15: t2_10_15 - x2_10 <= 0
tri2_2_10_15: t2_10_15 - x2_15 <= 0
tri3_2_10_15: t2_10_15 - x10_15 <= 0
tri4_2_10_15: t2_10_15 - x2_10 - x2_15 - x10_15 >= -2
tri1_2_10_16: t2_10_16 - x2_10 <= 0
tri2_2_10_16: t2_10_16 - x2_16 <= 0
tri3_2_10_16: t2_10_16 - x10_16 <= 0
tri4_2_10_16: t2_10_16 - x2_10 - x2_16 - x10_16 >= -2
tri1_2_10_17: t2_10_17 - x2_10 <= 0
tri2_2_10_17: t2_10_17 - x2_17 <= 0
tri3_2_10_17: t2_10_17 - x10_17 <= 0
tri4_2_10_17: t2_10_17 - x2_10 - x2_17 - x10_17 >= -2
tri1_2_10_18: t2_10_18 - x2_10 <= 0
tri2_2_10_18: t2_10_18 - x2_18 <= 0
tri3_2_10_18: t2_10_18 - x10_18 <= 0
tri4_2_10_18: t2_10_18 - x2_10 - x2_18 - x10_18 >= -2
tri1_2_10_19: t2_10_19 - x2_10 <= 0
tri2_2_10_19: t2_10_19 - x2_19 <= 0
tri3_2_10_19: t2_10_19 - x10_19 <= 0
tri4_2_10_19: t2_10_19 - x2_10 - x2_19 - x10_19 >= -2
tri1_2_10_20: t2_10_20 - x2_10 <= 0
tri2_2_10_20: t2_10_20 - x2_20 <= 0
tri3_2_10_20: t2_10_20 - x10_20 <= 0
tri4_2_10_20: t2_10_20 - x2_10 - x2_20 - x10_20 >= -2
tri1_2_10_21: t2_10_21 - x2_10 <= 0
tri2_2_10_21: t2_10_21 - x2_21 <= 0
tri3_2_10_21: t2_10_21 - x10_21 <= 0
tri4_2_10_21: t2_10_21 - x2_10 - x2_21 - x10_21 >= -2
tri1_2_11_12: t2_11_12 - x2_11 <= 0
tri2_2_11_12: t2_11_12 - x2_12 <= 0
tri3_2_11_12: t2_11_12 - x11_12 <= 0
tri4_2_11_12: t2_11_12 - x2_11 - x2_12 - x11_12 >= -2
tri1_2_11_13: t2_11_13 - x2_11 <= 0
tri2_2_11_13: t2_11_13 - x2_13 <= 0
tri3_2_11_13: t2_11_13 - x11_13 <= 0
tri4_2_11_13: t2_11_13 - x2_11 - x2_13 - x11_13 >= -2
tri1_2_11_14: t2_11_14 - x2_11 <= 0
tri2_2_11_14: t2_11_14 - x2_14 <= 0
tri3_2_11_14: t2_11_14 - x11_14 <= 0
tri4_2_11_14: t2_11_14 - x2_11 - x2_14 - x11_14 >= -2
tri1_2_11_15: t2_11_15 - x2_11 <= 0
tri2_2_11_15: t2_11_15 - x2_15 <= 0
tri3_2_11_15: t2_11_15 - x11_15 <= 0
tri4_2_11_15: t2_11_15 - x2_11 - x2_15 - x11_15 >= -2
tri1_2_11_16: t2_11_16 - x2_11 <= 0
tri2_2_11_16: t2_11_16 - x2_16 <= 0
tri3_2_11_16: t2_11_16 - x11_16 <= 0
tri4_2_11_16: t2_11_16 - x2_11 - x2_16 - x11_16 >= -2
tri1_2_11_17: t2_11_17 - x2_11 <= 0
tri2_2_11_17: t2_11_17 - x2_17 <= 0
tri3_2_11_17: t2_11_17 - x11_17 <= 0
tri4_2_11_17: t2_11_17 - x2_11 - x2_17 - x11_17 >= -2
tri1_2_11_18: t2_11_18 - x2_11 <= 0
tri2_2_11_18: t2_11_18 - x2_18 <= 0
tri3_2_11_18: t2_11_18 - x11_18 <= 0
tri4_2_11_18: t2_11_18 - x2_11 - x2_18 - x11_18 >= -2
tri1_2_11_19: t2_11_19 - x2_11 <= 0
tri2_2_11_19: t2_11_19 - x2_19 <= 0
tri3_2_11_19: t2_11_19 - x11_19 <= 0
tri4_2_11_19: t2_11_19 - x2_11 - x2_19 - x11_19 >= -2
tri1_2_11_20: t2_11_20 - x2_11 <= 0
tri2_2_11_20: t2_11_20 - x2_20 <= 0
tri3_2_11_20: t2_11_20 - x11_20 <= 0
tri4_2_11_20: t2_11_20 - x2_11 - x2_20 - x11_20 >= -2
tri1_2_11_21: t2_11_21 - x2_11 <= 0
tri2_2_11_21: t2_11_21 - x2_21 <= 0
tri3_2_11_21: t2_11_21 - x11_21 <= 0
tri4_2_11_21: t2_11_21 - x2_11 - x2_21 - x11_21 >= -2
tri1_2_12_13: t2_12_13 - x2_12 <= 0
tri2_2_12_13: t2_12_13 - x2_13 <= 0
tri3_2_12_13: t2_12_13 - x12_13 <= 0
tri4_2_12_13: t2_12_13 - x2_12 - x2_13 - x12_13 >= -2
tri1_2_12_14: t2_12_14 - x2_12 <= 0
tri2_2_12_14: t2_12_14 - x2_14 <= 0
tri3_2_12_14: t2_12_14 - x12_14 <= 0
tri4_2_12_14: t2_12_14 - x2_12 - x2_14 - x12_14 >= -2
tri1_2_12_15: t2_12_15 - x2_12 <= 0
tri2_2_12_15: t2_12_15 - x2_15 <= 0
tri3_2_12_15: t2_12_15 - x12_15 <= 0
tri4_2_12_15: t2_12_15 - x2_12 - x2_15 - x12_15 >= -2
tri1_2_12_16: t2_12_16 - x2_12 <= 0
tri2_2_12_16: t2_12_16 - x2_16 <= 0
tri3_2_12_16: t2_12_16 - x12_16 <= 0
tri4_2_12_16: t2_12_16 - x2_12 - x2_16 - x12_16 >= -2
tri1_2_12_17: t2_12_17 - x2_12 <= 0
tri2_2_12_17: t2_12_17 - x2_17 <= 0
tri3_2_12_17: t2_12_17 - x12_17 <= 0
tri4_2_12_17: t2_12_17 - x2_12 - x2_17 - x12_17 >= -2
tri1_2_12_18: t2_12_18 - x2_12 <= 0
tri2_2_12_18: t2_12_18 - x2_18 <= 0
tri3_2_12_18: t2_12_18 - x12_18 <= 0
tri4_2_12_18: t2_12_18 - x2_12 - x2_18 - x12_18 >= -2
tri1_2_12_19: t2_12_19 - x2_12 <= 0
tri2_2_12_19: t2_12_19 - x2_19 <= 0
tri3_2_12_19: t2_12_19 - x12_19 <= 0
tri4_2_12_19: t2_12_19 - x2_12 - x2_19 - x12_19 >= -2
tri1_2_12_20: t2_12_20 - x2_12 <= 0
tri2_2_12_20: t2_12_20 - x2_20 <= 0
tri3_2_12_20: t2_12_20 - x12_20 <= 0
tri4_2_12_20: t2_12_20 - x2_12 - x2_20 - x12_20 >= -2
tri1_2_12_21: t2_12_21 - x2_12 <= 0
tri2_2_12_21: t2_12_21 - x2_21 <= 0
tri3_2_12_21: t2_12_21 - x12_21 <= 0
tri4_2_12_21: t2_12_21 - x2_12 - x2_21 - x12_21 >= -2
tri1_2_13_14: t2_13_14 - x2_13 <= 0
tri2_2_13_14: t2_13_14 - x2_14 <= 0
tri3_2_13_14: t2_13_14 - x13_14 <= 0
tri4_2_13_14: t2_13_14 - x2_13 - x2_14 - x13_14 >= -2
tri1_2_13_15: t2_13_15 - x2_13 <= 0
tri2_2_13_15: t2_13_15 - x2_15 <= 0
tri3_2_13_15: t2_13_15 - x13_15 <= 0
tri4_2_13_15: t2_13_15 - x2_13 - x2_15 - x13_15 >= -2
tri1_2_13_16: t2_13_16 - x2_13 <= 0
tri2_2_13_16: t2_13_16 - x2_16 <= 0
tri3_2_13_16: t2_13_16 - x13_16 <= 0
tri4_2_13_16: t2_13_16 - x2_13 - x2_16 - x13_16 >= -2
tri1_2_13_17: t2_13_17 - x2_13 <= 0
tri2_2_13_17: t2_13_17 - x2_17 <= 0
tri3_2_13_17: t2_13_17 - x13_17 <= 0
tri4_2_13_17: t2_13_17 - x2_13 - x2_17 - x13_17 >= -2
tri1_2_13_18: t2_13_18 - x2_13 <= 0
tri2_2_13_18: t2_13_18 - x2_18 <= 0
tri3_2_13_18: t2_13_18 - x13_18 <= 0
tri4_2_13_18: t2_13_18 - x2_13 - x2_18 - x13_18 >= -2
tri1_2_13_19: t2_13_19 - x2_13 <= 0
tri2_2_13_19: t2_13_19 - x2_19 <= 0
tri3_2_13_19: t2_13_19 - x13_19 <= 0
tri4_2_13_19: t2_13_19 - x2_13 - x2_19 - x13_19 >= -2
tri1_2_13_20: t2_13_20 - x2_13 <= 0
tri2_2_13_20: t2_13_20 - x2_20 <= 0
tri3_2_13_20: t2_13_20 - x13_20 <= 0
tri4_2_13_20: t2_13_20 - x2_13 - x2_20 - x13_20 >= -2
tri1_2_13_21: t2_13_21 - x2_13 <= 0
tri2_2_13_21: t2_13_21 - x2_21 <= 0
tri3_2_13_21: t2_13_21 - x13_21 <= 0
tri4_2_13_21: t2_13_21 - x2_13 - x2_21 - x13_21 >= -2
tri1_2_14_15: t2_14_15 - x2_14 <= 0
tri2_2_14_15: t2_14_15 - x2_15 <= 0
tri3_2_14_15: t2_14_15 - x14_15 <= 0
tri4_2_14_15: t2_14_15 - x2_14 - x2_15 - x14_15 >= -2
tri1_2_14_16: t2_14_16 - x2_14 <= 0
tri2_2_14_16: t2_14_16 - x2_16 <= 0
tri3_2_14_16: t2_14_16 - x14_16 <= 0
tri4_2_14_16: t2_14_16 - x2_14 - x2_16 - x14_16 >= -2
tri1_2_14_17: t2_14_17 - x2_14 <= 0
tri2_2_14_17: t2_14_17 - x2_17 <= 0
tri3_2_14_17: t2_14_17 - x14_17 <= 0
tri4_2_14_17: t2_14_17 - x2_14 - x2_17 - x14_17 >= -2
tri1_2_14_18: t2_14_18 - x2_14 <= 0
tri2_2_14_18: t2_14_18 - x2_18 <= 0
tri3_2_14_18: t2_14_18 - x14_18 <= 0
tri4_2_14_18: t2_14_18 - x2_14 - x2_18 - x14_18 >= -2
tri1_2_14_19: t2_14_19 - x2_14 <= 0
tri2_2_14_19: t2_14_19 - x2_19 <= 0
tri3_2_14_19: t2_14_19 - x14_19 <= 0
tri4_2_14_19: t2_14_19 - x2_14 - x2_19 - x14_19 >= -2
tri1_2_14_20: t2_14_20 - x2_14 <= 0
tri2_2_14_20: t2_14_20 - x2_20 <= 0
tri3_2_14_20: t2_14_20 - x14_20 <= 0
tri4_2_14_20: t2_14_20 - x2_14 - x2_20 - x14_20 >= -2
tri1_2_14_21: t2_14_21 - x2_14 <= 0
tri2_2_14_21: t2_14_21 - x2_21 <= 0
tri3_2_14_21: t2_14_21 - x14_21 <= 0
tri4_2_14_21: t2_14_21 - x2_14 - x2_21 - x14_21 >= -2
tri1_2_15_16: t2_15_16 - x2_15 <= 0
tri2_2_15_16: t2_15_16 - x2_16 <= 0
tri3_2_15_16: t2_15_16 - x15_16 <= 0
tri4_2_15_16: t2_15_16 - x2_15 - x2_16 - x15_16 >= -2
tri1_2_15_17: t2_15_17 - x2_15 <= 0
tri2_2_15_17: t2_15_17 - x2_17 <= 0
tri3_2_15_17: t2_15_17 - x15_17 <= 0
tri4_2_15_17: t2_15_17 - x2_15 - x2_17 - x15_17 >= -2
tri1_2_15_18: t2_15_18 - x2_15 <= 0
tri2_2_15_18: t2_15_18 - x2_18 <= 0
tri3_2_15_18: t2_15_18 - x15_18 <= 0
tri4_2_15_18: t2_15_18 - x2_15 - x2_18 - x15_18 >= -2
tri1_2_15_19: t2_15_19 - x2_15 <= 0
tri2_2_15_19: t2_15_19 - x2_19 <= 0
tri3_2_15_19: t2_15_19 - x15_19 <= 0
tri4_2_15_19: t2_15_19 - x2_15 - x2_19 - x15_19 >= -2
tri1_2_15_20: t2_15_20 - x2_15 <= 0
tri2_2_15_20: t2_15_20 - x2_20 <= 0
tri3_2_15_20: t2_15_20 - x15_20 <= 0
tri4_2_15_20: t2_15_20 - x2_15 - x2_20 - x15_20 >= -2
tri1_2_15_21: t2_15_21 - x2_15 <= 0
tri2_2_15_21: t2_15_21 - x2_21 <= 0
tri3_2_15_21: t2_15_21 - x15_21 <= 0
tri4_2_15_21: t2_15_21 - x2_15 - x2_21 - x15_21 >= -2
tri1_2_16_17: t2_16_17 - x2_16 <= 0
tri2_2_16_17: t2_16_17 - x2_17 <= 0
tri3_2_16_17: t2_16_17 - x16_17 <= 0
tri4_2_16_17: t2_16_17 - x2_16 - x2_17 - x16_17 >= -2
tri1_2_16_18: t2_16_18 - x2_16 <= 0
tri2_2_16_18: t2_16_18 - x2_18 <= 0
tri3_2_16_18: t2_16_18 - x16_18 <= 0
tri4_2_16_18: t2_16_18 - x2_16 - x2_18 - x16_18 >= -2
tri1_2_16_19: t2_16_19 - x2_16 <= 0
tri2_2_16_19: t2_16_19 - x2_19 <= 0
tri3_2_16_19: t2_16_19 - x16_19 <= 0
tri4_2_16_19: t2_16_19 - x2_16 - x2_19 - x16_19 >= -2
tri1_2_16_20: t2_16_20 - x2_16 <= 0
tri2_2_16_20: t2_16_20 - x2_20 <= 0
tri3_2_16_20: t2_16_20 - x16_20 <= 0
tri4_2_16_20: t2_16_20 - x2_16 - x2_20 - x16_20 >= -2
tri1_2_16_21: t2_16_21 - x2_16 <= 0
tri2_2_16_21: t2_16_21 - x2_21 <= 0
tri3_2_16_21: t2_16_21 - x16_21 <= 0
tri4_2_16_21: t2_16_21 - x2_16 - x2_21 - x16_21 >= -2
tri1_2_17_18: t2_17_18 - x2_17 <= 0
tri2_2_17_18: t2_17_18 - x2_18 <= 0
tri3_2_17_18: t2_17_18 - x17_18 <= 0
tri4_2_17_18: t2_17_18 - x2_17 - x2_18 - x17_18 >= -2
tri1_2_17_19: t2_17_19 - x2_17 <= 0
tri2_2_17_19: t2_17_19 - x2_19 <= 0
tri3_2_17_19: t2_17_19 - x17_19 <= 0
tri4_2_17_19: t2_17_19 - x2_17 - x2_19 - x17_19 >= -2
tri1_2_17_20: t2_17_20 - x2_17 <= 0
tri2_2_17_20: t2_17_20 - x2_20 <= 0
tri3_2_17_20: t2_17_20 - x17_20 <= 0
tri4_2_17_20: t2_17_20 - x2_17 - x2_20 - x17_20 >= -2
tri1_2_17_21: t2_17_21 - x2_17 <= 0
tri2_2_17_21: t2_17_21 - x2_21 <= 0
tri3_2_17_21: t2_17_21 - x17_21 <= 0
tri4_2_17_21: t2_17_21 - x2_17 - x2_21 - x17_21 >= -2
tri1_2_18_19: t2_18_19 - x2_18 <= 0
tri2_2_18_19: t2_18_19 - x2_19 <= 0
tri3_2_18_19: t2_18_19 - x18_19 <= 0
tri4_2_18_19: t2_18_19 - x2_18 - x2_19 - x18_19 >= -2
tri1_2_18_20: t2_18_20 - x2_18 <= 0
tri2_2_18_20: t2_18_20 - x2_20 <= 0
tri3_2_18_20: t2_18_20 - x18_20 <= 0
tri4_2_18_20: t2_18_20 - x2_18 - x2_20 - x18_20 >= -2
tri1_2_18_21: t2_18_21 - x2_18 <= 0
tri2_2_18_21: t2_18_21 - x2_21 <= 0
tri3_2_18_21: t2_18_21 - x18_21 <= 0
tri4_2_18_21: t2_18_21 - x2_18 - x2_21 - x18_21 >= -2
tri1_2_19_20: t2_19_20 - x2_19 <= 0
tri2_2_19_20: t2_19_20 - x2_20 <= 0
tri3_2_19_20: t2_19_20 - x19_20 <= 0
tri4_2_19_20: t2_19_20 - x2_19 - x2_20 - x19_20 >= -2
tri1_2_19_21: t2_19_21 - x2_19 <= 0
tri2_2_19_21: t2_19_21 - x2_21 <= 0
tri3_2_19_21: t2_19_21 - x19_21 <= 0
tri4_2_19_21: t2_19_21 - x2_19 - x2_21 - x19_21 >= -2
tri1_2_20_21: t2_20_21 - x2_20 <= 0
tri2_2_20_21: t2_20_21 - x2_21 <= 0
tri3_2_20_21: t2_20_21 - x20_21 <= 0
tri4_2_20_21: t2_20_21 - x2_20 - x2_21 - x20_21 >= -2
tri1_3_4_5: t3_4_5 - x3_4 <= 0
tri2_3_4_5: t3_4_5 - x3_5 <= 0
tri3_3_4_5: t3_4_5 - x4_5 <= 0
tri4_3_4_5: t3_4_5 - x3_4 - x3_5 - x4_5 >= -2
tri1_3_4_6: t3_4_6 - x3_4 <= 0
tri2_3_4_6: t3_4_6 - x3_6 <= 0
tri3_3_4_6: t3_4_6 - x4_6 <= 0
tri4_3_4_6: t3_4_6 - x3_4 - x3_6 - x4_6 >= -2
tri1_3_4_7: t3_4_7 - x3_4 <= 0
tri2_3_4_7: t3_4_7 - x3_7 <= 0
tri3_3_4_7: t3_4_7 - x4_7 <= 0
tri4_3_4_7: t3_4_7 - x3_4 - x3_7 - x4_7 >= -2
tri1_3_4_8: t3_4_8 - x3_4 <= 0
tri2_3_4_8: t3_4_8 - x3_8 <= 0
tri3_3_4_8: t3_4_8 - x4_8 <= 0
tri4_3_4_8: t3_4_8 - x3_4 - x3_8 - x4_8 >= -2
tri1_3_4_9: t3_4_9 - x3_4 <= 0
tri2_3_4_9: t3_4_9 - x3_9 <= 0
tri3_3_4_9: t3_4_9 - x4_9 <= 0
tri4_3_4_9: t3_4_9 - x3_4 - x3_9 - x4_9 >= -2
tri1_3_4_10: t3_4_10 - x3_4 <= 0
tri2_3_4_10: t3_4_10 - x3_10 <= 0
tri3_3_4_10: t3_4_10 - x4_10 <= 0
tri4_3_4_10: t3_4_10 - x3_4 - x3_10 - x4_10 >= -2
tri1_3_4_11: t3_4_11 - x3_4 <= 0
tri2_3_4_11: t3_4_11 - x3_11 <= 0
tri3_3_4_11: t3_4_11 - x4_11 <= 0
tri4_3_4_11: t3_4_11 - x3_4 - x3_11 - x4_11 >= -2
tri1_3_4_12: t3_4_12 - x3_4 <= 0
tri2_3_4_12: t3_4_12 - x3_12 <= 0
tri3_3_4_12: t3_4_12 - x4_12 <= 0
tri4_3_4_12: t3_4_12 - x3_4 - x3_12 - x4_12 >= -2
tri1_3_4_13: t3_4_13 - x3_4 <= 0
tri2_3_4_13: t3_4_13 - x3_13 <= 0
tri3_3_4_13: t3_4_13 - x4_13 <= 0
tri4_3_4_13: t3_4_13 - x3_4 - x3_13 - x4_13 >= -2
tri1_3_4_14: t3_4_14 - x3_4 <= 0
tri2_3_4_14: t3_4_14 - x3_14 <= 0
tri3_3_4_14: t3_4_14 - x4_14 <= 0
tri4_3_4_14: t3_4_14 - x3_4 - x3_14 - x4_14 >= -2
tri1_3_4_15: t3_4_15 - x3_4 <= 0
tri2_3_4_15: t3_4_15 - x3_15 <= 0
tri3_3_4_15: t3_4_15 - x4_15 <= 0
tri4_3_4_15: t3_4_15 - x3_4 - x3_15 - x4_15 >= -2
tri1_3_4_16: t3_4_16 - x3_4 <= 0
tri2_3_4_16: t3_4_16 - x3_16 <= 0
tri3_3_4_16: t3_4_16 - x4_16 <= 0
tri4_3_4_16: t3_4_16 - x3_4 - x3_16 - x4_16 >= -2
tri1_3_4_17: t3_4_17 - x3_4 <= 0
tri2_3_4_17: t3_4_17 - x3_17 <= 0
tri3_3_4_17: t3_4_17 - x4_17 <= 0
tri4_3_4_17: t3_4_17 - x3_4 - x3_17 - x4_17 >= -2
tri1_3_4_18: t3_4_18 - x3_4 <= 0
tri2_3_4_18: t3_4_18 - x3_18 <= 0
tri3_3_4_18: t3_4_18 - x4_18 <= 0
tri4_3_4_18: t3_4_18 - x3_4 - x3_18 - x4_18 >= -2
tri1_3_4_19: t3_4_19 - x3_4 <= 0
tri2_3_4_19: t3_4_19 - x3_19 <= 0
tri3_3_4_19: t3_4_19 - x4_19 <= 0
tri4_3_4_19: t3_4_19 - x3_4 - x3_19 - x4_19 >= -2
tri1_3_4_20: t3_4_20 - x3_4 <= 0
tri2_3_4_20: t3_4_20 - x3_20 <= 0
tri3_3_4_20: t3_4_20 - x4_20 <= 0
tri4_3_4_20: t3_4_20 - x3_4 - x3_20 - x4_20 >= -2
tri1_3_4_21: t3_4_21 - x3_4 <= 0
tri2_3_4_21: t3_4_21 - x3_21 <= 0
tri3_3_4_21: t3_4_21 - x4_21 <= 0
tri4_3_4_21: t3_4_21 - x3_4 - x3_21 - x4_21 >= -2
tri1_3_5_6: t3_5_6 - x3_5 <= 0
tri2_3_5_6: t3_5_6 - x3_6 <= 0
tri3_3_5_6: t3_5_6 - x5_6 <= 0
tri4_3_5_6: t3_5_6 - x3_5 - x3_6 - x5_6 >= -2
tri1_3_5_7: t3_5_7 - x3_5 <= 0
tri2_3_5_7: t3_5_7 - x3_7 <= 0
tri3_3_5_7: t3_5_7 - x5_7 <= 0
tri4_3_5_7: t3_5_7 - x3_5 - x3_7 - x5_7 >= -2
tri1_3_5_8: t3_5_8 - x3_5 <= 0
tri2_3_5_8: t3_5_8 - x3_8 <= 0
tri3_3_5_8: t3_5_8 - x5_8 <= 0
tri4_3_5_8: t3_5_8 - x3_5 - x3_8 - x5_8 >= -2
tri1_3_5_9: t3_5_9 - x3_5 <= 0
tri2_3_5_9: t3_5_9 - x3_9 <= 0
tri3_3_5_9: t3_5_9 - x5_9 <= 0
tri4_3_5_9: t3_5_9 - x3_5 - x3_9 - x5_9 >= -2
tri1_3_5_10: t3_5_10 - x3_5 <= 0
tri2_3_5_10: t3_5_10 - x3_10 <= 0
tri3_3_5_10: t3_5_10 - x5_10 <= 0
tri4_3_5_10: t3_5_10 - x3_5 - x3_10 - x5_10 >= -2
tri1_3_5_11: t3_5_11 - x3_5 <= 0
tri2_3_5_11: t3_5_11 - x3_11 <= 0
tri3_3_5_11: t3_5_11 - x5_11 <= 0
tri4_3_5_11: t3_5_11 - x3_5 - x3_11 - x5_11 >= -2
tri1_3_5_12: t3_5_12 - x3_5 <= 0
tri2_3_5_12: t3_5_12 - x3_12 <= 0
tri3_3_5_12: t3_5_12 - x5_12 <= 0
tri4_3_5_12: t3_5_12 - x3_5 - x3_12 - x5_12 >= -2
tri1_3_5_13: t3_5_13 - x3_5 <= 0
tri2_3_5_13: t3_5_13 - x3_13 <= 0
tri3_3_5_13: t3_5_13 - x5_13 <= 0
tri4_3_5_13: t3_5_13 - x3_5 - x3_13 - x5_13 >= -2
tri1_3_5_14: t3_5_14 - x3_5 <= 0
tri2_3_5_14: t3_5_14 - x3_14 <= 0
tri3_3_5_14: t3_5_14 - x5_14 <= 0
tri4_3_5_14: t3_5_14 - x3_5 - x3_14 - x5_14 >= -2
tri1_3_5_15: t3_5_15 - x3_5 <= 0
tri2_3_5_15: t3_5_15 - x3_15 <= 0
tri3_3_5_15: t3_5_15 - x5_15 <= 0
tri4_3_5_15: t3_5_15 - x3_5 - x3_15 - x5_15 >= -2
tri1_3_5_16: t3_5_16 - x3_5 <= 0
tri2_3_5_16: t3_5_16 - x3_16 <= 0
tri3_3_5_16: t3_5_16 - x5_16 <= 0
tri4_3_5_16: t3_5_16 - x3_5 - x3_16 - x5_16 >= -2
tri1_3_5_17: t3_5_17 - x3_5 <= 0
tri2_3_5_17: t3_5_17 - x3_17 <= 0
tri3_3_5_17: t3_5_17 - x5_17 <= 0
tri4_3_5_17: t3_5_17 - x3_5 - x3_17 - x5_17 >= -2
tri1_3_5_18: t3_5_18 - x3_5 <= 0
tri2_3_5_18: t3_5_18 - x3_18 <= 0
tri3_3_5_18: t3_5_18 - x5_18 <= 0
tri4_3_5_18: t3_5_18 - x3_5 - x3_18 - x5_18 >= -2
tri1_3_5_19: t3_5_19 - x3_5 <= 0
tri2_3_5_19: t3_5_19 - x3_19 <= 0
tri3_3_5_19: t3_5_19 - x5_19 <= 0
tri4_3_5_19: t3_5_19 - x3_5 - x3_19 - x5_19 >= -2
tri1_3_5_20: t3_5_20 - x3_5 <= 0
tri2_3_5_20: t3_5_20 - x3_20 <= 0
tri3_3_5_20: t3_5_20 - x5_20 <= 0
tri4_3_5_20: t3_5_20 - x3_5 - x3_20 - x5_20 >= -2
tri1_3_5_21: t3_5_21 - x3_5 <= 0
tri2_3_5_21: t3_5_21 - x3_21 <= 0
tri3_3_5_21: t3_5_21 - x5_21 <= 0
tri4_3_5_21: t3_5_21 - x3_5 - x3_21 - x5_21 >= -2
tri1_3_6_7: t3_6_7 - x3_6 <= 0
tri2_3_6_7: t3_6_7 - x3_7 <= 0
tri3_3_6_7: t3_6_7 - x6_7 <= 0
tri4_3_6_7: t3_6_7 - x3_6 - x3_7 - x6_7 >= -2
tri1_3_6_8: t3_6_8 - x3_6 <= 0
tri2_3_6_8: t3_6_8 - x3_8 <= 0
tri3_3_6_8: t3_6_8 - x6_8 <= 0
tri4_3_6_8: t3_6_8 - x3_6 - x3_8 - x6_8 >= -2
tri1_3_6_9: t3_6_9 - x3_6 <= 0
tri2_3_6_9: t3_6_9 - x3_9 <= 0
tri3_3_6_9: t3_6_9 - x6_9 <= 0
tri4_3_6_9: t3_6_9 - x3_6 - x3_9 - x6_9 >= -2
tri1_3_6_10: t3_6_10 - x3_6 <= 0
tri2_3_6_10: t3_6_10 - x3_10 <= 0
tri3_3_6_10: t3_6_10 - x6_10 <= 0
tri4_3_6_10: t3_6_10 - x3_6 - x3_10 - x6_10 >= -2
tri1_3_6_11: t3_6_11 - x3_6 <= 0
tri2_3_6_11: t3_6_11 - x3_11 <= 0
tri3_3_6_11: t3_6_11 - x6_11 <= 0
tri4_3_6_11: t3_6_11 - x3_6 - x3_11 - x6_11 >= -2
tri1_3_6_12: t3_6_12 - x3_6 <= 0
tri2_3_6_12: t3_6_12 - x3_12 <= 0
tri3_3_6_12: t3_6_12 - x6_12 <= 0
tri4_3_6_12: t3_6_12 - x3_6 - x3_12 - x6_12 >= -2
tri1_3_6_13: t3_6_13 - x3_6 <= 0
tri2_3_6_13: t3_6_13 - x3_13 <= 0
tri3_3_6_13: t3_6_13 - x6_13 <= 0
tri4_3_6_13: t3_6_13 - x3_6 - x3_13 - x6_13 >= -2
tri1_3_6_14: t3_6_14 - x3_6 <= 0
tri2_3_6_14: t3_6_14 - x3_14 <= 0
tri3_3_6_14: t3_6_14 - x6_14 <= 0
tri4_3_6_14: t3_6_14 - x3_6 - x3_14 - x6_14 >= -2
tri1_3_6_15: t3_6_15 - x3_6 <= 0
tri2_3_6_15: t3_6_15 - x3_15 <= 0
tri3_3_6_15: t3_6_15 - x6_15 <= 0
tri4_3_6_15: t3_6_15 - x3_6 - x3_15 - x6_15 >= -2
tri1_3_6_16: t3_6_16 - x3_6 <= 0
tri2_3_6_16: t3_6_16 - x3_16 <= 0
tri3_3_6_16: t3_6_16 - x6_16 <= 0
tri4_3_6_16: t3_6_16 - x3_6 - x3_16 - x6_16 >= -2
tri1_3_6_17: t3_6_17 - x3_6 <= 0
tri2_3_6_17: t3_6_17 - x3_17 <= 0
tri3_3_6_17: t3_6_17 - x6_17 <= 0
tri4_3_6_17: t3_6_17 - x3_6 - x3_17 - x6_17 >= -2
tri1_3_6_18: t3_6_18 - x3_6 <= 0
tri2_3_6_18: t3_6_18 - x3_18 <= 0
tri3_3_6_18: t3_6_18 - x6_18 <= 0
tri4_3_6_18: t3_6_18 - x3_6 - x3_18 - x6_18 >= -2
tri1_3_6_19: t3_6_19 - x3_6 <= 0
tri2_3_6_19: t3_6_19 - x3_19 <= 0
tri3_3_6_19: t3_6_19 - x6_19 <= 0
tri4_3_6_19: t3_6_19 - x3_6 - x3_19 - x6_19 >= -2
tri1_3_6_20: t3_6_20 - x3_6 <= 0
tri2_3_6_20: t3_6_20 - x3_20 <= 0
tri3_3_6_20: t3_6_20 - x6_20 <= 0
tri4_3_6_20: t3_6_20 - x3_6 - x3_20 - x6_20 >= -2
tri1_3_6_21: t3_6_21 - x3_6 <= 0
tri2_3_6_21: t3_6_21 - x3_21 <= 0
tri3_3_6_21: t3_6_21 - x6_21 <= 0
tri4_3_6_21: t3_6_21 - x3_6 - x3_21 - x6_21 >= -2
tri1_3_7_8: t3_7_8 - x3_7 <= 0
tri2_3_7_8: t3_7_8 - x3_8 <= 0
tri3_3_7_8: t3_7_8 - x7_8 <= 0
tri4_3_7_8: t3_7_8 - x3_7 - x3_8 - x7_8 >= -2
tri1_3_7_9: t3_7_9 - x3_7 <= 0
tri2_3_7_9: t3_7_9 - x3_9 <= 0
tri3_3_7_9: t3_7_9 - x7_9 <= 0
tri4_3_7_9: t3_7_9 - x3_7 - x3_9 - x7_9 >= -2
tri1_3_7_10: t3_7_10 - x3_7 <= 0
tri2_3_7_10: t3_7_10 - x3_10 <= 0
tri3_3_7_10: t3_7_10 - x7_10 <= 0
tri4_3_7_10: t3_7_10 - x3_7 - x3_10 - x7_10 >= -2
tri1_3_7_11: t3_7_11 - x3_7 <= 0
tri2_3_7_11: t3_7_11 - x3_11 <= 0
tri3_3_7_11: t3_7_11 - x7_11 <= 0
tri4_3_7_11: t3_7_11 - x3_7 - x3_11 - x7_11 >= -2
tri1_3_7_12: t3_7_12 - x3_7 <= 0
tri2_3_7_12: t3_7_12 - x3_12 <= 0
tri3_3_7_12: t3_7_12 - x7_12 <= 0
tri4_3_7_12: t3_7_12 - x3_7 - x3_12 - x7_12 >= -2
tri1_3_7_13: t3_7_13 - x3_7 <= 0
tri2_3_7_13: t3_7_13 - x3_13 <= 0
tri3_3_7_13: t3_7_13 - x7_13 <= 0
tri4_3_7_13: t3_7_13 - x3_7 - x3_13 - x7_13 >= -2
tri1_3_7_14: t3_7_14 - x3_7 <= 0
tri2_3_7_14: t3_7_14 - x3_14 <= 0
tri3_3_7_14: t3_7_14 - x7_14 <= 0
tri4_3_7_14: t3_7_14 - x3_7 - x3_14 - x7_14 >= -2
tri1_3_7_15: t3_7_15 - x3_7 <= 0
tri2_3_7_15: t3_7_15 - x3_15 <= 0
tri3_3_7_15: t3_7_15 - x7_15 <= 0
tri4_3_7_15: t3_7_15 - x3_7 - x3_15 - x7_15 >= -2
tri1_3_7_16: t3_7_16 - x3_7 <= 0
tri2_3_7_16: t3_7_16 - x3_16 <= 0
tri3_3_7_16: t3_7_16 - x7_16 <= 0
tri4_3_7_16: t3_7_16 - x3_7 - x3_16 - x7_16 >= -2
tri1_3_7_17: t3_7_17 - x3_7 <= 0
tri2_3_7_17: t3_7_17 - x3_17 <= 0
tri3_3_7_17: t3_7_17 - x7_17 <= 0
tri4_3_7_17: t3_7_17 - x3_7 - x3_17 - x7_17 >= -2
tri1_3_7_18: t3_7_18 - x3_7 <= 0
tri2_3_7_18: t3_7_18 - x3_18 <= 0
tri3_3_7_18: t3_7_18 - x7_18 <= 0
tri4_3_7_18: t3_7_18 - x3_7 - x3_18 - x7_18 >= -2
tri1_3_7_19: t3_7_19 - x3_7 <= 0
tri2_3_7_19: t3_7_19 - x3_19 <= 0
tri3_3_7_19: t3_7_19 - x7_19 <= 0
tri4_3_7_19: t3_7_19 - x3_7 - x3_19 - x7_19 >= -2
tri1_3_7_20: t3_7_20 - x3_7 <= 0
tri2_3_7_20: t3_7_20 - x3_20 <= 0
tri3_3_7_20: t3_7_20 - x7_20 <= 0
tri4_3_7_20: t3_7_20 - x3_7 - x3_20 - x7_20 >= -2
tri1_3_7_21: t3_7_21 - x3_7 <= 0
tri2_3_7_21: t3_7_21 - x3_21 <= 0
tri3_3_7_21: t3_7_21 - x7_21 <= 0
tri4_3_7_21: t3_7_21 - x3_7 - x3_21 - x7_21 >= -2
tri1_3_8_9: t3_8_9 - x3_8 <= 0
tri2_3_8_9: t3_8_9 - x3_9 <= 0
tri3_3_8_9: t3_8_9 - x8_9 <= 0
tri4_3_8_9: t3_8_9 - x3_8 - x3_9 - x8_9 >= -2
tri1_3_8_10: t3_8_10 - x3_8 <= 0
tri2_3_8_10: t3_8_10 - x3_10 <= 0
tri3_3_8_10: t3_8_10 - x8_10 <= 0
tri4_3_8_10: t3_8_10 - x3_8 - x3_10 - x8_10 >= -2
tri1_3_8_11: t3_8_11 - x3_8 <= 0
tri2_3_8_11: t3_8_11 - x3_11 <= 0
tri3_3_8_11: t3_8_11 - x8_11 <= 0
tri4_3_8_11: t3_8_11 - x3_8 - x3_11 - x8_11 >= -2
tri1_3_8_12: t3_8_12 - x3_8 <= 0
tri2_3_8_12: t3_8_12 - x3_12 <= 0
tri3_3_8_12: t3_8_12 - x8_12 <= 0
tri4_3_8_12: t3_8_12 - x3_8 - x3_12 - x8_12 >= -2
tri1_3_8_13: t3_8_13 - x3_8 <= 0
tri2_3_8_13: t3_8_13 - x3_13 <= 0
tri3_3_8_13: t3_8_13 - x8_13 <= 0
tri4_3_8_13: t3_8_13 - x3_8 - x3_13 - x8_13 >= -2
tri1_3_8_14: t3_8_14 - x3_8 <= 0
tri2_3_8_14: t3_8_14 - x3_14 <= 0
tri3_3_8_14: t3_8_14 - x8_14 <= 0
tri4_3_8_14: t3_8_14 - x3_8 - x3_14 - x8_14 >= -2
tri1_3_8_15: t3_8_15 - x3_8 <= 0
tri2_3_8_15: t3_8_15 - x3_15 <= 0
tri3_3_8_15: t3_8_15 - x8_15 <= 0
tri4_3_8_15: t3_8_15 - x3_8 - x3_15 - x8_15 >= -2
tri1_3_8_16: t3_8_16 - x3_8 <= 0
tri2_3_8_16: t3_8_16 - x3_16 <= 0
tri3_3_8_16: t3_8_16 - x8_16 <= 0
tri4_3_8_16: t3_8_16 - x3_8 - x3_16 - x8_16 >= -2
tri1_3_8_17: t3_8_17 - x3_8 <= 0
tri2_3_8_17: t3_8_17 - x3_17 <= 0
tri3_3_8_17: t3_8_17 - x8_17 <= 0
tri4_3_8_17: t3_8_17 - x3_8 - x3_17 - x8_17 >= -2
tri1_3_8_18: t3_8_18 - x3_8 <= 0
tri2_3_8_18: t3_8_18 - x3_18 <= 0
tri3_3_8_18: t3_8_18 - x8_18 <= 0
tri4_3_8_18: t3_8_18 - x3_8 - x3_18 - x8_18 >= -2
tri1_3_8_19: t3_8_19 - x3_8 <= 0
tri2_3_8_19: t3_8_19 - x3_19 <= 0
tri3_3_8_19: t3_8_19 - x8_19 <= 0
tri4_3_8_19: t3_8_19 - x3_8 - x3_19 - x8_19 >= -2
tri1_3_8_20: t3_8_20 - x3_8 <= 0
tri2_3_8_20: t3_8_20 - x3_20 <= 0
tri3_3_8_20: t3_8_20 - x8_20 <= 0
tri4_3_8_20: t3_8_20 - x3_8 - x3_20 - x8_20 >= -2
tri1_3_8_21: t3_8_21 - x3_8 <= 0
tri2_3_8_21: t3_8_21 - x3_21 <= 0
tri3_3_8_21: t3_8_21 - x8_21 <= 0
tri4_3_8_21: t3_8_21 - x3_8 - x3_21 - x8_21 >= -2
tri1_3_9_10: t3_9_10 - x3_9 <= 0
tri2_3_9_10: t3_9_10 - x3_10 <= 0
tri3_3_9_10: t3_9_10 - x9_10 <= 0
tri4_3_9_10: t3_9_10 - x3_9 - x3_10 - x9_10 >= -2
tri1_3_9_11: t3_9_11 - x3_9 <= 0
tri2_3_9_11: t3_9_11 - x3_11 <= 0
tri3_3_9_11: t3_9_11 - x9_11 <= 0
tri4_3_9_11: t3_9_11 - x3_9 - x3_11 - x9_11 >= -2
tri1_3_9_12: t3_9_12 - x3_9 <= 0
tri2_3_9_12: t3_9_12 - x3_12 <= 0
tri3_3_9_12: t3_9_12 - x9_12 <= 0
tri4_3_9_12: t3_9_12 - x3_9 - x3_12 - x9_12 >= -2
tri1_3_9_13: t3_9_13 - x3_9 <= 0
tri2_3_9_13: t3_9_13 - x3_13 <= 0
tri3_3_9_13: t3_9_13 - x9_13 <= 0
tri4_3_9_13: t3_9_13 - x3_9 - x3_13 - x9_13 >= -2
tri1_3_9_14: t3_9_14 - x3_9 <= 0
tri2_3_9_14: t3_9_14 - x3_14 <= 0
tri3_3_9_14: t3_9_14 - x9_14 <= 0
tri4_3_9_14: t3_9_14 - x3_9 - x3_14 - x9_14 >= -2
tri1_3_9_15: t3_9_15 - x3_9 <= 0
tri2_3_9_15: t3_9_15 - x3_15 <= 0
tri3_3_9_15: t3_9_15 - x9_15 <= 0
tri4_3_9_15: t3_9_15 - x3_9 - x3_15 - x9_15 >= -2
tri1_3_9_16: t3_9_16 - x3_9 <= 0
tri2_3_9_16: t3_9_16 - x3_16 <= 0
tri3_3_9_16: t3_9_16 - x9_16 <= 0
tri4_3_9_16: t3_9_16 - x3_9 - x3_16 - x9_16 >= -2
tri1_3_9_17: t3_9_17 - x3_9 <= 0
tri2_3_9_17: t3_9_17 - x3_17 <= 0
tri3_3_9_17: t3_9_17 - x9_17 <= 0
tri4_3_9_17: t3_9_17 - x3_9 - x3_17 - x9_17 >= -2
tri1_3_9_18: t3_9_18 - x3_9 <= 0
tri2_3_9_18: t3_9_18 - x3_18 <= 0
tri3_3_9_18: t3_9_18 - x9_18 <= 0
tri4_3_9_18: t3_9_18 - x3_9 - x3_18 - x9_18 >= -2
tri1_3_9_19: t3_9_19 - x3_9 <= 0
tri2_3_9_19: t3_9_19 - x3_19 <= 0
tri3_3_9_19: t3_9_19 - x9_19 <= 0
tri4_3_9_19: t3_9_19 - x3_9 - x3_19 - x9_19 >= -2
tri1_3_9_20: t3_9_20 - x3_9 <= 0
tri2_3_9_20: t3_9_20 - x3_20 <= 0
tri3_3_9_20: t3_9_20 - x9_20 <= 0
tri4_3_9_20: t3_9_20 - x3_9 - x3_20 - x9_20 >= -2
tri1_3_9_21: t3_9_21 - x3_9 <= 0
tri2_3_9_21: t3_9_21 - x3_21 <= 0
tri3_3_9_21: t3_9_21 - x9_21 <= 0
tri4_3_9_21: t3_9_21 - x3_9 - x3_21 - x9_21 >= -2
tri1_3_10_11: t3_10_11 - x3_10 <= 0
tri2_3_10_11: t3_10_11 - x3_11 <= 0
tri3_3_10_11: t3_10_11 - x10_11 <= 0
tri4_3_10_11: t3_10_11 - x3_10 - x3_11 - x10_11 >= -2
tri1_3_10_12: t3_10_12 - x3_10 <= 0
tri2_3_10_12: t3_10_12 - x3_12 <= 0
tri3_3_10_12: t3_10_12 - x10_12 <= 0
tri4_3_10_12: t3_10_12 - x3_10 - x3_12 - x10_12 >= -2
tri1_3_10_13: t3_10_13 - x3_10 <= 0
tri2_3_10_13: t3_10_13 - x3_13 <= 0
tri3_3_10_13: t3_10_13 - x10_13 <= 0
tri4_3_10_13: t3_10_13 - x3_10 - x3_13 - x10_13 >= -2
tri1_3_10_14: t3_10_14 - x3_10 <= 0
tri2_3_10_14: t3_10_14 - x3_14 <= 0
tri3_3_10_14: t3_10_14 - x10_14 <= 0
tri4_3_10_14: t3_10_14 - x3_10 - x3_14 - x10_14 >= -2
tri1_3_10_15: t3_10_15 - x3_10 <= 0
tri2_3_10_15: t3_10_15 - x3_15 <= 0
tri3_3_10_15: t3_10_15 - x10_15 <= 0
tri4_3_10_15: t3_10_15 - x3_10 - x3_15 - x10_15 >= -2
tri1_3_10_16: t3_10_16 - x3_10 <= 0
tri2_3_10_16: t3_10_16 - x3_16 <= 0
tri3_3_10_16: t3_10_16 - x10_16 <= 0
tri4_3_10_16: t3_10_16 - x3_10 - x3_16 - x10_16 >= -2
tri1_3_10_17: t3_10_17 - x3_10 <= 0
tri2_3_10_17: t3_10_17 - x3_17 <= 0
tri3_3_10_17: t3_10_17 - x10_17 <= 0
tri4_3_10_17: t3_10_17 - x3_10 - x3_17 - x10_17 >= -2
tri1_3_10_18: t3_10_18 - x3_10 <= 0
tri2_3_10_18: t3_10_18 - x3_18 <= 0
tri3_3_10_18: t3_10_18 - x10_18 <= 0
tri4_3_10_18: t3_10_18 - x3_10 - x3_18 - x10_18 >= -2
tri1_3_10_19: t3_10_19 - x3_10 <= 0
tri2_3_10_19: t3_10_19 - x3_19 <= 0
tri3_3_10_19: t3_10_19 - x10_19 <= 0
tri4_3_10_19: t3_10_19 - x3_10 - x3_19 - x10_19 >= -2
tri1_3_10_20: t3_10_20 - x3_10 <= 0
tri2_3_10_20: t3_10_20 - x3_20 <= 0
tri3_3_10_20: t3_10_20 - x10_20 <= 0
tri4_3_10_20: t3_10_20 - x3_10 - x3_20 - x10_20 >= -2
tri1_3_10_21: t3_10_21 - x3_10 <= 0
tri2_3_10_21: t3_10_21 - x3_21 <= 0
tri3_3_10_21: t3_10_21 - x10_21 <= 0
tri4_3_10_21: t3_10_21 - x3_10 - x3_21 - x10_21 >= -2
tri1_3_11_12: t3_11_12 - x3_11 <= 0
tri2_3_11_12: t3_11_12 - x3_12 <= 0
tri3_3_11_12: t3_11_12 - x11_12 <= 0
tri4_3_11_12: t3_11_12 - x3_11 - x3_12 - x11_12 >= -2
tri1_3_11_13: t3_11_13 - x3_11 <= 0
tri2_3_11_13: t3_11_13 - x3_13 <= 0
tri3_3_11_13: t3_11_13 - x11_13 <= 0
tri4_3_11_13: t3_11_13 - x3_11 - x3_13 - x11_13 >= -2
tri1_3_11_14: t3_11_14 - x3_11 <= 0
tri2_3_11_14: t3_11_14 - x3_14 <= 0
tri3_3_11_14: t3_11_14 - x11_14 <= 0
tri4_3_11_14: t3_11_14 - x3_11 - x3_14 - x11_14 >= -2
tri1_3_11_15: t3_11_15 - x3_11 <= 0
tri2_3_11_15: t3_11_15 - x3_15 <= 0
tri3_3_11_15: t3_11_15 - x11_15 <= 0
tri4_3_11_15: t3_11_15 - x3_11 - x3_15 - x11_15 >= -2
tri1_3_11_16: t3_11_16 - x3_11 <= 0
tri2_3_11_16: t3_11_16 - x3_16 <= 0
tri3_3_11_16: t3_11_16 - x11_16 <= 0
tri4_3_11_16: t3_11_16 - x3_11 - x3_16 - x11_16 >= -2
tri1_3_11_17: t3_11_17 - x3_11 <= 0
tri2_3_11_17: t3_11_17 - x3_17 <= 0
tri3_3_11_17: t3_11_17 - x11_17 <= 0
tri4_3_11_17: t3_11_17 - x3_11 - x3_17 - x11_17 >= -2
tri1_3_11_18: t3_11_18 - x3_11 <= 0
tri2_3_11_18: t3_11_18 - x3_18 <= 0
tri3_3_11_18: t3_11_18 - x11_18 <= 0
tri4_3_11_18: t3_11_18 - x3_11 - x3_18 - x11_18 >= -2
tri1_3_11_19: t3_11_19 - x3_11 <= 0
tri2_3_11_19: t3_11_19 - x3_19 <= 0
tri3_3_11_19: t3_11_19 - x11_19 <= 0
tri4_3_11_19: t3_11_19 - x3_11 - x3_19 - x11_19 >= -2
tri1_3_11_20: t3_11_20 - x3_11 <= 0
tri2_3_11_20: t3_11_20 - x3_20 <= 0
tri3_3_11_20: t3_11_20 - x11_20 <= 0
tri4_3_11_20: t3_11_20 - x3_11 - x3_20 - x11_20 >= -2
tri1_3_11_21: t3_11_21 - x3_11 <= 0
tri2_3_11_21: t3_11_21 - x3_21 <= 0
tri3_3_11_21: t3_11_21 - x11_21 <= 0
tri4_3_11_21: t3_11_21 - x3_11 - x3_21 - x11_21 >= -2
tri1_3_12_13: t3_12_13 - x3_12 <= 0
tri2_3_12_13: t3_12_13 - x3_13 <= 0
tri3_3_12_13: t3_12_13 - x12_13 <= 0
tri4_3_12_13: t3_12_13 - x3_12 - x3_13 - x12_13 >= -2
tri1_3_12_14: t3_12_14 - x3_12 <= 0
tri2_3_12_14: t3_12_14 - x3_14 <= 0
tri3_3_12_14: t3_12_14 - x12_14 <= 0
tri4_3_12_14: t3_12_14 - x3_12 - x3_14 - x12_14 >= -2
tri1_3_12_15: t3_12_15 - x3_12 <= 0
tri2_3_12_15: t3_12_15 - x3_15 <= 0
tri3_3_12_15: t3_12_15 - x12_15 <= 0
tri4_3_12_15: t3_12_15 - x3_12 - x3_15 - x12_15 >= -2
tri1_3_12_16: t3_12_16 - x3_12 <= 0
tri2_3_12_16: t3_12_16 - x3_16 <= 0
tri3_3_12_16: t3_12_16 - x12_16 <= 0
tri4_3_12_16: t3_12_16 - x3_12 - x3_16 - x12_16 >= -2
tri1_3_12_17: t3_12_17 - x3_12 <= 0
tri2_3_12_17: t3_12_17 - x3_17 <= 0
tri3_3_12_17: t3_12_17 - x12_17 <= 0
tri4_3_12_17: t3_12_17 - x3_12 - x3_17 - x12_17 >= -2
tri1_3_12_18: t3_12_18 - x3_12 <= 0
tri2_3_12_18: t3_12_18 - x3_18 <= 0
tri3_3_12_18: t3_12_18 - x12_18 <= 0
tri4_3_12_18: t3_12_18 - x3_12 - x3_18 - x12_18 >= -2
tri1_3_12_19: t3_12_19 - x3_12 <= 0
tri2_3_12_19: t3_12_19 - x3_19 <= 0
tri3_3_12_19: t3_12_19 - x12_19 <= 0
tri4_3_12_19: t3_12_19 - x3_12 - x3_19 - x12_19 >= -2
tri1_3_12_20: t3_12_20 - x3_12 <= 0
tri2_3_12_20: t3_12_20 - x3_20 <= 0
tri3_3_12_20: t3_12_20 - x12_20 <= 0
tri4_3_12_20: t3_12_20 - x3_12 - x3_20 - x12_20 >= -2
tri1_3_12_21: t3_12_21 - x3_12 <= 0
tri2_3_12_21: t3_12_21 - x3_21 <= 0
tri3_3_12_21: t3_12_21 - x12_21 <= 0
tri4_3_12_21: t3_12_21 - x3_12 - x3_21 - x12_21 >= -2
tri1_3_13_14: t3_13_14 - x3_13 <= 0
tri2_3_13_14: t3_13_14 - x3_14 <= 0
tri3_3_13_14: t3_13_14 - x13_14 <= 0
tri4_3_13_14: t3_13_14 - x3_13 - x3_14 - x13_14 >= -2
tri1_3_13_15: t3_13_15 - x3_13 <= 0
tri2_3_13_15: t3_13_15 - x3_15 <= 0
tri3_3_13_15: t3_13_15 - x13_15 <= 0
tri4_3_13_15: t3_13_15 - x3_13 - x3_15 - x13_15 >= -2
tri1_3_13_16: t3_13_16 - x3_13 <= 0
tri2_3_13_16: t3_13_16 - x3_16 <= 0
tri3_3_13_16: t3_13_16 - x13_16 <= 0
tri4_3_13_16: t3_13_16 - x3_13 - x3_16 - x13_16 >= -2
tri1_3_13_17: t3_13_17 - x3_13 <= 0
tri2_3_13_17: t3_13_17 - x3_17 <= 0
tri3_3_13_17: t3_13_17 - x13_17 <= 0
tri4_3_13_17: t3_13_17 - x3_13 - x3_17 - x13_17 >= -2
tri1_3_13_18: t3_13_18 - x3_13 <= 0
tri2_3_13_18: t3_13_18 - x3_18 <= 0
tri3_3_13_18: t3_13_18 - x13_18 <= 0
tri4_3_13_18: t3_13_18 - x3_13 - x3_18 - x13_18 >= -2
tri1_3_13_19: t3_13_19 - x3_13 <= 0
tri2_3_13_19: t3_13_19 - x3_19 <= 0
tri3_3_13_19: t3_13_19 - x13_19 <= 0
tri4_3_13_19: t3_13_19 - x3_13 - x3_19 - x13_19 >= -2
tri1_3_13_20: t3_13_20 - x3_13 <= 0
tri2_3_13_20: t3_13_20 - x3_20 <= 0
tri3_3_13_20: t3_13_20 - x13_20 <= 0
tri4_3_13_20: t3_13_20 - x3_13 - x3_20 - x13_20 >= -2
tri1_3_13_21: t3_13_21 - x3_13 <= 0
tri2_3_13_21: t3_13_21 - x3_21 <= 0
tri3_3_13_21: t3_13_21 - x13_21 <= 0
tri4_3_13_21: t3_13_21 - x3_13 - x3_21 - x13_21 >= -2
tri1_3_14_15: t3_14_15 - x3_14 <= 0
tri2_3_14_15: t3_14_15 - x3_15 <= 0
tri3_3_14_15: t3_14_15 - x14_15 <= 0
tri4_3_14_15: t3_14_15 - x3_14 - x3_15 - x14_15 >= -2
tri1_3_14_16: t3_14_16 - x3_14 <= 0
tri2_3_14_16: t3_14_16 - x3_16 <= 0
tri3_3_14_16: t3_14_16 - x14_16 <= 0
tri4_3_14_16: t3_14_16 - x3_14 - x3_16 - x14_16 >= -2
tri1_3_14_17: t3_14_17 - x3_14 <= 0
tri2_3_14_17: t3_14_17 - x3_17 <= 0
tri3_3_14_17: t3_14_17 - x14_17 <= 0
tri4_3_14_17: t3_14_17 - x3_14 - x3_17 - x14_17 >= -2
tri1_3_14_18: t3_14_18 - x3_14 <= 0
tri2_3_14_18: t3_14_18 - x3_18 <= 0
tri3_3_14_18: t3_14_18 - x14_18 <= 0
tri4_3_14_18: t3_14_18 - x3_14 - x3_18 - x14_18 >= -2
tri1_3_14_19: t3_14_19 - x3_14 <= 0
tri2_3_14_19: t3_14_19 - x3_19 <= 0
tri3_3_14_19: t3_14_19 - x14_19 <= 0
tri4_3_14_19: t3_14_19 - x3_14 - x3_19 - x14_19 >= -2
tri1_3_14_20: t3_14_20 - x3_14 <= 0
tri2_3_14_20: t3_14_20 - x3_20 <= 0
tri3_3_14_20: t3_14_20 - x14_20 <= 0
tri4_3_14_20: t3_14_20 - x3_14 - x3_20 - x14_20 >= -2
tri1_3_14_21: t3_14_21 - x3_14 <= 0
tri2_3_14_21: t3_14_21 - x3_21 <= 0
tri3_3_14_21: t3_14_21 - x14_21 <= 0
tri4_3_14_21: t3_14_21 - x3_14 - x3_21 - x14_21 >= -2
tri1_3_15_16: t3_15_16 - x3_15 <= 0
tri2_3_15_16: t3_15_16 - x3_16 <= 0
tri3_3_15_16: t3_15_16 - x15_16 <= 0
tri4_3_15_16: t3_15_16 - x3_15 - x3_16 - x15_16 >= -2
tri1_3_15_17: t3_15_17 - x3_15 <= 0
tri2_3_15_17: t3_15_17 - x3_17 <= 0
tri3_3_15_17: t3_15_17 - x15_17 <= 0
tri4_3_15_17: t3_15_17 - x3_15 - x3_17 - x15_17 >= -2
tri1_3_15_18: t3_15_18 - x3_15 <= 0
tri2_3_15_18: t3_15_18 - x3_18 <= 0
tri3_3_15_18: t3_15_18 - x15_18 <= 0
tri4_3_15_18: t3_15_18 - x3_15 - x3_18 - x15_18 >= -2
tri1_3_15_19: t3_15_19 - x3_15 <= 0
tri2_3_15_19: t3_15_19 - x3_19 <= 0
tri3_3_15_19: t3_15_19 - x15_19 <= 0
tri4_3_15_19: t3_15_19 - x3_15 - x3_19 - x15_19 >= -2
tri1_3_15_20: t3_15_20 - x3_15 <= 0
tri2_3_15_20: t3_15_20 - x3_20 <= 0
tri3_3_15_20: t3_15_20 - x15_20 <= 0
tri4_3_15_20: t3_15_20 - x3_15 - x3_20 - x15_20 >= -2
tri1_3_15_21: t3_15_21 - x3_15 <= 0
tri2_3_15_21: t3_15_21 - x3_21 <= 0
tri3_3_15_21: t3_15_21 - x15_21 <= 0
tri4_3_15_21: t3_15_21 - x3_15 - x3_21 - x15_21 >= -2
tri1_3_16_17: t3_16_17 - x3_16 <= 0
tri2_3_16_17: t3_16_17 - x3_17 <= 0
tri3_3_16_17: t3_16_17 - x16_17 <= 0
tri4_3_16_17: t3_16_17 - x3_16 - x3_17 - x16_17 >= -2
tri1_3_16_18: t3_16_18 - x3_16 <= 0
tri2_3_16_18: t3_16_18 - x3_18 <= 0
tri3_3_16_18: t3_16_18 - x16_18 <= 0
tri4_3_16_18: t3_16_18 - x3_16 - x3_18 - x16_18 >= -2
tri1_3_16_19: t3_16_19 - x3_16 <= 0
tri2_3_16_19: t3_16_19 - x3_19 <= 0
tri3_3_16_19: t3_16_19 - x16_19 <= 0
tri4_3_16_19: t3_16_19 - x3_16 - x3_19 - x16_19 >= -2
tri1_3_16_20: t3_16_20 - x3_16 <= 0
tri2_3_16_20: t3_16_20 - x3_20 <= 0
tri3_3_16_20: t3_16_20 - x16_20 <= 0
tri4_3_16_20: t3_16_20 - x3_16 - x3_20 - x16_20 >= -2
tri1_3_16_21: t3_16_21 - x3_16 <= 0
tri2_3_16_21: t3_16_21 - x3_21 <= 0
tri3_3_16_21: t3_16_21 - x16_21 <= 0
tri4_3_16_21: t3_16_21 - x3_16 - x3_21 - x16_21 >= -2
tri1_3_17_18: t3_17_18 - x3_17 <= 0
tri2_3_17_18: t3_17_18 - x3_18 <= 0
tri3_3_17_18: t3_17_18 - x17_18 <= 0
tri4_3_17_18: t3_17_18 - x3_17 - x3_18 - x17_18 >= -2
tri1_3_17_19: t3_17_19 - x3_17 <= 0
tri2_3_17_19: t3_17_19 - x3_19 <= 0
tri3_3_17_19: t3_17_19 - x17_19 <= 0
tri4_3_17_19: t3_17_19 - x3_17 - x3_19 - x17_19 >= -2
tri1_3_17_20: t3_17_20 - x3_17 <= 0
tri2_3_17_20: t3_17_20 - x3_20 <= 0
tri3_3_17_20: t3_17_20 - x17_20 <= 0
tri4_3_17_20: t3_17_20 - x3_17 - x3_20 - x17_20 >= -2
tri1_3_17_21: t3_17_21 - x3_17 <= 0
tri2_3_17_21: t3_17_21 - x3_21 <= 0
tri3_3_17_21: t3_17_21 - x17_21 <= 0
tri4_3_17_21: t3_17_21 - x3_17 - x3_21 - x17_21 >= -2
tri1_3_18_19: t3_18_19 - x3_18 <= 0
tri2_3_18_19: t3_18_19 - x3_19 <= 0
tri3_3_18_19: t3_18_19 - x18_19 <= 0
tri4_3_18_19: t3_18_19 - x3_18 - x3_19 - x18_19 >= -2
tri1_3_18_20: t3_18_20 - x3_18 <= 0
tri2_3_18_20: t3_18_20 - x3_20 <= 0
tri3_3_18_20: t3_18_20 - x18_20 <= 0
tri4_3_18_20: t3_18_20 - x3_18 - x3_20 - x18_20 >= -2
tri1_3_18_21: t3_18_21 - x3_18 <= 0
tri2_3_18_21: t3_18_21 - x3_21 <= 0
tri3_3_18_21: t3_18_21 - x18_21 <= 0
tri4_3_18_21: t3_18_21 - x3_18 - x3_21 - x18_21 >= -2
tri1_3_19_20: t3_19_20 - x3_19 <= 0
tri2_3_19_20: t3_19_20 - x3_20 <= 0
tri3_3_19_20: t3_19_20 - x19_20 <= 0
tri4_3_19_20: t3_19_20 - x3_19 - x3_20 - x19_20 >= -2
tri1_3_19_21: t3_19_21 - x3_19 <= 0
tri2_3_19_21: t3_19_21 - x3_21 <= 0
tri3_3_19_21: t3_19_21 - x19_21 <= 0
tri4_3_19_21: t3_19_21 - x3_19 - x3_21 - x19_21 >= -2
tri1_3_20_21: t3_20_21 - x3_20 <= 0
tri2_3_20_21: t3_20_21 - x3_21 <= 0
tri3_3_20_21: t3_20_21 - x20_21 <= 0
tri4_3_20_21: t3_20_21 - x3_20 - x3_21 - x20_21 >= -2
tri1_4_5_6: t4_5_6 - x4_5 <= 0
tri2_4_5_6: t4_5_6 - x4_6 <= 0
tri3_4_5_6: t4_5_6 - x5_6 <= 0
tri4_4_5_6: t4_5_6 - x4_5 - x4_6 - x5_6 >= -2
tri1_4_5_7: t4_5_7 - x4_5 <= 0
tri2_4_5_7: t4_5_7 - x4_7 <= 0
tri3_4_5_7: t4_5_7 - x5_7 <= 0
tri4_4_5_7: t4_5_7 - x4_5 - x4_7 - x5_7 >= -2
tri1_4_5_8: t4_5_8 - x4_5 <= 0
tri2_4_5_8: t4_5_8 - x4_8 <= 0
tri3_4_5_8: t4_5_8 - x5_8 <= 0
tri4_4_5_8: t4_5_8 - x4_5 - x4_8 - x5_8 >= -2
tri1_4_5_9: t4_5_9 - x4_5 <= 0
tri2_4_5_9: t4_5_9 - x4_9 <= 0
tri3_4_5_9: t4_5_9 - x5_9 <= 0
tri4_4_5_9: t4_5_9 - x4_5 - x4_9 - x5_9 >= -2
tri1_4_5_10: t4_5_10 - x4_5 <= 0
tri2_4_5_10: t4_5_10 - x4_10 <= 0
tri3_4_5_10: t4_5_10 - x5_10 <= 0
tri4_4_5_10: t4_5_10 - x4_5 - x4_10 - x5_10 >= -2
tri1_4_5_11: t4_5_11 - x4_5 <= 0
tri2_4_5_11: t4_5_11 - x4_11 <= 0
tri3_4_5_11: t4_5_11 - x5_11 <= 0
tri4_4_5_11: t4_5_11 - x4_5 - x4_11 - x5_11 >= -2
tri1_4_5_12: t4_5_12 - x4_5 <= 0
tri2_4_5_12: t4_5_12 - x4_12 <= 0
tri3_4_5_12: t4_5_12 - x5_12 <= 0
tri4_4_5_12: t4_5_12 - x4_5 - x4_12 - x5_12 >= -2
tri1_4_5_13: t4_5_13 - x4_5 <= 0
tri2_4_5_13: t4_5_13 - x4_13 <= 0
tri3_4_5_13: t4_5_13 - x5_13 <= 0
tri4_4_5_13: t4_5_13 - x4_5 - x4_13 - x5_13 >= -2
tri1_4_5_14: t4_5_14 - x4_5 <= 0
tri2_4_5_14: t4_5_14 - x4_14 <= 0
tri3_4_5_14: t4_5_14 - x5_14 <= 0
tri4_4_5_14: t4_5_14 - x4_5 - x4_14 - x5_14 >= -2
tri1_4_5_15: t4_5_15 - x4_5 <= 0
tri2_4_5_15: t4_5_15 - x4_15 <= 0
tri3_4_5_15: t4_5_15 - x5_15 <= 0
tri4_4_5_15: t4_5_15 - x4_5 - x4_15 - x5_15 >= -2
tri1_4_5_16: t4_5_16 - x4_5 <= 0
tri2_4_5_16: t4_5_16 - x4_16 <= 0
tri3_4_5_16: t4_5_16 - x5_16 <= 0
tri4_4_5_16: t4_5_16 - x4_5 - x4_16 - x5_16 >= -2
tri1_4_5_17: t4_5_17 - x4_5 <= 0
tri2_4_5_17: t4_5_17 - x4_17 <= 0
tri3_4_5_17: t4_5_17 - x5_17 <= 0
tri4_4_5_17: t4_5_17 - x4_5 - x4_17 - x5_17 >= -2
tri1_4_5_18: t4_5_18 - x4_5 <= 0
tri2_4_5_18: t4_5_18 - x4_18 <= 0
tri3_4_5_18: t4_5_18 - x5_18 <= 0
tri4_4_5_18: t4_5_18 - x4_5 - x4_18 - x5_18 >= -2
tri1_4_5_19: t4_5_19 - x4_5 <= 0
tri2_4_5_19: t4_5_19 - x4_19 <= 0
tri3_4_5_19: t4_5_19 - x5_19 <= 0
tri4_4_5_19: t4_5_19 - x4_5 - x4_19 - x5_19 >= -2
tri1_4_5_20: t4_5_20 - x4_5 <= 0
tri2_4_5_20: t4_5_20 - x4_20 <= 0
tri3_4_5_20: t4_5_20 - x5_20 <= 0
tri4_4_5_20: t4_5_20 - x4_5 - x4_20 - x5_20 >= -2
tri1_4_5_21: t4_5_21 - x4_5 <= 0
tri2_4_5_21: t4_5_21 - x4_21 <= 0
tri3_4_5_21: t4_5_21 - x5_21 <= 0
tri4_4_5_21: t4_5_21 - x4_5 - x4_21 - x5_21 >= -2
tri1_4_6_7: t4_6_7 - x4_6 <= 0
tri2_4_6_7: t4_6_7 - x4_7 <= 0
tri3_4_6_7: t4_6_7 - x6_7 <= 0
tri4_4_6_7: t4_6_7 - x4_6 - x4_7 - x6_7 >= -2
tri1_4_6_8: t4_6_8 - x4_6 <= 0
tri2_4_6_8: t4_6_8 - x4_8 <= 0
tri3_4_6_8: t4_6_8 - x6_8 <= 0
tri4_4_6_8: t4_6_8 - x4_6 - x4_8 - x6_8 >= -2
tri1_4_6_9: t4_6_9 - x4_6 <= 0
tri2_4_6_9: t4_6_9 - x4_9 <= 0
tri3_4_6_9: t4_6_9 - x6_9 <= 0
tri4_4_6_9: t4_6_9 - x4_6 - x4_9 - x6_9 >= -2
tri1_4_6_10: t4_6_10 - x4_6 <= 0
tri2_4_6_10: t4_6_10 - x4_10 <= 0
tri3_4_6_10: t4_6_10 - x6_10 <= 0
tri4_4_6_10: t4_6_10 - x4_6 - x4_10 - x6_10 >= -2
tri1_4_6_11: t4_6_11 - x4_6 <= 0
tri2_4_6_11: t4_6_11 - x4_11 <= 0
tri3_4_6_11: t4_6_11 - x6_11 <= 0
tri4_4_6_11: t4_6_11 - x4_6 - x4_11 - x6_11 >= -2
tri1_4_6_12: t4_6_12 - x4_6 <= 0
tri2_4_6_12: t4_6_12 - x4_12 <= 0
tri3_4_6_12: t4_6_12 - x6_12 <= 0
tri4_4_6_12: t4_6_12 - x4_6 - x4_12 - x6_12 >= -2
tri1_4_6_13: t4_6_13 - x4_6 <= 0
tri2_4_6_13: t4_6_13 - x4_13 <= 0
tri3_4_6_13: t4_6_13 - x6_13 <= 0
tri4_4_6_13: t4_6_13 - x4_6 - x4_13 - x6_13 >= -2
tri1_4_6_14: t4_6_14 - x4_6 <= 0
tri2_4_6_14: t4_6_14 - x4_14 <= 0
tri3_4_6_14: t4_6_14 - x6_14 <= 0
tri4_4_6_14: t4_6_14 - x4_6 - x4_14 - x6_14 >= -2
tri1_4_6_15: t4_6_15 - x4_6 <= 0
tri2_4_6_15: t4_6_15 - x4_15 <= 0
tri3_4_6_15: t4_6_15 - x6_15 <= 0
tri4_4_6_15: t4_6_15 - x4_6 - x4_15 - x6_15 >= -2
tri1_4_6_16: t4_6_16 - x4_6 <= 0
tri2_4_6_16: t4_6_16 - x4_16 <= 0
tri3_4_6_16: t4_6_16 - x6_16 <= 0
tri4_4_6_16: t4_6_16 - x4_6 - x4_16 - x6_16 >= -2
tri1_4_6_17: t4_6_17 - x4_6 <= 0
tri2_4_6_17: t4_6_17 - x4_17 <= 0
tri3_4_6_17: t4_6_17 - x6_17 <= 0
tri4_4_6_17: t4_6_17 - x4_6 - x4_17 - x6_17 >= -2
tri1_4_6_18: t4_6_18 - x4_6 <= 0
tri2_4_6_18: t4_6_18 - x4_18 <= 0
tri3_4_6_18: t4_6_18 - x6_18 <= 0
tri4_4_6_18: t4_6_18 - x4_6 - x4_18 - x6_18 >= -2
tri1_4_6_19: t4_6_19 - x4_6 <= 0
tri2_4_6_19: t4_6_19 - x4_19 <= 0
tri3_4_6_19: t4_6_19 - x6_19 <= 0
tri4_4_6_19: t4_6_19 - x4_6 - x4_19 - x6_19 >= -2
tri1_4_6_20: t4_6_20 - x4_6 <= 0
tri2_4_6_20: t4_6_20 - x4_20 <= 0
tri3_4_6_20: t4_6_20 - x6_20 <= 0
tri4_4_6_20: t4_6_20 - x4_6 - x4_20 - x6_20 >= -2
tri1_4_6_21: t4_6_21 - x4_6 <= 0
tri2_4_6_21: t4_6_21 - x4_21 <= 0
tri3_4_6_21: t4_6_21 - x6_21 <= 0
tri4_4_6_21: t4_6_21 - x4_6 - x4_21 - x6_21 >= -2
tri1_4_7_8: t4_7_8 - x4_7 <= 0
tri2_4_7_8: t4_7_8 - x4_8 <= 0
tri3_4_7_8: t4_7_8 - x7_8 <= 0
tri4_4_7_8: t4_7_8 - x4_7 - x4_8 - x7_8 >= -2
tri1_4_7_9: t4_7_9 - x4_7 <= 0
tri2_4_7_9: t4_7_9 - x4_9 <= 0
tri3_4_7_9: t4_7_9 - x7_9 <= 0
tri4_4_7_9: t4_7_9 - x4_7 - x4_9 - x7_9 >= -2
tri1_4_7_10: t4_7_10 - x4_7 <= 0
tri2_4_7_10: t4_7_10 - x4_10 <= 0
tri3_4_7_10: t4_7_10 - x7_10 <= 0
tri4_4_7_10: t4_7_10 - x4_7 - x4_10 - x7_10 >= -2
tri1_4_7_11: t4_7_11 - x4_7 <= 0
tri2_4_7_11: t4_7_11 - x4_11 <= 0
tri3_4_7_11: t4_7_11 - x7_11 <= 0
tri4_4_7_11: t4_7_11 - x4_7 - x4_11 - x7_11 >= -2
tri1_4_7_12: t4_7_12 - x4_7 <= 0
tri2_4_7_12: t4_7_12 - x4_12 <= 0
tri3_4_7_12: t4_7_12 - x7_12 <= 0
tri4_4_7_12: t4_7_12 - x4_7 - x4_12 - x7_12 >= -2
tri1_4_7_13: t4_7_13 - x4_7 <= 0
tri2_4_7_13: t4_7_13 - x4_13 <= 0
tri3_4_7_13: t4_7_13 - x7_13 <= 0
tri4_4_7_13: t4_7_13 - x4_7 - x4_13 - x7_13 >= -2
tri1_4_7_14: t4_7_14 - x4_7 <= 0
tri2_4_7_14: t4_7_14 - x4_14 <= 0
tri3_4_7_14: t4_7_14 - x7_14 <= 0
tri4_4_7_14: t4_7_14 - x4_7 - x4_14 - x7_14 >= -2
tri1_4_7_15: t4_7_15 - x4_7 <= 0
tri2_4_7_15: t4_7_15 - x4_15 <= 0
tri3_4_7_15: t4_7_15 - x7_15 <= 0
tri4_4_7_15: t4_7_15 - x4_7 - x4_15 - x7_15 >= -2
tri1_4_7_16: t4_7_16 - x4_7 <= 0
tri2_4_7_16: t4_7_16 - x4_16 <= 0
tri3_4_7_16: t4_7_16 - x7_16 <= 0
tri4_4_7_16: t4_7_16 - x4_7 - x4_16 - x7_16 >= -2
tri1_4_7_17: t4_7_17 - x4_7 <= 0
tri2_4_7_17: t4_7_17 - x4_17 <= 0
tri3_4_7_17: t4_7_17 - x7_17 <= 0
tri4_4_7_17: t4_7_17 - x4_7 - x4_17 - x7_17 >= -2
tri1_4_7_18: t4_7_18 - x4_7 <= 0
tri2_4_7_18: t4_7_18 - x4_18 <= 0
tri3_4_7_18: t4_7_18 - x7_18 <= 0
tri4_4_7_18: t4_7_18 - x4_7 - x4_18 - x7_18 >= -2
tri1_4_7_19: t4_7_19 - x4_7 <= 0
tri2_4_7_19: t4_7_19 - x4_19 <= 0
tri3_4_7_19: t4_7_19 - x7_19 <= 0
tri4_4_7_19: t4_7_19 - x4_7 - x4_19 - x7_19 >= -2
tri1_4_7_20: t4_7_20 - x4_7 <= 0
tri2_4_7_20: t4_7_20 - x4_20 <= 0
tri3_4_7_20: t4_7_20 - x7_20 <= 0
tri4_4_7_20: t4_7_20 - x4_7 - x4_20 - x7_20 >= -2
tri1_4_7_21: t4_7_21 - x4_7 <= 0
tri2_4_7_21: t4_7_21 - x4_21 <= 0
tri3_4_7_21: t4_7_21 - x7_21 <= 0
tri4_4_7_21: t4_7_21 - x4_7 - x4_21 - x7_21 >= -2
tri1_4_8_9: t4_8_9 - x4_8 <= 0
tri2_4_8_9: t4_8_9 - x4_9 <= 0
tri3_4_8_9: t4_8_9 - x8_9 <= 0
tri4_4_8_9: t4_8_9 - x4_8 - x4_9 - x8_9 >= -2
tri1_4_8_10: t4_8_10 - x4_8 <= 0
tri2_4_8_10: t4_8_10 - x4_10 <= 0
tri3_4_8_10: t4_8_10 - x8_10 <= 0
tri4_4_8_10: t4_8_10 - x4_8 - x4_10 - x8_10 >= -2
tri1_4_8_11: t4_8_11 - x4_8 <= 0
tri2_4_8_11: t4_8_11 - x4_11 <= 0
tri3_4_8_11: t4_8_11 - x8_11 <= 0
tri4_4_8_11: t4_8_11 - x4_8 - x4_11 - x8_11 >= -2
tri1_4_8_12: t4_8_12 - x4_8 <= 0
tri2_4_8_12: t4_8_12 - x4_12 <= 0
tri3_4_8_12: t4_8_12 - x8_12 <= 0
tri4_4_8_12: t4_8_12 - x4_8 - x4_12 - x8_12 >= -2
tri1_4_8_13: t4_8_13 - x4_8 <= 0
tri2_4_8_13: t4_8_13 - x4_13 <= 0
tri3_4_8_13: t4_8_13 - x8_13 <= 0
tri4_4_8_13: t4_8_13 - x4_8 - x4_13 - x8_13 >= -2
tri1_4_8_14: t4_8_14 - x4_8 <= 0
tri2_4_8_14: t4_8_14 - x4_14 <= 0
tri3_4_8_14: t4_8_14 - x8_14 <= 0
tri4_4_8_14: t4_8_14 - x4_8 - x4_14 - x8_14 >= -2
tri1_4_8_15: t4_8_15 - x4_8 <= 0
tri2_4_8_15: t4_8_15 - x4_15 <= 0
tri3_4_8_15: t4_8_15 - x8_15 <= 0
tri4_4_8_15: t4_8_15 - x4_8 - x4_15 - x8_15 >= -2
tri1_4_8_16: t4_8_16 - x4_8 <= 0
tri2_4_8_16: t4_8_16 - x4_16 <= 0
tri3_4_8_16: t4_8_16 - x8_16 <= 0
tri4_4_8_16: t4_8_16 - x4_8 - x4_16 - x8_16 >= -2
tri1_4_8_17: t4_8_17 - x4_8 <= 0
tri2_4_8_17: t4_8_17 - x4_17 <= 0
tri3_4_8_17: t4_8_17 - x8_17 <= 0
tri4_4_8_17: t4_8_17 - x4_8 - x4_17 - x8_17 >= -2
tri1_4_8_18: t4_8_18 - x4_8 <= 0
tri2_4_8_18: t4_8_18 - x4_18 <= 0
tri3_4_8_18: t4_8_18 - x8_18 <= 0
tri4_4_8_18: t4_8_18 - x4_8 - x4_18 - x8_18 >= -2
tri1_4_8_19: t4_8_19 - x4_8 <= 0
tri2_4_8_19: t4_8_19 - x4_19 <= 0
tri3_4_8_19: t4_8_19 - x8_19 <= 0
tri4_4_8_19: t4_8_19 - x4_8 - x4_19 - x8_19 >= -2
tri1_4_8_20: t4_8_20 - x4_8 <= 0
tri2_4_8_20: t4_8_20 - x4_20 <= 0
tri3_4_8_20: t4_8_20 - x8_20 <= 0
tri4_4_8_20: t4_8_20 - x4_8 - x4_20 - x8_20 >= -2
tri1_4_8_21: t4_8_21 - x4_8 <= 0
tri2_4_8_21: t4_8_21 - x4_21 <= 0
tri3_4_8_21: t4_8_21 - x8_21 <= 0
tri4_4_8_21: t4_8_21 - x4_8 - x4_21 - x8_21 >= -2
tri1_4_9_10: t4_9_10 - x4_9 <= 0
tri2_4_9_10: t4_9_10 - x4_10 <= 0
tri3_4_9_10: t4_9_10 - x9_10 <= 0
tri4_4_9_10: t4_9_10 - x4_9 - x4_10 - x9_10 >= -2
tri1_4_9_11: t4_9_11 - x4_9 <= 0
tri2_4_9_11: t4_9_11 - x4_11 <= 0
tri3_4_9_11: t4_9_11 - x9_11 <= 0
tri4_4_9_11: t4_9_11 - x4_9 - x4_11 - x9_11 >= -2
tri1_4_9_12: t4_9_12 - x4_9 <= 0
tri2_4_9_12: t4_9_12 - x4_12 <= 0
tri3_4_9_12: t4_9_12 - x9_12 <= 0
tri4_4_9_12: t4_9_12 - x4_9 - x4_12 - x9_12 >= -2
tri1_4_9_13: t4_9_13 - x4_9 <= 0
tri2_4_9_13: t4_9_13 - x4_13 <= 0
tri3_4_9_13: t4_9_13 - x9_13 <= 0
tri4_4_9_13: t4_9_13 - x4_9 - x4_13 - x9_13 >= -2
tri1_4_9_14: t4_9_14 - x4_9 <= 0
tri2_4_9_14: t4_9_14 - x4_14 <= 0
tri3_4_9_14: t4_9_14 - x9_14 <= 0
tri4_4_9_14: t4_9_14 - x4_9 - x4_14 - x9_14 >= -2
tri1_4_9_15: t4_9_15 - x4_9 <= 0
tri2_4_9_15: t4_9_15 - x4_15 <= 0
tri3_4_9_15: t4_9_15 - x9_15 <= 0
tri4_4_9_15: t4_9_15 - x4_9 - x4_15 - x9_15 >= -2
tri1_4_9_16: t4_9_16 - x4_9 <= 0
tri2_4_9_16: t4_9_16 - x4_16 <= 0
tri3_4_9_16: t4_9_16 - x9_16 <= 0
tri4_4_9_16: t4_9_16 - x4_9 - x4_16 - x9_16 >= -2
tri1_4_9_17: t4_9_17 - x4_9 <= 0
tri2_4_9_17: t4_9_17 - x4_17 <= 0
tri3_4_9_17: t4_9_17 - x9_17 <= 0
tri4_4_9_17: t4_9_17 - x4_9 - x4_17 - x9_17 >= -2
tri1_4_9_18: t4_9_18 - x4_9 <= 0
tri2_4_9_18: t4_9_18 - x4_18 <= 0
tri3_4_9_18: t4_9_18 - x9_18 <= 0
tri4_4_9_18: t4_9_18 - x4_9 - x4_18 - x9_18 >= -2
tri1_4_9_19: t4_9_19 - x4_9 <= 0
tri2_4_9_19: t4_9_19 - x4_19 <= 0
tri3_4_9_19: t4_9_19 - x9_19 <= 0
tri4_4_9_19: t4_9_19 - x4_9 - x4_19 - x9_19 >= -2
tri1_4_9_20: t4_9_20 - x4_9 <= 0
tri2_4_9_20: t4_9_20 - x4_20 <= 0
tri3_4_9_20: t4_9_20 - x9_20 <= 0
tri4_4_9_20: t4_9_20 - x4_9 - x4_20 - x9_20 >= -2
tri1_4_9_21: t4_9_21 - x4_9 <= 0
tri2_4_9_21: t4_9_21 - x4_21 <= 0
tri3_4_9_21: t4_9_21 - x9_21 <= 0
tri4_4_9_21: t4_9_21 - x4_9 - x4_21 - x9_21 >= -2
tri1_4_10_11: t4_10_11 - x4_10 <= 0
tri2_4_10_11: t4_10_11 - x4_11 <= 0
tri3_4_10_11: t4_10_11 - x10_11 <= 0
tri4_4_10_11: t4_10_11 - x4_10 - x4_11 - x10_11 >= -2
tri1_4_10_12: t4_10_12 - x4_10 <= 0
tri2_4_10_12: t4_10_12 - x4_12 <= 0
tri3_4_10_12: t4_10_12 - x10_12 <= 0
tri4_4_10_12: t4_10_12 - x4_10 - x4_12 - x10_12 >= -2
tri1_4_10_13: t4_10_13 - x4_10 <= 0
tri2_4_10_13: t4_10_13 - x4_13 <= 0
tri3_4_10_13: t4_10_13 - x10_13 <= 0
tri4_4_10_13: t4_10_13 - x4_10 - x4_13 - x10_13 >= -2
tri1_4_10_14: t4_10_14 - x4_10 <= 0
tri2_4_10_14: t4_10_14 - x4_14 <= 0
tri3_4_10_14: t4_10_14 - x10_14 <= 0
tri4_4_10_14: t4_10_14 - x4_10 - x4_14 - x10_14 >= -2
tri1_4_10_15: t4_10_15 - x4_10 <= 0
tri2_4_10_15: t4_10_15 - x4_15 <= 0
tri3_4_10_15: t4_10_15 - x10_15 <= 0
tri4_4_10_15: t4_10_15 - x4_10 - x4_15 - x10_15 >= -2
tri1_4_10_16: t4_10_16 - x4_10 <= 0
tri2_4_10_16: t4_10_16 - x4_16 <= 0
tri3_4_10_16: t4_10_16 - x10_16 <= 0
tri4_4_10_16: t4_10_16 - x4_10 - x4_16 - x10_16 >= -2
tri1_4_10_17: t4_10_17 - x4_10 <= 0
tri2_4_10_17: t4_10_17 - x4_17 <= 0
tri3_4_10_17: t4_10_17 - x10_17 <= 0
tri4_4_10_17: t4_10_17 - x4_10 - x4_17 - x10_17 >= -2
tri1_4_10_18: t4_10_18 - x4_10 <= 0
tri2_4_10_18: t4_10_18 - x4_18 <= 0
tri3_4_10_18: t4_10_18 - x10_18 <= 0
tri4_4_10_18: t4_10_18 - x4_10 - x4_18 - x10_18 >= -2
tri1_4_10_19: t4_10_19 - x4_10 <= 0
tri2_4_10_19: t4_10_19 - x4_19 <= 0
tri3_4_10_19: t4_10_19 - x10_19 <= 0
tri4_4_10_19: t4_10_19 - x4_10 - x4_19 - x10_19 >= -2
tri1_4_10_20: t4_10_20 - x4_10 <= 0
tri2_4_10_20: t4_10_20 - x4_20 <= 0
tri3_4_10_20: t4_10_20 - x10_20 <= 0
tri4_4_10_20: t4_10_20 - x4_10 - x4_20 - x10_20 >= -2
tri1_4_10_21: t4_10_21 - x4_10 <= 0
tri2_4_10_21: t4_10_21 - x4_21 <= 0
tri3_4_10_21: t4_10_21 - x10_21 <= 0
tri4_4_10_21: t4_10_21 - x4_10 - x4_21 - x10_21 >= -2
tri1_4_11_12: t4_11_12 - x4_11 <= 0
tri2_4_11_12: t4_11_12 - x4_12 <= 0
tri3_4_11_12: t4_11_12 - x11_12 <= 0
tri4_4_11_12: t4_11_12 - x4_11 - x4_12 - x11_12 >= -2
tri1_4_11_13: t4_11_13 - x4_11 <= 0
tri2_4_11_13: t4_11_13 - x4_13 <= 0
tri3_4_11_13: t4_11_13 - x11_13 <= 0
tri4_4_11_13: t4_11_13 - x4_11 - x4_13 - x11_13 >= -2
tri1_4_11_14: t4_11_14 - x4_11 <= 0
tri2_4_11_14: t4_11_14 - x4_14 <= 0
tri3_4_11_14: t4_11_14 - x11_14 <= 0
tri4_4_11_14: t4_11_14 - x4_11 - x4_14 - x11_14 >= -2
tri1_4_11_15: t4_11_15 - x4_11 <= 0
tri2_4_11_15: t4_11_15 - x4_15 <= 0
tri3_4_11_15: t4_11_15 - x11_15 <= 0
tri4_4_11_15: t4_11_15 - x4_11 - x4_15 - x11_15 >= -2
tri1_4_11_16: t4_11_16 - x4_11 <= 0
tri2_4_11_16: t4_11_16 - x4_16 <= 0
tri3_4_11_16: t4_11_16 - x11_16 <= 0
tri4_4_11_16: t4_11_16 - x4_11 - x4_16 - x11_16 >= -2
tri1_4_11_17: t4_11_17 - x4_11 <= 0
tri2_4_11_17: t4_11_17 - x4_17 <= 0
tri3_4_11_17: t4_11_17 - x11_17 <= 0
tri4_4_11_17: t4_11_17 - x4_11 - x4_17 - x11_17 >= -2
tri1_4_11_18: t4_11_18 - x4_11 <= 0
tri2_4_11_18: t4_11_18 - x4_18 <= 0
tri3_4_11_18: t4_11_18 - x11_18 <= 0
tri4_4_11_18: t4_11_18 - x4_11 - x4_18 - x11_18 >= -2
tri1_4_11_19: t4_11_19 - x4_11 <= 0
tri2_4_11_19: t4_11_19 - x4_19 <= 0
tri3_4_11_19: t4_11_19 - x11_19 <= 0
tri4_4_11_19: t4_11_19 - x4_11 - x4_19 - x11_19 >= -2
tri1_4_11_20: t4_11_20 - x4_11 <= 0
tri2_4_11_20: t4_11_20 - x4_20 <= 0
tri3_4_11_20: t4_11_20 - x11_20 <= 0
tri4_4_11_20: t4_11_20 - x4_11 - x4_20 - x11_20 >= -2
tri1_4_11_21: t4_11_21 - x4_11 <= 0
tri2_4_11_21: t4_11_21 - x4_21 <= 0
tri3_4_11_21: t4_11_21 - x11_21 <= 0
tri4_4_11_21: t4_11_21 - x4_11 - x4_21 - x11_21 >= -2
tri1_4_12_13: t4_12_13 - x4_12 <= 0
tri2_4_12_13: t4_12_13 - x4_13 <= 0
tri3_4_12_13: t4_12_13 - x12_13 <= 0
tri4_4_12_13: t4_12_13 - x4_12 - x4_13 - x12_13 >= -2
tri1_4_12_14: t4_12_14 - x4_12 <= 0
tri2_4_12_14: t4_12_14 - x4_14 <= 0
tri3_4_12_14: t4_12_14 - x12_14 <= 0
tri4_4_12_14: t4_12_14 - x4_12 - x4_14 - x12_14 >= -2
tri1_4_12_15: t4_12_15 - x4_12 <= 0
tri2_4_12_15: t4_12_15 - x4_15 <= 0
tri3_4_12_15: t4_12_15 - x12_15 <= 0
tri4_4_12_15: t4_12_15 - x4_12 - x4_15 - x12_15 >= -2
tri1_4_12_16: t4_12_16 - x4_12 <= 0
tri2_4_12_16: t4_12_16 - x4_16 <= 0
tri3_4_12_16: t4_12_16 - x12_16 <= 0
tri4_4_12_16: t4_12_16 - x4_12 - x4_16 - x12_16 >= -2
tri1_4_12_17: t4_12_17 - x4_12 <= 0
tri2_4_12_17: t4_12_17 - x4_17 <= 0
tri3_4_12_17: t4_12_17 - x12_17 <= 0
tri4_4_12_17: t4_12_17 - x4_12 - x4_17 - x12_17 >= -2
tri1_4_12_18: t4_12_18 - x4_12 <= 0
tri2_4_12_18: t4_12_18 - x4_18 <= 0
tri3_4_12_18: t4_12_18 - x12_18 <= 0
tri4_4_12_18: t4_12_18 - x4_12 - x4_18 - x12_18 >= -2
tri1_4_12_19: t4_12_19 - x4_12 <= 0
tri2_4_12_19: t4_12_19 - x4_19 <= 0
tri3_4_12_19: t4_12_19 - x12_19 <= 0
tri4_4_12_19: t4_12_19 - x4_12 - x4_19 - x12_19 >= -2
tri1_4_12_20: t4_12_20 - x4_12 <= 0
tri2_4_12_20: t4_12_20 - x4_20 <= 0
tri3_4_12_20: t4_12_20 - x12_20 <= 0
tri4_4_12_20: t4_12_20 - x4_12 - x4_20 - x12_20 >= -2
tri1_4_12_21: t4_12_21 - x4_12 <= 0
tri2_4_12_21: t4_12_21 - x4_21 <= 0
tri3_4_12_21: t4_12_21 - x12_21 <= 0
tri4_4_12_21: t4_12_21 - x4_12 - x4_21 - x12_21 >= -2
tri1_4_13_14: t4_13_14 - x4_13 <= 0
tri2_4_13_14: t4_13_14 - x4_14 <= 0
tri3_4_13_14: t4_13_14 - x13_14 <= 0
tri4_4_13_14: t4_13_14 - x4_13 - x4_14 - x13_14 >= -2
tri1_4_13_15: t4_13_15 - x4_13 <= 0
tri2_4_13_15: t4_13_15 - x4_15 <= 0
tri3_4_13_15: t4_13_15 - x13_15 <= 0
tri4_4_13_15: t4_13_15 - x4_13 - x4_15 - x13_15 >= -2
tri1_4_13_16: t4_13_16 - x4_13 <= 0
tri2_4_13_16: t4_13_16 - x4_16 <= 0
tri3_4_13_16: t4_13_16 - x13_16 <= 0
tri4_4_13_16: t4_13_16 - x4_13 - x4_16 - x13_16 >= -2
tri1_4_13_17: t4_13_17 - x4_13 <= 0
tri2_4_13_17: t4_13_17 - x4_17 <= 0
tri3_4_13_17: t4_13_17 - x13_17 <= 0
tri4_4_13_17: t4_13_17 - x4_13 - x4_17 - x13_17 >= -2
tri1_4_13_18: t4_13_18 - x4_13 <= 0
tri2_4_13_18: t4_13_18 - x4_18 <= 0
tri3_4_13_18: t4_13_18 - x13_18 <= 0
tri4_4_13_18: t4_13_18 - x4_13 - x4_18 - x13_18 >= -2
tri1_4_13_19: t4_13_19 - x4_13 <= 0
tri2_4_13_19: t4_13_19 - x4_19 <= 0
tri3_4_13_19: t4_13_19 - x13_19 <= 0
tri4_4_13_19: t4_13_19 - x4_13 - x4_19 - x13_19 >= -2
tri1_4_13_20: t4_13_20 - x4_13 <= 0
tri2_4_13_20: t4_13_20 - x4_20 <= 0
tri3_4_13_20: t4_13_20 - x13_20 <= 0
tri4_4_13_20: t4_13_20 - x4_13 - x4_20 - x13_20 >= -2
tri1_4_13_21: t4_13_21 - x4_13 <= 0
tri2_4_13_21: t4_13_21 - x4_21 <= 0
tri3_4_13_21: t4_13_21 - x13_21 <= 0
tri4_4_13_21: t4_13_21 - x4_13 - x4_21 - x13_21 >= -2
tri1_4_14_15: t4_14_15 - x4_14 <= 0
tri2_4_14_15: t4_14_15 - x4_15 <= 0
tri3_4_14_15: t4_14_15 - x14_15 <= 0
tri4_4_14_15: t4_14_15 - x4_14 - x4_15 - x14_15 >= -2
tri1_4_14_16: t4_14_16 - x4_14 <= 0
tri2_4_14_16: t4_14_16 - x4_16 <= 0
tri3_4_14_16: t4_14_16 - x14_16 <= 0
tri4_4_14_16: t4_14_16 - x4_14 - x4_16 - x14_16 >= -2
tri1_4_14_17: t4_14_17 - x4_14 <= 0
tri2_4_14_17: t4_14_17 - x4_17 <= 0
tri3_4_14_17: t4_14_17 - x14_17 <= 0
tri4_4_14_17: t4_14_17 - x4_14 - x4_17 - x14_17 >= -2
tri1_4_14_18: t4_14_18 - x4_14 <= 0
tri2_4_14_18: t4_14_18 - x4_18 <= 0
tri3_4_14_18: t4_14_18 - x14_18 <= 0
tri4_4_14_18: t4_14_18 - x4_14 - x4_18 - x14_18 >= -2
tri1_4_14_19: t4_14_19 - x4_14 <= 0
tri2_4_14_19: t4_14_19 - x4_19 <= 0
tri3_4_14_19: t4_14_19 - x14_19 <= 0
tri4_4_14_19: t4_14_19 - x4_14 - x4_19 - x14_19 >= -2
tri1_4_14_20: t4_14_20 - x4_14 <= 0
tri2_4_14_20: t4_14_20 - x4_20 <= 0
tri3_4_14_20: t4_14_20 - x14_20 <= 0
tri4_4_14_20: t4_14_20 - x4_14 - x4_20 - x14_20 >= -2
tri1_4_14_21: t4_14_21 - x4_14 <= 0
tri2_4_14_21: t4_14_21 - x4_21 <= 0
tri3_4_14_21: t4_14_21 - x14_21 <= 0
tri4_4_14_21: t4_14_21 - x4_14 - x4_21 - x14_21 >= -2
tri1_4_15_16: t4_15_16 - x4_15 <= 0
tri2_4_15_16: t4_15_16 - x4_16 <= 0
tri3_4_15_16: t4_15_16 - x15_16 <= 0
tri4_4_15_16: t4_15_16 - x4_15 - x4_16 - x15_16 >= -2
tri1_4_15_17: t4_15_17 - x4_15 <= 0
tri2_4_15_17: t4_15_17 - x4_17 <= 0
tri3_4_15_17: t4_15_17 - x15_17 <= 0
tri4_4_15_17: t4_15_17 - x4_15 - x4_17 - x15_17 >= -2
tri1_4_15_18: t4_15_18 - x4_15 <= 0
tri2_4_15_18: t4_15_18 - x4_18 <= 0
tri3_4_15_18: t4_15_18 - x15_18 <= 0
tri4_4_15_18: t4_15_18 - x4_15 - x4_18 - x15_18 >= -2
tri1_4_15_19: t4_15_19 - x4_15 <= 0
tri2_4_15_19: t4_15_19 - x4_19 <= 0
tri3_4_15_19: t4_15_19 - x15_19 <= 0
tri4_4_15_19: t4_15_19 - x4_15 - x4_19 - x15_19 >= -2
tri1_4_15_20: t4_15_20 - x4_15 <= 0
tri2_4_15_20: t4_15_20 - x4_20 <= 0
tri3_4_15_20: t4_15_20 - x15_20 <= 0
tri4_4_15_20: t4_15_20 - x4_15 - x4_20 - x15_20 >= -2
tri1_4_15_21: t4_15_21 - x4_15 <= 0
tri2_4_15_21: t4_15_21 - x4_21 <= 0
tri3_4_15_21: t4_15_21 - x15_21 <= 0
tri4_4_15_21: t4_15_21 - x4_15 - x4_21 - x15_21 >= -2
tri1_4_16_17: t4_16_17 - x4_16 <= 0
tri2_4_16_17: t4_16_17 - x4_17 <= 0
tri3_4_16_17: t4_16_17 - x16_17 <= 0
tri4_4_16_17: t4_16_17 - x4_16 - x4_17 - x16_17 >= -2
tri1_4_16_18: t4_16_18 - x4_16 <= 0
tri2_4_16_18: t4_16_18 - x4_18 <= 0
tri3_4_16_18: t4_16_18 - x16_18 <= 0
tri4_4_16_18: t4_16_18 - x4_16 - x4_18 - x16_18 >= -2
tri1_4_16_19: t4_16_19 - x4_16 <= 0
tri2_4_16_19: t4_16_19 - x4_19 <= 0
tri3_4_16_19: t4_16_19 - x16_19 <= 0
tri4_4_16_19: t4_16_19 - x4_16 - x4_19 - x16_19 >= -2
tri1_4_16_20: t4_16_20 - x4_16 <= 0
tri2_4_16_20: t4_16_20 - x4_20 <= 0
tri3_4_16_20: t4_16_20 - x16_20 <= 0
tri4_4_16_20: t4_16_20 - x4_16 - x4_20 - x16_20 >= -2
tri1_4_16_21: t4_16_21 - x4_16 <= 0
tri2_4_16_21: t4_16_21 - x4_21 <= 0
tri3_4_16_21: t4_16_21 - x16_21 <= 0
tri4_4_16_21: t4_16_21 - x4_16 - x4_21 - x16_21 >= -2
tri1_4_17_18: t4_17_18 - x4_17 <= 0
tri2_4_17_18: t4_17_18 - x4_18 <= 0
tri3_4_17_18: t4_17_18 - x17_18 <= 0
tri4_4_17_18: t4_17_18 - x4_17 - x4_18 - x17_18 >= -2
tri1_4_17_19: t4_17_19 - x4_17 <= 0
tri2_4_17_19: t4_17_19 - x4_19 <= 0
tri3_4_17_19: t4_17_19 - x17_19 <= 0
tri4_4_17_19: t4_17_19 - x4_17 - x4_19 - x17_19 >= -2
tri1_4_17_20: t4_17_20 - x4_17 <= 0
tri2_4_17_20: t4_17_20 - x4_20 <= 0
tri3_4_17_20: t4_17_20 - x17_20 <= 0
tri4_4_17_20: t4_17_20 - x4_17 - x4_20 - x17_20 >= -2
tri1_4_17_21: t4_17_21 - x4_17 <= 0
tri2_4_17_21: t4_17_21 - x4_21 <= 0
tri3_4_17_21: t4_17_21 - x17_21 <= 0
tri4_4_17_21: t4_17_21 - x4_17 - x4_21 - x17_21 >= -2
tri1_4_18_19: t4_18_19 - x4_18 <= 0
tri2_4_18_19: t4_18_19 - x4_19 <= 0
tri3_4_18_19: t4_18_19 - x18_19 <= 0
tri4_4_18_19: t4_18_19 - x4_18 - x4_19 - x18_19 >= -2
tri1_4_18_20: t4_18_20 - x4_18 <= 0
tri2_4_18_20: t4_18_20 - x4_20 <= 0
tri3_4_18_20: t4_18_20 - x18_20 <= 0
tri4_4_18_20: t4_18_20 - x4_18 - x4_20 - x18_20 >= -2
tri1_4_18_21: t4_18_21 - x4_18 <= 0
tri2_4_18_21: t4_18_21 - x4_21 <= 0
tri3_4_18_21: t4_18_21 - x18_21 <= 0
tri4_4_18_21: t4_18_21 - x4_18 - x4_21 - x18_21 >= -2
tri1_4_19_20: t4_19_20 - x4_19 <= 0
tri2_4_19_20: t4_19_20 - x4_20 <= 0
tri3_4_19_20: t4_19_20 - x19_20 <= 0
tri4_4_19_20: t4_19_20 - x4_19 - x4_20 - x19_20 >= -2
tri1_4_19_21: t4_19_21 - x4_19 <= 0
tri2_4_19_21: t4_19_21 - x4_21 <= 0
tri3_4_19_21: t4_19_21 - x19_21 <= 0
tri4_4_19_21: t4_19_21 - x4_19 - x4_21 - x19_21 >= -2
tri1_4_20_21: t4_20_21 - x4_20 <= 0
tri2_4_20_21: t4_20_21 - x4_21 <= 0
tri3_4_20_21: t4_20_21 - x20_21 <= 0
tri4_4_20_21: t4_20_21 - x4_20 - x4_21 - x20_21 >= -2
tri1_5_6_7: t5_6_7 - x5_6 <= 0
tri2_5_6_7: t5_6_7 - x5_7 <= 0
tri3_5_6_7: t5_6_7 - x6_7 <= 0
tri4_5_6_7: t5_6_7 - x5_6 - x5_7 - x6_7 >= -2
tri1_5_6_8: t5_6_8 - x5_6 <= 0
tri2_5_6_8: t5_6_8 - x5_8 <= 0
tri3_5_6_8: t5_6_8 - x6_8 <= 0
tri4_5_6_8: t5_6_8 - x5_6 - x5_8 - x6_8 >= -2
tri1_5_6_9: t5_6_9 - x5_6 <= 0
tri2_5_6_9: t5_6_9 - x5_9 <= 0
tri3_5_6_9: t5_6_9 - x6_9 <= 0
tri4_5_6_9: t5_6_9 - x5_6 - x5_9 - x6_9 >= -2
tri1_5_6_10: t5_6_10 - x5_6 <= 0
tri2_5_6_10: t5_6_10 - x5_10 <= 0
tri3_5_6_10: t5_6_10 - x6_10 <= 0
tri4_5_6_10: t5_6_10 - x5_6 - x5_10 - x6_10 >= -2
tri1_5_6_11: t5_6_11 - x5_6 <= 0
tri2_5_6_11: t5_6_11 - x5_11 <= 0
tri3_5_6_11: t5_6_11 - x6_11 <= 0
tri4_5_6_11: t5_6_11 - x5_6 - x5_11 - x6_11 >= -2
tri1_5_6_12: t5_6_12 - x5_6 <= 0
tri2_5_6_12: t5_6_12 - x5_12 <= 0
tri3_5_6_12: t5_6_12 - x6_12 <= 0
tri4_5_6_12: t5_6_12 - x5_6 - x5_12 - x6_12 >= -2
tri1_5_6_13: t5_6_13 - x5_6 <= 0
tri2_5_6_13: t5_6_13 - x5_13 <= 0
tri3_5_6_13: t5_6_13 - x6_13 <= 0
tri4_5_6_13: t5_6_13 - x5_6 - x5_13 - x6_13 >= -2
tri1_5_6_14: t5_6_14 - x5_6 <= 0
tri2_5_6_14: t5_6_14 - x5_14 <= 0
tri3_5_6_14: t5_6_14 - x6_14 <= 0
tri4_5_6_14: t5_6_14 - x5_6 - x5_14 - x6_14 >= -2
tri1_5_6_15: t5_6_15 - x5_6 <= 0
tri2_5_6_15: t5_6_15 - x5_15 <= 0
tri3_5_6_15: t5_6_15 - x6_15 <= 0
tri4_5_6_15: t5_6_15 - x5_6 - x5_15 - x6_15 >= -2
tri1_5_6_16: t5_6_16 - x5_6 <= 0
tri2_5_6_16: t5_6_16 - x5_16 <= 0
tri3_5_6_16: t5_6_16 - x6_16 <= 0
tri4_5_6_16: t5_6_16 - x5_6 - x5_16 - x6_16 >= -2
tri1_5_6_17: t5_6_17 - x5_6 <= 0
tri2_5_6_17: t5_6_17 - x5_17 <= 0
tri3_5_6_17: t5_6_17 - x6_17 <= 0
tri4_5_6_17: t5_6_17 - x5_6 - x5_17 - x6_17 >= -2
tri1_5_6_18: t5_6_18 - x5_6 <= 0
tri2_5_6_18: t5_6_18 - x5_18 <= 0
tri3_5_6_18: t5_6_18 - x6_18 <= 0
tri4_5_6_18: t5_6_18 - x5_6 - x5_18 - x6_18 >= -2
tri1_5_6_19: t5_6_19 - x5_6 <= 0
tri2_5_6_19: t5_6_19 - x5_19 <= 0
tri3_5_6_19: t5_6_19 - x6_19 <= 0
tri4_5_6_19: t5_6_19 - x5_6 - x5_19 - x6_19 >= -2
tri1_5_6_20: t5_6_20 - x5_6 <= 0
tri2_5_6_20: t5_6_20 - x5_20 <= 0
tri3_5_6_20: t5_6_20 - x6_20 <= 0
tri4_5_6_20: t5_6_20 - x5_6 - x5_20 - x6_20 >= -2
tri1_5_6_21: t5_6_21 - x5_6 <= 0
tri2_5_6_21: t5_6_21 - x5_21 <= 0
tri3_5_6_21: t5_6_21 - x6_21 <= 0
tri4_5_6_21: t5_6_21 - x5_6 - x5_21 - x6_21 >= -2
tri1_5_7_8: t5_7_8 - x5_7 <= 0
tri2_5_7_8: t5_7_8 - x5_8 <= 0
tri3_5_7_8: t5_7_8 - x7_8 <= 0
tri4_5_7_8: t5_7_8 - x5_7 - x5_8 - x7_8 >= -2
tri1_5_7_9: t5_7_9 - x5_7 <= 0
tri2_5_7_9: t5_7_9 - x5_9 <= 0
tri3_5_7_9: t5_7_9 - x7_9 <= 0
tri4_5_7_9: t5_7_9 - x5_7 - x5_9 - x7_9 >= -2
tri1_5_7_10: t5_7_10 - x5_7 <= 0
tri2_5_7_10: t5_7_10 - x5_10 <= 0
tri3_5_7_10: t5_7_10 - x7_10 <= 0
tri4_5_7_10: t5_7_10 - x5_7 - x5_10 - x7_10 >= -2
tri1_5_7_11: t5_7_11 - x5_7 <= 0
tri2_5_7_11: t5_7_11 - x5_11 <= 0
tri3_5_7_11: t5_7_11 - x7_11 <= 0
tri4_5_7_11: t5_7_11 - x5_7 - x5_11 - x7_11 >= -2
tri1_5_7_12: t5_7_12 - x5_7 <= 0
tri2_5_7_12: t5_7_12 - x5_12 <= 0
tri3_5_7_12: t5_7_12 - x7_12 <= 0
tri4_5_7_12: t5_7_12 - x5_7 - x5_12 - x7_12 >= -2
tri1_5_7_13: t5_7_13 - x5_7 <= 0
tri2_5_7_13: t5_7_13 - x5_13 <= 0
tri3_5_7_13: t5_7_13 - x7_13 <= 0
tri4_5_7_13: t5_7_13 - x5_7 - x5_13 - x7_13 >= -2
tri1_5_7_14: t5_7_14 - x5_7 <= 0
tri2_5_7_14: t5_7_14 - x5_14 <= 0
tri3_5_7_14: t5_7_14 - x7_14 <= 0
tri4_5_7_14: t5_7_14 - x5_7 - x5_14 - x7_14 >= -2
tri1_5_7_15: t5_7_15 - x5_7 <= 0
tri2_5_7_15: t5_7_15 - x5_15 <= 0
tri3_5_7_15: t5_7_15 - x7_15 <= 0
tri4_5_7_15: t5_7_15 - x5_7 - x5_15 - x7_15 >= -2
tri1_5_7_16: t5_7_16 - x5_7 <= 0
tri2_5_7_16: t5_7_16 - x5_16 <= 0
tri3_5_7_16: t5_7_16 - x7_16 <= 0
tri4_5_7_16: t5_7_16 - x5_7 - x5_16 - x7_16 >= -2
tri1_5_7_17: t5_7_17 - x5_7 <= 0
tri2_5_7_17: t5_7_17 - x5_17 <= 0
tri3_5_7_17: t5_7_17 - x7_17 <= 0
tri4_5_7_17: t5_7_17 - x5_7 - x5_17 - x7_17 >= -2
tri1_5_7_18: t5_7_18 - x5_7 <= 0
tri2_5_7_18: t5_7_18 - x5_18 <= 0
tri3_5_7_18: t5_7_18 - x7_18 <= 0
tri4_5_7_18: t5_7_18 - x5_7 - x5_18 - x7_18 >= -2
tri1_5_7_19: t5_7_19 - x5_7 <= 0
tri2_5_7_19: t5_7_19 - x5_19 <= 0
tri3_5_7_19: t5_7_19 - x7_19 <= 0
tri4_5_7_19: t5_7_19 - x5_7 - x5_19 - x7_19 >= -2
tri1_5_7_20: t5_7_20 - x5_7 <= 0
tri2_5_7_20: t5_7_20 - x5_20 <= 0
tri3_5_7_20: t5_7_20 - x7_20 <= 0
tri4_5_7_20: t5_7_20 - x5_7 - x5_20 - x7_20 >= -2
tri1_5_7_21: t5_7_21 - x5_7 <= 0
tri2_5_7_21: t5_7_21 - x5_21 <= 0
tri3_5_7_21: t5_7_21 - x7_21 <= 0
tri4_5_7_21: t5_7_21 - x5_7 - x5_21 - x7_21 >= -2
tri1_5_8_9: t5_8_9 - x5_8 <= 0
tri2_5_8_9: t5_8_9 - x5_9 <= 0
tri3_5_8_9: t5_8_9 - x8_9 <= 0
tri4_5_8_9: t5_8_9 - x5_8 - x5_9 - x8_9 >= -2
tri1_5_8_10: t5_8_10 - x5_8 <= 0
tri2_5_8_10: t5_8_10 - x5_10 <= 0
tri3_5_8_10: t5_8_10 - x8_10 <= 0
tri4_5_8_10: t5_8_10 - x5_8 - x5_10 - x8_10 >= -2
tri1_5_8_11: t5_8_11 - x5_8 <= 0
tri2_5_8_11: t5_8_11 - x5_11 <= 0
tri3_5_8_11: t5_8_11 - x8_11 <= 0
tri4_5_8_11: t5_8_11 - x5_8 - x5_11 - x8_11 >= -2
tri1_5_8_12: t5_8_12 - x5_8 <= 0
tri2_5_8_12: t5_8_12 - x5_12 <= 0
tri3_5_8_12: t5_8_12 - x8_12 <= 0
tri4_5_8_12: t5_8_12 - x5_8 - x5_12 - x8_12 >= -2
tri1_5_8_13: t5_8_13 - x5_8 <= 0
tri2_5_8_13: t5_8_13 - x5_13 <= 0
tri3_5_8_13: t5_8_13 - x8_13 <= 0
tri4_5_8_13: t5_8_13 - x5_8 - x5_13 - x8_13 >= -2
tri1_5_8_14: t5_8_14 - x5_8 <= 0
tri2_5_8_14: t5_8_14 - x5_14 <= 0
tri3_5_8_14: t5_8_14 - x8_14 <= 0
tri4_5_8_14: t5_8_14 - x5_8 - x5_14 - x8_14 >= -2
tri1_5_8_15: t5_8_15 - x5_8 <= 0
tri2_5_8_15: t5_8_15 - x5_15 <= 0
tri3_5_8_15: t5_8_15 - x8_15 <= 0
tri4_5_8_15: t5_8_15 - x5_8 - x5_15 - x8_15 >= -2
tri1_5_8_16: t5_8_16 - x5_8 <= 0
tri2_5_8_16: t5_8_16 - x5_16 <= 0
tri3_5_8_16: t5_8_16 - x8_16 <= 0
tri4_5_8_16: t5_8_16 - x5_8 - x5_16 - x8_16 >= -2
tri1_5_8_17: t5_8_17 - x5_8 <= 0
tri2_5_8_17: t5_8_17 - x5_17 <= 0
tri3_5_8_17: t5_8_17 - x8_17 <= 0
tri4_5_8_17: t5_8_17 - x5_8 - x5_17 - x8_17 >= -2
tri1_5_8_18: t5_8_18 - x5_8 <= 0
tri2_5_8_18: t5_8_18 - x5_18 <= 0
tri3_5_8_18: t5_8_18 - x8_18 <= 0
tri4_5_8_18: t5_8_18 - x5_8 - x5_18 - x8_18 >= -2
tri1_5_8_19: t5_8_19 - x5_8 <= 0
tri2_5_8_19: t5_8_19 - x5_19 <= 0
tri3_5_8_19: t5_8_19 - x8_19 <= 0
tri4_5_8_19: t5_8_19 - x5_8 - x5_19 - x8_19 >= -2
tri1_5_8_20: t5_8_20 - x5_8 <= 0
tri2_5_8_20: t5_8_20 - x5_20 <= 0
tri3_5_8_20: t5_8_20 - x8_20 <= 0
tri4_5_8_20: t5_8_20 - x5_8 - x5_20 - x8_20 >= -2
tri1_5_8_21: t5_8_21 - x5_8 <= 0
tri2_5_8_21: t5_8_21 - x5_21 <= 0
tri3_5_8_21: t5_8_21 - x8_21 <= 0
tri4_5_8_21: t5_8_21 - x5_8 - x5_21 - x8_21 >= -2
tri1_5_9_10: t5_9_10 - x5_9 <= 0
tri2_5_9_10: t5_9_10 - x5_10 <= 0
tri3_5_9_10: t5_9_10 - x9_10 <= 0
tri4_5_9_10: t5_9_10 - x5_9 - x5_10 - x9_10 >= -2
tri1_5_9_11: t5_9_11 - x5_9 <= 0
tri2_5_9_11: t5_9_11 - x5_11 <= 0
tri3_5_9_11: t5_9_11 - x9_11 <= 0
tri4_5_9_11: t5_9_11 - x5_9 - x5_11 - x9_11 >= -2
tri1_5_9_12: t5_9_12 - x5_9 <= 0
tri2_5_9_12: t5_9_12 - x5_12 <= 0
tri3_5_9_12: t5_9_12 - x9_12 <= 0
tri4_5_9_12: t5_9_12 - x5_9 - x5_12 - x9_12 >= -2
tri1_5_9_13: t5_9_13 - x5_9 <= 0
tri2_5_9_13: t5_9_13 - x5_13 <= 0
tri3_5_9_13: t5_9_13 - x9_13 <= 0
tri4_5_9_13: t5_9_13 - x5_9 - x5_13 - x9_13 >= -2
tri1_5_9_14: t5_9_14 - x5_9 <= 0
tri2_5_9_14: t5_9_14 - x5_14 <= 0
tri3_5_9_14: t5_9_14 - x9_14 <= 0
tri4_5_9_14: t5_9_14 - x5_9 - x5_14 - x9_14 >= -2
tri1_5_9_15: t5_9_15 - x5_9 <= 0
tri2_5_9_15: t5_9_15 - x5_15 <= 0
tri3_5_9_15: t5_9_15 - x9_15 <= 0
tri4_5_9_15: t5_9_15 - x5_9 - x5_15 - x9_15 >= -2
tri1_5_9_16: t5_9_16 - x5_9 <= 0
tri2_5_9_16: t5_9_16 - x5_16 <= 0
tri3_5_9_16: t5_9_16 - x9_16 <= 0
tri4_5_9_16: t5_9_16 - x5_9 - x5_16 - x9_16 >= -2
tri1_5_9_17: t5_9_17 - x5_9 <= 0
tri2_5_9_17: t5_9_17 - x5_17 <= 0
tri3_5_9_17: t5_9_17 - x9_17 <= 0
tri4_5_9_17: t5_9_17 - x5_9 - x5_17 - x9_17 >= -2
tri1_5_9_18: t5_9_18 - x5_9 <= 0
tri2_5_9_18: t5_9_18 - x5_18 <= 0
tri3_5_9_18: t5_9_18 - x9_18 <= 0
tri4_5_9_18: t5_9_18 - x5_9 - x5_18 - x9_18 >= -2
tri1_5_9_19: t5_9_19 - x5_9 <= 0
tri2_5_9_19: t5_9_19 - x5_19 <= 0
tri3_5_9_19: t5_9_19 - x9_19 <= 0
tri4_5_9_19: t5_9_19 - x5_9 - x5_19 - x9_19 >= -2
tri1_5_9_20: t5_9_20 - x5_9 <= 0
tri2_5_9_20: t5_9_20 - x5_20 <= 0
tri3_5_9_20: t5_9_20 - x9_20 <= 0
tri4_5_9_20: t5_9_20 - x5_9 - x5_20 - x9_20 >= -2
tri1_5_9_21: t5_9_21 - x5_9 <= 0
tri2_5_9_21: t5_9_21 - x5_21 <= 0
tri3_5_9_21: t5_9_21 - x9_21 <= 0
tri4_5_9_21: t5_9_21 - x5_9 - x5_21 - x9_21 >= -2
tri1_5_10_11: t5_10_11 - x5_10 <= 0
tri2_5_10_11: t5_10_11 - x5_11 <= 0
tri3_5_10_11: t5_10_11 - x10_11 <= 0
tri4_5_10_11: t5_10_11 - x5_10 - x5_11 - x10_11 >= -2
tri1_5_10_12: t5_10_12 - x5_10 <= 0
tri2_5_10_12: t5_10_12 - x5_12 <= 0
tri3_5_10_12: t5_10_12 - x10_12 <= 0
tri4_5_10_12: t5_10_12 - x5_10 - x5_12 - x10_12 >= -2
tri1_5_10_13: t5_10_13 - x5_10 <= 0
tri2_5_10_13: t5_10_13 - x5_13 <= 0
tri3_5_10_13: t5_10_13 - x10_13 <= 0
tri4_5_10_13: t5_10_13 - x5_10 - x5_13 - x10_13 >= -2
tri1_5_10_14: t5_10_14 - x5_10 <= 0
tri2_5_10_14: t5_10_14 - x5_14 <= 0
tri3_5_10_14: t5_10_14 - x10_14 <= 0
tri4_5_10_14: t5_10_14 - x5_10 - x5_14 - x10_14 >= -2
tri1_5_10_15: t5_10_15 - x5_10 <= 0
tri2_5_10_15: t5_10_15 - x5_15 <= 0
tri3_5_10_15: t5_10_15 - x10_15 <= 0
tri4_5_10_15: t5_10_15 - x5_10 - x5_15 - x10_15 >= -2
tri1_5_10_16: t5_10_16 - x5_10 <= 0
tri2_5_10_16: t5_10_16 - x5_16 <= 0
tri3_5_10_16: t5_10_16 - x10_16 <= 0
tri4_5_10_16: t5_10_16 - x5_10 - x5_16 - x10_16 >= -2
tri1_5_10_17: t5_10_17 - x5_10 <= 0
tri2_5_10_17: t5_10_17 - x5_17 <= 0
tri3_5_10_17: t5_10_17 - x10_17 <= 0
tri4_5_10_17: t5_10_17 - x5_10 - x5_17 - x10_17 >= -2
tri1_5_10_18: t5_10_18 - x5_10 <= 0
tri2_5_10_18: t5_10_18 - x5_18 <= 0
tri3_5_10_18: t5_10_18 - x10_18 <= 0
tri4_5_10_18: t5_10_18 - x5_10 - x5_18 - x10_18 >= -2
tri1_5_10_19: t5_10_19 - x5_10 <= 0
tri2_5_10_19: t5_10_19 - x5_19 <= 0
tri3_5_10_19: t5_10_19 - x10_19 <= 0
tri4_5_10_19: t5_10_19 - x5_10 - x5_19 - x10_19 >= -2
tri1_5_10_20: t5_10_20 - x5_10 <= 0
tri2_5_10_20: t5_10_20 - x5_20 <= 0
tri3_5_10_20: t5_10_20 - x10_20 <= 0
tri4_5_10_20: t5_10_20 - x5_10 - x5_20 - x10_20 >= -2
tri1_5_10_21: t5_10_21 - x5_10 <= 0
tri2_5_10_21: t5_10_21 - x5_21 <= 0
tri3_5_10_21: t5_10_21 - x10_21 <= 0
tri4_5_10_21: t5_10_21 - x5_10 - x5_21 - x10_21 >= -2
tri1_5_11_12: t5_11_12 - x5_11 <= 0
tri2_5_11_12: t5_11_12 - x5_12 <= 0
tri3_5_11_12: t5_11_12 - x11_12 <= 0
tri4_5_11_12: t5_11_12 - x5_11 - x5_12 - x11_12 >= -2
tri1_5_11_13: t5_11_13 - x5_11 <= 0
tri2_5_11_13: t5_11_13 - x5_13 <= 0
tri3_5_11_13: t5_11_13 - x11_13 <= 0
tri4_5_11_13: t5_11_13 - x5_11 - x5_13 - x11_13 >= -2
tri1_5_11_14: t5_11_14 - x5_11 <= 0
tri2_5_11_14: t5_11_14 - x5_14 <= 0
tri3_5_11_14: t5_11_14 - x11_14 <= 0
tri4_5_11_14: t5_11_14 - x5_11 - x5_14 - x11_14 >= -2
tri1_5_11_15: t5_11_15 - x5_11 <= 0
tri2_5_11_15: t5_11_15 - x5_15 <= 0
tri3_5_11_15: t5_11_15 - x11_15 <= 0
tri4_5_11_15: t5_11_15 - x5_11 - x5_15 - x11_15 >= -2
tri1_5_11_16: t5_11_16 - x5_11 <= 0
tri2_5_11_16: t5_11_16 - x5_16 <= 0
tri3_5_11_16: t5_11_16 - x11_16 <= 0
tri4_5_11_16: t5_11_16 - x5_11 - x5_16 - x11_16 >= -2
tri1_5_11_17: t5_11_17 - x5_11 <= 0
tri2_5_11_17: t5_11_17 - x5_17 <= 0
tri3_5_11_17: t5_11_17 - x11_17 <= 0
tri4_5_11_17: t5_11_17 - x5_11 - x5_17 - x11_17 >= -2
tri1_5_11_18: t5_11_18 - x5_11 <= 0
tri2_5_11_18: t5_11_18 - x5_18 <= 0
tri3_5_11_18: t5_11_18 - x11_18 <= 0
tri4_5_11_18: t5_11_18 - x5_11 - x5_18 - x11_18 >= -2
tri1_5_11_19: t5_11_19 - x5_11 <= 0
tri2_5_11_19: t5_11_19 - x5_19 <= 0
tri3_5_11_19: t5_11_19 - x11_19 <= 0
tri4_5_11_19: t5_11_19 - x5_11 - x5_19 - x11_19 >= -2
tri1_5_11_20: t5_11_20 - x5_11 <= 0
tri2_5_11_20: t5_11_20 - x5_20 <= 0
tri3_5_11_20: t5_11_20 - x11_20 <= 0
tri4_5_11_20: t5_11_20 - x5_11 - x5_20 - x11_20 >= -2
tri1_5_11_21: t5_11_21 - x5_11 <= 0
tri2_5_11_21: t5_11_21 - x5_21 <= 0
tri3_5_11_21: t5_11_21 - x11_21 <= 0
tri4_5_11_21: t5_11_21 - x5_11 - x5_21 - x11_21 >= -2
tri1_5_12_13: t5_12_13 - x5_12 <= 0
tri2_5_12_13: t5_12_13 - x5_13 <= 0
tri3_5_12_13: t5_12_13 - x12_13 <= 0
tri4_5_12_13: t5_12_13 - x5_12 - x5_13 - x12_13 >= -2
tri1_5_12_14: t5_12_14 - x5_12 <= 0
tri2_5_12_14: t5_12_14 - x5_14 <= 0
tri3_5_12_14: t5_12_14 - x12_14 <= 0
tri4_5_12_14: t5_12_14 - x5_12 - x5_14 - x12_14 >= -2
tri1_5_12_15: t5_12_15 - x5_12 <= 0
tri2_5_12_15: t5_12_15 - x5_15 <= 0
tri3_5_12_15: t5_12_15 - x12_15 <= 0
tri4_5_12_15: t5_12_15 - x5_12 - x5_15 - x12_15 >= -2
tri1_5_12_16: t5_12_16 - x5_12 <= 0
tri2_5_12_16: t5_12_16 - x5_16 <= 0
tri3_5_12_16: t5_12_16 - x12_16 <= 0
tri4_5_12_16: t5_12_16 - x5_12 - x5_16 - x12_16 >= -2
tri1_5_12_17: t5_12_17 - x5_12 <= 0
tri2_5_12_17: t5_12_17 - x5_17 <= 0
tri3_5_12_17: t5_12_17 - x12_17 <= 0
tri4_5_12_17: t5_12_17 - x5_12 - x5_17 - x12_17 >= -2
tri1_5_12_18: t5_12_18 - x5_12 <= 0
tri2_5_12_18: t5_12_18 - x5_18 <= 0
tri3_5_12_18: t5_12_18 - x12_18 <= 0
tri4_5_12_18: t5_12_18 - x5_12 - x5_18 - x12_18 >= -2
tri1_5_12_19: t5_12_19 - x5_12 <= 0
tri2_5_12_19: t5_12_19 - x5_19 <= 0
tri3_5_12_19: t5_12_19 - x12_19 <= 0
tri4_5_12_19: t5_12_19 - x5_12 - x5_19 - x12_19 >= -2
tri1_5_12_20: t5_12_20 - x5_12 <= 0
tri2_5_12_20: t5_12_20 - x5_20 <= 0
tri3_5_12_20: t5_12_20 - x12_20 <= 0
tri4_5_12_20: t5_12_20 - x5_12 - x5_20 - x12_20 >= -2
tri1_5_12_21: t5_12_21 - x5_12 <= 0
tri2_5_12_21: t5_12_21 - x5_21 <= 0
tri3_5_12_21: t5_12_21 - x12_21 <= 0
tri4_5_12_21: t5_12_21 - x5_12 - x5_21 - x12_21 >= -2
tri1_5_13_14: t5_13_14 - x5_13 <= 0
tri2_5_13_14: t5_13_14 - x5_14 <= 0
tri3_5_13_14: t5_13_14 - x13_14 <= 0
tri4_5_13_14: t5_13_14 - x5_13 - x5_14 - x13_14 >= -2
tri1_5_13_15: t5_13_15 - x5_13 <= 0
tri2_5_13_15: t5_13_15 - x5_15 <= 0
tri3_5_13_15: t5_13_15 - x13_15 <= 0
tri4_5_13_15: t5_13_15 - x5_13 - x5_15 - x13_15 >= -2
tri1_5_13_16: t5_13_16 - x5_13 <= 0
tri2_5_13_16: t5_13_16 - x5_16 <= 0
tri3_5_13_16: t5_13_16 - x13_16 <= 0
tri4_5_13_16: t5_13_16 - x5_13 - x5_16 - x13_16 >= -2
tri1_5_13_17: t5_13_17 - x5_13 <= 0
tri2_5_13_17: t5_13_17 - x5_17 <= 0
tri3_5_13_17: t5_13_17 - x13_17 <= 0
tri4_5_13_17: t5_13_17 - x5_13 - x5_17 - x13_17 >= -2
tri1_5_13_18: t5_13_18 - x5_13 <= 0
tri2_5_13_18: t5_13_18 - x5_18 <= 0
tri3_5_13_18: t5_13_18 - x13_18 <= 0
tri4_5_13_18: t5_13_18 - x5_13 - x5_18 - x13_18 >= -2
tri1_5_13_19: t5_13_19 - x5_13 <= 0
tri2_5_13_19: t5_13_19 - x5_19 <= 0
tri3_5_13_19: t5_13_19 - x13_19 <= 0
tri4_5_13_19: t5_13_19 - x5_13 - x5_19 - x13_19 >= -2
tri1_5_13_20: t5_13_20 - x5_13 <= 0
tri2_5_13_20: t5_13_20 - x5_20 <= 0
tri3_5_13_20: t5_13_20 - x13_20 <= 0
tri4_5_13_20: t5_13_20 - x5_13 - x5_20 - x13_20 >= -2
tri1_5_13_21: t5_13_21 - x5_13 <= 0
tri2_5_13_21: t5_13_21 - x5_21 <= 0
tri3_5_13_21: t5_13_21 - x13_21 <= 0
tri4_5_13_21: t5_13_21 - x5_13 - x5_21 - x13_21 >= -2
tri1_5_14_15: t5_14_15 - x5_14 <= 0
tri2_5_14_15: t5_14_15 - x5_15 <= 0
tri3_5_14_15: t5_14_15 - x14_15 <= 0
tri4_5_14_15: t5_14_15 - x5_14 - x5_15 - x14_15 >= -2
tri1_5_14_16: t5_14_16 - x5_14 <= 0
tri2_5_14_16: t5_14_16 - x5_16 <= 0
tri3_5_14_16: t5_14_16 - x14_16 <= 0
tri4_5_14_16: t5_14_16 - x5_14 - x5_16 - x14_16 >= -2
tri1_5_14_17: t5_14_17 - x5_14 <= 0
tri2_5_14_17: t5_14_17 - x5_17 <= 0
tri3_5_14_17: t5_14_17 - x14_17 <= 0
tri4_5_14_17: t5_14_17 - x5_14 - x5_17 - x14_17 >= -2
tri1_5_14_18: t5_14_18 - x5_14 <= 0
tri2_5_14_18: t5_14_18 - x5_18 <= 0
tri3_5_14_18: t5_14_18 - x14_18 <= 0
tri4_5_14_18: t5_14_18 - x5_14 - x5_18 - x14_18 >= -2
tri1_5_14_19: t5_14_19 - x5_14 <= 0
tri2_5_14_19: t5_14_19 - x5_19 <= 0
tri3_5_14_19: t5_14_19 - x14_19 <= 0
tri4_5_14_19: t5_14_19 - x5_14 - x5_19 - x14_19 >= -2
tri1_5_14_20: t5_14_20 - x5_14 <= 0
tri2_5_14_20: t5_14_20 - x5_20 <= 0
tri3_5_14_20: t5_14_20 - x14_20 <= 0
tri4_5_14_20: t5_14_20 - x5_14 - x5_20 - x14_20 >= -2
tri1_5_14_21: t5_14_21 - x5_14 <= 0
tri2_5_14_21: t5_14_21 - x5_21 <= 0
tri3_5_14_21: t5_14_21 - x14_21 <= 0
tri4_5_14_21: t5_14_21 - x5_14 - x5_21 - x14_21 >= -2
tri1_5_15_16: t5_15_16 - x5_15 <= 0
tri2_5_15_16: t5_15_16 - x5_16 <= 0
tri3_5_15_16: t5_15_16 - x15_16 <= 0
tri4_5_15_16: t5_15_16 - x5_15 - x5_16 - x15_16 >= -2
tri1_5_15_17: t5_15_17 - x5_15 <= 0
tri2_5_15_17: t5_15_17 - x5_17 <= 0
tri3_5_15_17: t5_15_17 - x15_17 <= 0
tri4_5_15_17: t5_15_17 - x5_15 - x5_17 - x15_17 >= -2
tri1_5_15_18: t5_15_18 - x5_15 <= 0
tri2_5_15_18: t5_15_18 - x5_18 <= 0
tri3_5_15_18: t5_15_18 - x15_18 <= 0
tri4_5_15_18: t5_15_18 - x5_15 - x5_18 - x15_18 >= -2
tri1_5_15_19: t5_15_19 - x5_15 <= 0
tri2_5_15_19: t5_15_19 - x5_19 <= 0
tri3_5_15_19: t5_15_19 - x15_19 <= 0
tri4_5_15_19: t5_15_19 - x5_15 - x5_19 - x15_19 >= -2
tri1_5_15_20: t5_15_20 - x5_15 <= 0
tri2_5_15_20: t5_15_20 - x5_20 <= 0
tri3_5_15_20: t5_15_20 - x15_20 <= 0
tri4_5_15_20: t5_15_20 - x5_15 - x5_20 - x15_20 >= -2
tri1_5_15_21: t5_15_21 - x5_15 <= 0
tri2_5_15_21: t5_15_21 - x5_21 <= 0
tri3_5_15_21: t5_15_21 - x15_21 <= 0
tri4_5_15_21: t5_15_21 - x5_15 - x5_21 - x15_21 >= -2
tri1_5_16_17: t5_16_17 - x5_16 <= 0
tri2_5_16_17: t5_16_17 - x5_17 <= 0
tri3_5_16_17: t5_16_17 - x16_17 <= 0
tri4_5_16_17: t5_16_17 - x5_16 - x5_17 - x16_17 >= -2
tri1_5_16_18: t5_16_18 - x5_16 <= 0
tri2_5_16_18: t5_16_18 - x5_18 <= 0
tri3_5_16_18: t5_16_18 - x16_18 <= 0
tri4_5_16_18: t5_16_18 - x5_16 - x5_18 - x16_18 >= -2
tri1_5_16_19: t5_16_19 - x5_16 <= 0
tri2_5_16_19: t5_16_19 - x5_19 <= 0
tri3_5_16_19: t5_16_19 - x16_19 <= 0
tri4_5_16_19: t5_16_19 - x5_16 - x5_19 - x16_19 >= -2
tri1_5_16_20: t5_16_20 - x5_16 <= 0
tri2_5_16_20: t5_16_20 - x5_20 <= 0
tri3_5_16_20: t5_16_20 - x16_20 <= 0
tri4_5_16_20: t5_16_20 - x5_16 - x5_20 - x16_20 >= -2
tri1_5_16_21: t5_16_21 - x5_16 <= 0
tri2_5_16_21: t5_16_21 - x5_21 <= 0
tri3_5_16_21: t5_16_21 - x16_21 <= 0
tri4_5_16_21: t5_16_21 - x5_16 - x5_21 - x16_21 >= -2
tri1_5_17_18: t5_17_18 - x5_17 <= 0
tri2_5_17_18: t5_17_18 - x5_18 <= 0
tri3_5_17_18: t5_17_18 - x17_18 <= 0
tri4_5_17_18: t5_17_18 - x5_17 - x5_18 - x17_18 >= -2
tri1_5_17_19: t5_17_19 - x5_17 <= 0
tri2_5_17_19: t5_17_19 - x5_19 <= 0
tri3_5_17_19: t5_17_19 - x17_19 <= 0
tri4_5_17_19: t5_17_19 - x5_17 - x5_19 - x17_19 >= -2
tri1_5_17_20: t5_17_20 - x5_17 <= 0
tri2_5_17_20: t5_17_20 - x5_20 <= 0
tri3_5_17_20: t5_17_20 - x17_20 <= 0
tri4_5_17_20: t5_17_20 - x5_17 - x5_20 - x17_20 >= -2
tri1_5_17_21: t5_17_21 - x5_17 <= 0
tri2_5_17_21: t5_17_21 - x5_21 <= 0
tri3_5_17_21: t5_17_21 - x17_21 <= 0
tri4_5_17_21: t5_17_21 - x5_17 - x5_21 - x17_21 >= -2
tri1_5_18_19: t5_18_19 - x5_18 <= 0
tri2_5_18_19: t5_18_19 - x5_19 <= 0
tri3_5_18_19: t5_18_19 - x18_19 <= 0
tri4_5_18_19: t5_18_19 - x5_18 - x5_19 - x18_19 >= -2
tri1_5_18_20: t5_18_20 - x5_18 <= 0
tri2_5_18_20: t5_18_20 - x5_20 <= 0
tri3_5_18_20: t5_18_20 - x18_20 <= 0
tri4_5_18_20: t5_18_20 - x5_18 - x5_20 - x18_20 >= -2
tri1_5_18_21: t5_18_21 - x5_18 <= 0
tri2_5_18_21: t5_18_21 - x5_21 <= 0
tri3_5_18_21: t5_18_21 - x18_21 <= 0
tri4_5_18_21: t5_18_21 - x5_18 - x5_21 - x18_21 >= -2
tri1_5_19_20: t5_19_20 - x5_19 <= 0
tri2_5_19_20: t5_19_20 - x5_20 <= 0
tri3_5_19_20: t5_19_20 - x19_20 <= 0
tri4_5_19_20: t5_19_20 - x5_19 - x5_20 - x19_20 >= -2
tri1_5_19_21: t5_19_21 - x5_19 <= 0
tri2_5_19_21: t5_19_21 - x5_21 <= 0
tri3_5_19_21: t5_19_21 - x19_21 <= 0
tri4_5_19_21: t5_19_21 - x5_19 - x5_21 - x19_21 >= -2
tri1_5_20_21: t5_20_21 - x5_20 <= 0
tri2_5_20_21: t5_20_21 - x5_21 <= 0
tri3_5_20_21: t5_20_21 - x20_21 <= 0
tri4_5_20_21: t5_20_21 - x5_20 - x5_21 - x20_21 >= -2
tri1_6_7_8: t6_7_8 - x6_7 <= 0
tri2_6_7_8: t6_7_8 - x6_8 <= 0
tri3_6_7_8: t6_7_8 - x7_8 <= 0
tri4_6_7_8: t6_7_8 - x6_7 - x6_8 - x7_8 >= -2
tri1_6_7_9: t6_7_9 - x6_7 <= 0
tri2_6_7_9: t6_7_9 - x6_9 <= 0
tri3_6_7_9: t6_7_9 - x7_9 <= 0
tri4_6_7_9: t6_7_9 - x6_7 - x6_9 - x7_9 >= -2
tri1_6_7_10: t6_7_10 - x6_7 <= 0
tri2_6_7_10: t6_7_10 - x6_10 <= 0
tri3_6_7_10: t6_7_10 - x7_10 <= 0
tri4_6_7_10: t6_7_10 - x6_7 - x6_10 - x7_10 >= -2
tri1_6_7_11: t6_7_11 - x6_7 <= 0
tri2_6_7_11: t6_7_11 - x6_11 <= 0
tri3_6_7_11: t6_7_11 - x7_11 <= 0
tri4_6_7_11: t6_7_11 - x6_7 - x6_11 - x7_11 >= -2
tri1_6_7_12: t6_7_12 - x6_7 <= 0
tri2_6_7_12: t6_7_12 - x6_12 <= 0
tri3_6_7_12: t6_7_12 - x7_12 <= 0
tri4_6_7_12: t6_7_12 - x6_7 - x6_12 - x7_12 >= -2
tri1_6_7_13: t6_7_13 - x6_7 <= 0
tri2_6_7_13: t6_7_13 - x6_13 <= 0
tri3_6_7_13: t6_7_13 - x7_13 <= 0
tri4_6_7_13: t6_7_13 - x6_7 - x6_13 - x7_13 >= -2
tri1_6_7_14: t6_7_14 - x6_7 <= 0
tri2_6_7_14: t6_7_14 - x6_14 <= 0
tri3_6_7_14: t6_7_14 - x7_14 <= 0
tri4_6_7_14: t6_7_14 - x6_7 - x6_14 - x7_14 >= -2
tri1_6_7_15: t6_7_15 - x6_7 <= 0
tri2_6_7_15: t6_7_15 - x6_15 <= 0
tri3_6_7_15: t6_7_15 - x7_15 <= 0
tri4_6_7_15: t6_7_15 - x6_7 - x6_15 - x7_15 >= -2
tri1_6_7_16: t6_7_16 - x6_7 <= 0
tri2_6_7_16: t6_7_16 - x6_16 <= 0
tri3_6_7_16: t6_7_16 - x7_16 <= 0
tri4_6_7_16: t6_7_16 - x6_7 - x6_16 - x7_16 >= -2
tri1_6_7_17: t6_7_17 - x6_7 <= 0
tri2_6_7_17: t6_7_17 - x6_17 <= 0
tri3_6_7_17: t6_7_17 - x7_17 <= 0
tri4_6_7_17: t6_7_17 - x6_7 - x6_17 - x7_17 >= -2
tri1_6_7_18: t6_7_18 - x6_7 <= 0
tri2_6_7_18: t6_7_18 - x6_18 <= 0
tri3_6_7_18: t6_7_18 - x7_18 <= 0
tri4_6_7_18: t6_7_18 - x6_7 - x6_18 - x7_18 >= -2
tri1_6_7_19: t6_7_19 - x6_7 <= 0
tri2_6_7_19: t6_7_19 - x6_19 <= 0
tri3_6_7_19: t6_7_19 - x7_19 <= 0
tri4_6_7_19: t6_7_19 - x6_7 - x6_19 - x7_19 >= -2
tri1_6_7_20: t6_7_20 - x6_7 <= 0
tri2_6_7_20: t6_7_20 - x6_20 <= 0
tri3_6_7_20: t6_7_20 - x7_20 <= 0
tri4_6_7_20: t6_7_20 - x6_7 - x6_20 - x7_20 >= -2
tri1_6_7_21: t6_7_21 - x6_7 <= 0
tri2_6_7_21: t6_7_21 - x6_21 <= 0
tri3_6_7_21: t6_7_21 - x7_21 <= 0
tri4_6_7_21: t6_7_21 - x6_7 - x6_21 - x7_21 >= -2
tri1_6_8_9: t6_8_9 - x6_8 <= 0
tri2_6_8_9: t6_8_9 - x6_9 <= 0
tri3_6_8_9: t6_8_9 - x8_9 <= 0
tri4_6_8_9: t6_8_9 - x6_8 - x6_9 - x8_9 >= -2
tri1_6_8_10: t6_8_10 - x6_8 <= 0
tri2_6_8_10: t6_8_10 - x6_10 <= 0
tri3_6_8_10: t6_8_10 - x8_10 <= 0
tri4_6_8_10: t6_8_10 - x6_8 - x6_10 - x8_10 >= -2
tri1_6_8_11: t6_8_11 - x6_8 <= 0
tri2_6_8_11: t6_8_11 - x6_11 <= 0
tri3_6_8_11: t6_8_11 - x8_11 <= 0
tri4_6_8_11: t6_8_11 - x6_8 - x6_11 - x8_11 >= -2
tri1_6_8_12: t6_8_12 - x6_8 <= 0
tri2_6_8_12: t6_8_12 - x6_12 <= 0
tri3_6_8_12: t6_8_12 - x8_12 <= 0
tri4_6_8_12: t6_8_12 - x6_8 - x6_12 - x8_12 >= -2
tri1_6_8_13: t6_8_13 - x6_8 <= 0
tri2_6_8_13: t6_8_13 - x6_13 <= 0
tri3_6_8_13: t6_8_13 - x8_13 <= 0
tri4_6_8_13: t6_8_13 - x6_8 - x6_13 - x8_13 >= -2
tri1_6_8_14: t6_8_14 - x6_8 <= 0
tri2_6_8_14: t6_8_14 - x6_14 <= 0
tri3_6_8_14: t6_8_14 - x8_14 <= 0
tri4_6_8_14: t6_8_14 - x6_8 - x6_14 - x8_14 >= -2
tri1_6_8_15: t6_8_15 - x6_8 <= 0
tri2_6_8_15: t6_8_15 - x6_15 <= 0
tri3_6_8_15: t6_8_15 - x8_15 <= 0
tri4_6_8_15: t6_8_15 - x6_8 - x6_15 - x8_15 >= -2
tri1_6_8_16: t6_8_16 - x6_8 <= 0
tri2_6_8_16: t6_8_16 - x6_16 <= 0
tri3_6_8_16: t6_8_16 - x8_16 <= 0
tri4_6_8_16: t6_8_16 - x6_8 - x6_16 - x8_16 >= -2
tri1_6_8_17: t6_8_17 - x6_8 <= 0
tri2_6_8_17: t6_8_17 - x6_17 <= 0
tri3_6_8_17: t6_8_17 - x8_17 <= 0
tri4_6_8_17: t6_8_17 - x6_8 - x6_17 - x8_17 >= -2
tri1_6_8_18: t6_8_18 - x6_8 <= 0
tri2_6_8_18: t6_8_18 - x6_18 <= 0
tri3_6_8_18: t6_8_18 - x8_18 <= 0
tri4_6_8_18: t6_8_18 - x6_8 - x6_18 - x8_18 >= -2
tri1_6_8_19: t6_8_19 - x6_8 <= 0
tri2_6_8_19: t6_8_19 - x6_19 <= 0
tri3_6_8_19: t6_8_19 - x8_19 <= 0
tri4_6_8_19: t6_8_19 - x6_8 - x6_19 - x8_19 >= -2
tri1_6_8_20: t6_8_20 - x6_8 <= 0
tri2_6_8_20: t6_8_20 - x6_20 <= 0
tri3_6_8_20: t6_8_20 - x8_20 <= 0
tri4_6_8_20: t6_8_20 - x6_8 - x6_20 - x8_20 >= -2
tri1_6_8_21: t6_8_21 - x6_8 <= 0
tri2_6_8_21: t6_8_21 - x6_21 <= 0
tri3_6_8_21: t6_8_21 - x8_21 <= 0
tri4_6_8_21: t6_8_21 - x6_8 - x6_21 - x8_21 >= -2
tri1_6_9_10: t6_9_10 - x6_9 <= 0
tri2_6_9_10: t6_9_10 - x6_10 <= 0
tri3_6_9_10: t6_9_10 - x9_10 <= 0
tri4_6_9_10: t6_9_10 - x6_9 - x6_10 - x9_10 >= -2
tri1_6_9_11: t6_9_11 - x6_9 <= 0
tri2_6_9_11: t6_9_11 - x6_11 <= 0
tri3_6_9_11: t6_9_11 - x9_11 <= 0
tri4_6_9_11: t6_9_11 - x6_9 - x6_11 - x9_11 >= -2
tri1_6_9_12: t6_9_12 - x6_9 <= 0
tri2_6_9_12: t6_9_12 - x6_12 <= 0
tri3_6_9_12: t6_9_12 - x9_12 <= 0
tri4_6_9_12: t6_9_12 - x6_9 - x6_12 - x9_12 >= -2
tri1_6_9_13: t6_9_13 - x6_9 <= 0
tri2_6_9_13: t6_9_13 - x6_13 <= 0
tri3_6_9_13: t6_9_13 - x9_13 <= 0
tri4_6_9_13: t6_9_13 - x6_9 - x6_13 - x9_13 >= -2
tri1_6_9_14: t6_9_14 - x6_9 <= 0
tri2_6_9_14: t6_9_14 - x6_14 <= 0
tri3_6_9_14: t6_9_14 - x9_14 <= 0
tri4_6_9_14: t6_9_14 - x6_9 - x6_14 - x9_14 >= -2
tri1_6_9_15: t6_9_15 - x6_9 <= 0
tri2_6_9_15: t6_9_15 - x6_15 <= 0
tri3_6_9_15: t6_9_15 - x9_15 <= 0
tri4_6_9_15: t6_9_15 - x6_9 - x6_15 - x9_15 >= -2
tri1_6_9_16: t6_9_16 - x6_9 <= 0
tri2_6_9_16: t6_9_16 - x6_16 <= 0
tri3_6_9_16: t6_9_16 - x9_16 <= 0
tri4_6_9_16: t6_9_16 - x6_9 - x6_16 - x9_16 >= -2
tri1_6_9_17: t6_9_17 - x6_9 <= 0
tri2_6_9_17: t6_9_17 - x6_17 <= 0
tri3_6_9_17: t6_9_17 - x9_17 <= 0
tri4_6_9_17: t6_9_17 - x6_9 - x6_17 - x9_17 >= -2
tri1_6_9_18: t6_9_18 - x6_9 <= 0
tri2_6_9_18: t6_9_18 - x6_18 <= 0
tri3_6_9_18: t6_9_18 - x9_18 <= 0
tri4_6_9_18: t6_9_18 - x6_9 - x6_18 - x9_18 >= -2
tri1_6_9_19: t6_9_19 - x6_9 <= 0
tri2_6_9_19: t6_9_19 - x6_19 <= 0
tri3_6_9_19: t6_9_19 - x9_19 <= 0
tri4_6_9_19: t6_9_19 - x6_9 - x6_19 - x9_19 >= -2
tri1_6_9_20: t6_9_20 - x6_9 <= 0
tri2_6_9_20: t6_9_20 - x6_20 <= 0
tri3_6_9_20: t6_9_20 - x9_20 <= 0
tri4_6_9_20: t6_9_20 - x6_9 - x6_20 - x9_20 >= -2
tri1_6_9_21: t6_9_21 - x6_9 <= 0
tri2_6_9_21: t6_9_21 - x6_21 <= 0
tri3_6_9_21: t6_9_21 - x9_21 <= 0
tri4_6_9_21: t6_9_21 - x6_9 - x6_21 - x9_21 >= -2
tri1_6_10_11: t6_10_11 - x6_10 <= 0
tri2_6_10_11: t6_10_11 - x6_11 <= 0
tri3_6_10_11: t6_10_11 - x10_11 <= 0
tri4_6_10_11: t6_10_11 - x6_10 - x6_11 - x10_11 >= -2
tri1_6_10_12: t6_10_12 - x6_10 <= 0
tri2_6_10_12: t6_10_12 - x6_12 <= 0
tri3_6_10_12: t6_10_12 - x10_12 <= 0
tri4_6_10_12: t6_10_12 - x6_10 - x6_12 - x10_12 >= -2
tri1_6_10_13: t6_10_13 - x6_10 <= 0
tri2_6_10_13: t6_10_13 - x6_13 <= 0
tri3_6_10_13: t6_10_13 - x10_13 <= 0
tri4_6_10_13: t6_10_13 - x6_10 - x6_13 - x10_13 >= -2
tri1_6_10_14: t6_10_14 - x6_10 <= 0
tri2_6_10_14: t6_10_14 - x6_14 <= 0
tri3_6_10_14: t6_10_14 - x10_14 <= 0
tri4_6_10_14: t6_10_14 - x6_10 - x6_14 - x10_14 >= -2
tri1_6_10_15: t6_10_15 - x6_10 <= 0
tri2_6_10_15: t6_10_15 - x6_15 <= 0
tri3_6_10_15: t6_10_15 - x10_15 <= 0
tri4_6_10_15: t6_10_15 - x6_10 - x6_15 - x10_15 >= -2
tri1_6_10_16: t6_10_16 - x6_10 <= 0
tri2_6_10_16: t6_10_16 - x6_16 <= 0
tri3_6_10_16: t6_10_16 - x10_16 <= 0
tri4_6_10_16: t6_10_16 - x6_10 - x6_16 - x10_16 >= -2
tri1_6_10_17: t6_10_17 - x6_10 <= 0
tri2_6_10_17: t6_10_17 - x6_17 <= 0
tri3_6_10_17: t6_10_17 - x10_17 <= 0
tri4_6_10_17: t6_10_17 - x6_10 - x6_17 - x10_17 >= -2
tri1_6_10_18: t6_10_18 - x6_10 <= 0
tri2_6_10_18: t6_10_18 - x6_18 <= 0
tri3_6_10_18: t6_10_18 - x10_18 <= 0
tri4_6_10_18: t6_10_18 - x6_10 - x6_18 - x10_18 >= -2
tri1_6_10_19: t6_10_19 - x6_10 <= 0
tri2_6_10_19: t6_10_19 - x6_19 <= 0
tri3_6_10_19: t6_10_19 - x10_19 <= 0
tri4_6_10_19: t6_10_19 - x6_10 - x6_19 - x10_19 >= -2
tri1_6_10_20: t6_10_20 - x6_10 <= 0
tri2_6_10_20: t6_10_20 - x6_20 <= 0
tri3_6_10_20: t6_10_20 - x10_20 <= 0
tri4_6_10_20: t6_10_20 - x6_10 - x6_20 - x10_20 >= -2
tri1_6_10_21: t6_10_21 - x6_10 <= 0
tri2_6_10_21: t6_10_21 - x6_21 <= 0
tri3_6_10_21: t6_10_21 - x10_21 <= 0
tri4_6_10_21: t6_10_21 - x6_10 - x6_21 - x10_21 >= -2
tri1_6_11_12: t6_11_12 - x6_11 <= 0
tri2_6_11_12: t6_11_12 - x6_12 <= 0
tri3_6_11_12: t6_11_12 - x11_12 <= 0
tri4_6_11_12: t6_11_12 - x6_11 - x6_12 - x11_12 >= -2
tri1_6_11_13: t6_11_13 - x6_11 <= 0
tri2_6_11_13: t6_11_13 - x6_13 <= 0
tri3_6_11_13: t6_11_13 - x11_13 <= 0
tri4_6_11_13: t6_11_13 - x6_11 - x6_13 - x11_13 >= -2
tri1_6_11_14: t6_11_14 - x6_11 <= 0
tri2_6_11_14: t6_11_14 - x6_14 <= 0
tri3_6_11_14: t6_11_14 - x11_14 <= 0
tri4_6_11_14: t6_11_14 - x6_11 - x6_14 - x11_14 >= -2
tri1_6_11_15: t6_11_15 - x6_11 <= 0
tri2_6_11_15: t6_11_15 - x6_15 <= 0
tri3_6_11_15: t6_11_15 - x11_15 <= 0
tri4_6_11_15: t6_11_15 - x6_11 - x6_15 - x11_15 >= -2
tri1_6_11_16: t6_11_16 - x6_11 <= 0
tri2_6_11_16: t6_11_16 - x6_16 <= 0
tri3_6_11_16: t6_11_16 - x11_16 <= 0
tri4_6_11_16: t6_11_16 - x6_11 - x6_16 - x11_16 >= -2
tri1_6_11_17: t6_11_17 - x6_11 <= 0
tri2_6_11_17: t6_11_17 - x6_17 <= 0
tri3_6_11_17: t6_11_17 - x11_17 <= 0
tri4_6_11_17: t6_11_17 - x6_11 - x6_17 - x11_17 >= -2
tri1_6_11_18: t6_11_18 - x6_11 <= 0
tri2_6_11_18: t6_11_18 - x6_18 <= 0
tri3_6_11_18: t6_11_18 - x11_18 <= 0
tri4_6_11_18: t6_11_18 - x6_11 - x6_18 - x11_18 >= -2
tri1_6_11_19: t6_11_19 - x6_11 <= 0
tri2_6_11_19: t6_11_19 - x6_19 <= 0
tri3_6_11_19: t6_11_19 - x11_19 <= 0
tri4_6_11_19: t6_11_19 - x6_11 - x6_19 - x11_19 >= -2
tri1_6_11_20: t6_11_20 - x6_11 <= 0
tri2_6_11_20: t6_11_20 - x6_20 <= 0
tri3_6_11_20: t6_11_20 - x11_20 <= 0
tri4_6_11_20: t6_11_20 - x6_11 - x6_20 - x11_20 >= -2
tri1_6_11_21: t6_11_21 - x6_11 <= 0
tri2_6_11_21: t6_11_21 - x6_21 <= 0
tri3_6_11_21: t6_11_21 - x11_21 <= 0
tri4_6_11_21: t6_11_21 - x6_11 - x6_21 - x11_21 >= -2
tri1_6_12_13: t6_12_13 - x6_12 <= 0
tri2_6_12_13: t6_12_13 - x6_13 <= 0
tri3_6_12_13: t6_12_13 - x12_13 <= 0
tri4_6_12_13: t6_12_13 - x6_12 - x6_13 - x12_13 >= -2
tri1_6_12_14: t6_12_14 - x6_12 <= 0
tri2_6_12_14: t6_12_14 - x6_14 <= 0
tri3_6_12_14: t6_12_14 - x12_14 <= 0
tri4_6_12_14: t6_12_14 - x6_12 - x6_14 - x12_14 >= -2
tri1_6_12_15: t6_12_15 - x6_12 <= 0
tri2_6_12_15: t6_12_15 - x6_15 <= 0
tri3_6_12_15: t6_12_15 - x12_15 <= 0
tri4_6_12_15: t6_12_15 - x6_12 - x6_15 - x12_15 >= -2
tri1_6_12_16: t6_12_16 - x6_12 <= 0
tri2_6_12_16: t6_12_16 - x6_16 <= 0
tri3_6_12_16: t6_12_16 - x12_16 <= 0
tri4_6_12_16: t6_12_16 - x6_12 - x6_16 - x12_16 >= -2
tri1_6_12_17: t6_12_17 - x6_12 <= 0
tri2_6_12_17: t6_12_17 - x6_17 <= 0
tri3_6_12_17: t6_12_17 - x12_17 <= 0
tri4_6_12_17: t6_12_17 - x6_12 - x6_17 - x12_17 >= -2
tri1_6_12_18: t6_12_18 - x6_12 <= 0
tri2_6_12_18: t6_12_18 - x6_18 <= 0
tri3_6_12_18: t6_12_18 - x12_18 <= 0
tri4_6_12_18: t6_12_18 - x6_12 - x6_18 - x12_18 >= -2
tri1_6_12_19: t6_12_19 - x6_12 <= 0
tri2_6_12_19: t6_12_19 - x6_19 <= 0
tri3_6_12_19: t6_12_19 - x12_19 <= 0
tri4_6_12_19: t6_12_19 - x6_12 - x6_19 - x12_19 >= -2
tri1_6_12_20: t6_12_20 - x6_12 <= 0
tri2_6_12_20: t6_12_20 - x6_20 <= 0
tri3_6_12_20: t6_12_20 - x12_20 <= 0
tri4_6_12_20: t6_12_20 - x6_12 - x6_20 - x12_20 >= -2
tri1_6_12_21: t6_12_21 - x6_12 <= 0
tri2_6_12_21: t6_12_21 - x6_21 <= 0
tri3_6_12_21: t6_12_21 - x12_21 <= 0
tri4_6_12_21: t6_12_21 - x6_12 - x6_21 - x12_21 >= -2
tri1_6_13_14: t6_13_14 - x6_13 <= 0
tri2_6_13_14: t6_13_14 - x6_14 <= 0
tri3_6_13_14: t6_13_14 - x13_14 <= 0
tri4_6_13_14: t6_13_14 - x6_13 - x6_14 - x13_14 >= -2
tri1_6_13_15: t6_13_15 - x6_13 <= 0
tri2_6_13_15: t6_13_15 - x6_15 <= 0
tri3_6_13_15: t6_13_15 - x13_15 <= 0
tri4_6_13_15: t6_13_15 - x6_13 - x6_15 - x13_15 >= -2
tri1_6_13_16: t6_13_16 - x6_13 <= 0
tri2_6_13_16: t6_13_16 - x6_16 <= 0
tri3_6_13_16: t6_13_16 - x13_16 <= 0
tri4_6_13_16: t6_13_16 - x6_13 - x6_16 - x13_16 >= -2
tri1_6_13_17: t6_13_17 - x6_13 <= 0
tri2_6_13_17: t6_13_17 - x6_17 <= 0
tri3_6_13_17: t6_13_17 - x13_17 <= 0
tri4_6_13_17: t6_13_17 - x6_13 - x6_17 - x13_17 >= -2
tri1_6_13_18: t6_13_18 - x6_13 <= 0
tri2_6_13_18: t6_13_18 - x6_18 <= 0
tri3_6_13_18: t6_13_18 - x13_18 <= 0
tri4_6_13_18: t6_13_18 - x6_13 - x6_18 - x13_18 >= -2
tri1_6_13_19: t6_13_19 - x6_13 <= 0
tri2_6_13_19: t6_13_19 - x6_19 <= 0
tri3_6_13_19: t6_13_19 - x13_19 <= 0
tri4_6_13_19: t6_13_19 - x6_13 - x6_19 - x13_19 >= -2
tri1_6_13_20: t6_13_20 - x6_13 <= 0
tri2_6_13_20: t6_13_20 - x6_20 <= 0
tri3_6_13_20: t6_13_20 - x13_20 <= 0
tri4_6_13_20: t6_13_20 - x6_13 - x6_20 - x13_20 >= -2
tri1_6_13_21: t6_13_21 - x6_13 <= 0
tri2_6_13_21: t6_13_21 - x6_21 <= 0
tri3_6_13_21: t6_13_21 - x13_21 <= 0
tri4_6_13_21: t6_13_21 - x6_13 - x6_21 - x13_21 >= -2
tri1_6_14_15: t6_14_15 - x6_14 <= 0
tri2_6_14_15: t6_14_15 - x6_15 <= 0
tri3_6_14_15: t6_14_15 - x14_15 <= 0
tri4_6_14_15: t6_14_15 - x6_14 - x6_15 - x14_15 >= -2
tri1_6_14_16: t6_14_16 - x6_14 <= 0
tri2_6_14_16: t6_14_16 - x6_16 <= 0
tri3_6_14_16: t6_14_16 - x14_16 <= 0
tri4_6_14_16: t6_14_16 - x6_14 - x6_16 - x14_16 >= -2
tri1_6_14_17: t6_14_17 - x6_14 <= 0
tri2_6_14_17: t6_14_17 - x6_17 <= 0
tri3_6_14_17: t6_14_17 - x14_17 <= 0
tri4_6_14_17: t6_14_17 - x6_14 - x6_17 - x14_17 >= -2
tri1_6_14_18: t6_14_18 - x6_14 <= 0
tri2_6_14_18: t6_14_18 - x6_18 <= 0
tri3_6_14_18: t6_14_18 - x14_18 <= 0
tri4_6_14_18: t6_14_18 - x6_14 - x6_18 - x14_18 >= -2
tri1_6_14_19: t6_14_19 - x6_14 <= 0
tri2_6_14_19: t6_14_19 - x6_19 <= 0
tri3_6_14_19: t6_14_19 - x14_19 <= 0
tri4_6_14_19: t6_14_19 - x6_14 - x6_19 - x14_19 >= -2
tri1_6_14_20: t6_14_20 - x6_14 <= 0
tri2_6_14_20: t6_14_20 - x6_20 <= 0
tri3_6_14_20: t6_14_20 - x14_20 <= 0
tri4_6_14_20: t6_14_20 - x6_14 - x6_20 - x14_20 >= -2
tri1_6_14_21: t6_14_21 - x6_14 <= 0
tri2_6_14_21: t6_14_21 - x6_21 <= 0
tri3_6_14_21: t6_14_21 - x14_21 <= 0
tri4_6_14_21: t6_14_21 - x6_14 - x6_21 - x14_21 >= -2
tri1_6_15_16: t6_15_16 - x6_15 <= 0
tri2_6_15_16: t6_15_16 - x6_16 <= 0
tri3_6_15_16: t6_15_16 - x15_16 <= 0
tri4_6_15_16: t6_15_16 - x6_15 - x6_16 - x15_16 >= -2
tri1_6_15_17: t6_15_17 - x6_15 <= 0
tri2_6_15_17: t6_15_17 - x6_17 <= 0
tri3_6_15_17: t6_15_17 - x15_17 <= 0
tri4_6_15_17: t6_15_17 - x6_15 - x6_17 - x15_17 >= -2
tri1_6_15_18: t6_15_18 - x6_15 <= 0
tri2_6_15_18: t6_15_18 - x6_18 <= 0
tri3_6_15_18: t6_15_18 - x15_18 <= 0
tri4_6_15_18: t6_15_18 - x6_15 - x6_18 - x15_18 >= -2
tri1_6_15_19: t6_15_19 - x6_15 <= 0
tri2_6_15_19: t6_15_19 - x6_19 <= 0
tri3_6_15_19: t6_15_19 - x15_19 <= 0
tri4_6_15_19: t6_15_19 - x6_15 - x6_19 - x15_19 >= -2
tri1_6_15_20: t6_15_20 - x6_15 <= 0
tri2_6_15_20: t6_15_20 - x6_20 <= 0
tri3_6_15_20: t6_15_20 - x15_20 <= 0
tri4_6_15_20: t6_15_20 - x6_15 - x6_20 - x15_20 >= -2
tri1_6_15_21: t6_15_21 - x6_15 <= 0
tri2_6_15_21: t6_15_21 - x6_21 <= 0
tri3_6_15_21: t6_15_21 - x15_21 <= 0
tri4_6_15_21: t6_15_21 - x6_15 - x6_21 - x15_21 >= -2
tri1_6_16_17: t6_16_17 - x6_16 <= 0
tri2_6_16_17: t6_16_17 - x6_17 <= 0
tri3_6_16_17: t6_16_17 - x16_17 <= 0
tri4_6_16_17: t6_16_17 - x6_16 - x6_17 - x16_17 >= -2
tri1_6_16_18: t6_16_18 - x6_16 <= 0
tri2_6_16_18: t6_16_18 - x6_18 <= 0
tri3_6_16_18: t6_16_18 - x16_18 <= 0
tri4_6_16_18: t6_16_18 - x6_16 - x6_18 - x16_18 >= -2
tri1_6_16_19: t6_16_19 - x6_16 <= 0
tri2_6_16_19: t6_16_19 - x6_19 <= 0
tri3_6_16_19: t6_16_19 - x16_19 <= 0
tri4_6_16_19: t6_16_19 - x6_16 - x6_19 - x16_19 >= -2
tri1_6_16_20: t6_16_20 - x6_16 <= 0
tri2_6_16_20: t6_16_20 - x6_20 <= 0
tri3_6_16_20: t6_16_20 - x16_20 <= 0
tri4_6_16_20: t6_16_20 - x6_16 - x6_20 - x16_20 >= -2
tri1_6_16_21: t6_16_21 - x6_16 <= 0
tri2_6_16_21: t6_16_21 - x6_21 <= 0
tri3_6_16_21: t6_16_21 - x16_21 <= 0
tri4_6_16_21: t6_16_21 - x6_16 - x6_21 - x16_21 >= -2
tri1_6_17_18: t6_17_18 - x6_17 <= 0
tri2_6_17_18: t6_17_18 - x6_18 <= 0
tri3_6_17_18: t6_17_18 - x17_18 <= 0
tri4_6_17_18: t6_17_18 - x6_17 - x6_18 - x17_18 >= -2
tri1_6_17_19: t6_17_19 - x6_17 <= 0
tri2_6_17_19: t6_17_19 - x6_19 <= 0
tri3_6_17_19: t6_17_19 - x17_19 <= 0
tri4_6_17_19: t6_17_19 - x6_17 - x6_19 - x17_19 >= -2
tri1_6_17_20: t6_17_20 - x6_17 <= 0
tri2_6_17_20: t6_17_20 - x6_20 <= 0
tri3_6_17_20: t6_17_20 - x17_20 <= 0
tri4_6_17_20: t6_17_20 - x6_17 - x6_20 - x17_20 >= -2
tri1_6_17_21: t6_17_21 - x6_17 <= 0
tri2_6_17_21: t6_17_21 - x6_21 <= 0
tri3_6_17_21: t6_17_21 - x17_21 <= 0
tri4_6_17_21: t6_17_21 - x6_17 - x6_21 - x17_21 >= -2
tri1_6_18_19: t6_18_19 - x6_18 <= 0
tri2_6_18_19: t6_18_19 - x6_19 <= 0
tri3_6_18_19: t6_18_19 - x18_19 <= 0
tri4_6_18_19: t6_18_19 - x6_18 - x6_19 - x18_19 >= -2
tri1_6_18_20: t6_18_20 - x6_18 <= 0
tri2_6_18_20: t6_18_20 - x6_20 <= 0
tri3_6_18_20: t6_18_20 - x18_20 <= 0
tri4_6_18_20: t6_18_20 - x6_18 - x6_20 - x18_20 >= -2
tri1_6_18_21: t6_18_21 - x6_18 <= 0
tri2_6_18_21: t6_18_21 - x6_21 <= 0
tri3_6_18_21: t6_18_21 - x18_21 <= 0
tri4_6_18_21: t6_18_21 - x6_18 - x6_21 - x18_21 >= -2
tri1_6_19_20: t6_19_20 - x6_19 <= 0
tri2_6_19_20: t6_19_20 - x6_20 <= 0
tri3_6_19_20: t6_19_20 - x19_20 <= 0
tri4_6_19_20: t6_19_20 - x6_19 - x6_20 - x19_20 >= -2
tri1_6_19_21: t6_19_21 - x6_19 <= 0
tri2_6_19_21: t6_19_21 - x6_21 <= 0
tri3_6_19_21: t6_19_21 - x19_21 <= 0
tri4_6_19_21: t6_19_21 - x6_19 - x6_21 - x19_21 >= -2
tri1_6_20_21: t6_20_21 - x6_20 <= 0
tri2_6_20_21: t6_20_21 - x6_21 <= 0
tri3_6_20_21: t6_20_21 - x20_21 <= 0
tri4_6_20_21: t6_20_21 - x6_20 - x6_21 - x20_21 >= -2
tri1_7_8_9: t7_8_9 - x7_8 <= 0
tri2_7_8_9: t7_8_9 - x7_9 <= 0
tri3_7_8_9: t7_8_9 - x8_9 <= 0
tri4_7_8_9: t7_8_9 - x7_8 - x7_9 - x8_9 >= -2
tri1_7_8_10: t7_8_10 - x7_8 <= 0
tri2_7_8_10: t7_8_10 - x7_10 <= 0
tri3_7_8_10: t7_8_10 - x8_10 <= 0
tri4_7_8_10: t7_8_10 - x7_8 - x7_10 - x8_10 >= -2
tri1_7_8_11: t7_8_11 - x7_8 <= 0
tri2_7_8_11: t7_8_11 - x7_11 <= 0
tri3_7_8_11: t7_8_11 - x8_11 <= 0
tri4_7_8_11: t7_8_11 - x7_8 - x7_11 - x8_11 >= -2
tri1_7_8_12: t7_8_12 - x7_8 <= 0
tri2_7_8_12: t7_8_12 - x7_12 <= 0
tri3_7_8_12: t7_8_12 - x8_12 <= 0
tri4_7_8_12: t7_8_12 - x7_8 - x7_12 - x8_12 >= -2
tri1_7_8_13: t7_8_13 - x7_8 <= 0
tri2_7_8_13: t7_8_13 - x7_13 <= 0
tri3_7_8_13: t7_8_13 - x8_13 <= 0
tri4_7_8_13: t7_8_13 - x7_8 - x7_13 - x8_13 >= -2
tri1_7_8_14: t7_8_14 - x7_8 <= 0
tri2_7_8_14: t7_8_14 - x7_14 <= 0
tri3_7_8_14: t7_8_14 - x8_14 <= 0
tri4_7_8_14: t7_8_14 - x7_8 - x7_14 - x8_14 >= -2
tri1_7_8_15: t7_8_15 - x7_8 <= 0
tri2_7_8_15: t7_8_15 - x7_15 <= 0
tri3_7_8_15: t7_8_15 - x8_15 <= 0
tri4_7_8_15: t7_8_15 - x7_8 - x7_15 - x8_15 >= -2
tri1_7_8_16: t7_8_16 - x7_8 <= 0
tri2_7_8_16: t7_8_16 - x7_16 <= 0
tri3_7_8_16: t7_8_16 - x8_16 <= 0
tri4_7_8_16: t7_8_16 - x7_8 - x7_16 - x8_16 >= -2
tri1_7_8_17: t7_8_17 - x7_8 <= 0
tri2_7_8_17: t7_8_17 - x7_17 <= 0
tri3_7_8_17: t7_8_17 - x8_17 <= 0
tri4_7_8_17: t7_8_17 - x7_8 - x7_17 - x8_17 >= -2
tri1_7_8_18: t7_8_18 - x7_8 <= 0
tri2_7_8_18: t7_8_18 - x7_18 <= 0
tri3_7_8_18: t7_8_18 - x8_18 <= 0
tri4_7_8_18: t7_8_18 - x7_8 - x7_18 - x8_18 >= -2
tri1_7_8_19: t7_8_19 - x7_8 <= 0
tri2_7_8_19: t7_8_19 - x7_19 <= 0
tri3_7_8_19: t7_8_19 - x8_19 <= 0
tri4_7_8_19: t7_8_19 - x7_8 - x7_19 - x8_19 >= -2
tri1_7_8_20: t7_8_20 - x7_8 <= 0
tri2_7_8_20: t7_8_20 - x7_20 <= 0
tri3_7_8_20: t7_8_20 - x8_20 <= 0
tri4_7_8_20: t7_8_20 - x7_8 - x7_20 - x8_20 >= -2
tri1_7_8_21: t7_8_21 - x7_8 <= 0
tri2_7_8_21: t7_8_21 - x7_21 <= 0
tri3_7_8_21: t7_8_21 - x8_21 <= 0
tri4_7_8_21: t7_8_21 - x7_8 - x7_21 - x8_21 >= -2
tri1_7_9_10: t7_9_10 - x7_9 <= 0
tri2_7_9_10: t7_9_10 - x7_10 <= 0
tri3_7_9_10: t7_9_10 - x9_10 <= 0
tri4_7_9_10: t7_9_10 - x7_9 - x7_10 - x9_10 >= -2
tri1_7_9_11: t7_9_11 - x7_9 <= 0
tri2_7_9_11: t7_9_11 - x7_11 <= 0
tri3_7_9_11: t7_9_11 - x9_11 <= 0
tri4_7_9_11: t7_9_11 - x7_9 - x7_11 - x9_11 >= -2
tri1_7_9_12: t7_9_12 - x7_9 <= 0
tri2_7_9_12: t7_9_12 - x7_12 <= 0
tri3_7_9_12: t7_9_12 - x9_12 <= 0
tri4_7_9_12: t7_9_12 - x7_9 - x7_12 - x9_12 >= -2
tri1_7_9_13: t7_9_13 - x7_9 <= 0
tri2_7_9_13: t7_9_13 - x7_13 <= 0
tri3_7_9_13: t7_9_13 - x9_13 <= 0
tri4_7_9_13: t7_9_13 - x7_9 - x7_13 - x9_13 >= -2
tri1_7_9_14: t7_9_14 - x7_9 <= 0
tri2_7_9_14: t7_9_14 - x7_14 <= 0
tri3_7_9_14: t7_9_14 - x9_14 <= 0
tri4_7_9_14: t7_9_14 - x7_9 - x7_14 - x9_14 >= -2
tri1_7_9_15: t7_9_15 - x7_9 <= 0
tri2_7_9_15: t7_9_15 - x7_15 <= 0
tri3_7_9_15: t7_9_15 - x9_15 <= 0
tri4_7_9_15: t7_9_15 - x7_9 - x7_15 - x9_15 >= -2
tri1_7_9_16: t7_9_16 - x7_9 <= 0
tri2_7_9_16: t7_9_16 - x7_16 <= 0
tri3_7_9_16: t7_9_16 - x9_16 <= 0
tri4_7_9_16: t7_9_16 - x7_9 - x7_16 - x9_16 >= -2
tri1_7_9_17: t7_9_17 - x7_9 <= 0
tri2_7_9_17: t7_9_17 - x7_17 <= 0
tri3_7_9_17: t7_9_17 - x9_17 <= 0
tri4_7_9_17: t7_9_17 - x7_9 - x7_17 - x9_17 >= -2
tri1_7_9_18: t7_9_18 - x7_9 <= 0
tri2_7_9_18: t7_9_18 - x7_18 <= 0
tri3_7_9_18: t7_9_18 - x9_18 <= 0
tri4_7_9_18: t7_9_18 - x7_9 - x7_18 - x9_18 >= -2
tri1_7_9_19: t7_9_19 - x7_9 <= 0
tri2_7_9_19: t7_9_19 - x7_19 <= 0
tri3_7_9_19: t7_9_19 - x9_19 <= 0
tri4_7_9_19: t7_9_19 - x7_9 - x7_19 - x9_19 >= -2
tri1_7_9_20: t7_9_20 - x7_9 <= 0
tri2_7_9_20: t7_9_20 - x7_20 <= 0
tri3_7_9_20: t7_9_20 - x9_20 <= 0
tri4_7_9_20: t7_9_20 - x7_9 - x7_20 - x9_20 >= -2
tri1_7_9_21: t7_9_21 - x7_9 <= 0
tri2_7_9_21: t7_9_21 - x7_21 <= 0
tri3_7_9_21: t7_9_21 - x9_21 <= 0
tri4_7_9_21: t7_9_21 - x7_9 - x7_21 - x9_21 >= -2
tri1_7_10_11: t7_10_11 - x7_10 <= 0
tri2_7_10_11: t7_10_11 - x7_11 <= 0
tri3_7_10_11: t7_10_11 - x10_11 <= 0
tri4_7_10_11: t7_10_11 - x7_10 - x7_11 - x10_11 >= -2
tri1_7_10_12: t7_10_12 - x7_10 <= 0
tri2_7_10_12: t7_10_12 - x7_12 <= 0
tri3_7_10_12: t7_10_12 - x10_12 <= 0
tri4_7_10_12: t7_10_12 - x7_10 - x7_12 - x10_12 >= -2
tri1_7_10_13: t7_10_13 - x7_10 <= 0
tri2_7_10_13: t7_10_13 - x7_13 <= 0
tri3_7_10_13: t7_10_13 - x10_13 <= 0
tri4_7_10_13: t7_10_13 - x7_10 - x7_13 - x10_13 >= -2
tri1_7_10_14: t7_10_14 - x7_10 <= 0
tri2_7_10_14: t7_10_14 - x7_14 <= 0
tri3_7_10_14: t7_10_14 - x10_14 <= 0
tri4_7_10_14: t7_10_14 - x7_10 - x7_14 - x10_14 >= -2
tri1_7_10_15: t7_10_15 - x7_10 <= 0
tri2_7_10_15: t7_10_15 - x7_15 <= 0
tri3_7_10_15: t7_10_15 - x10_15 <= 0
tri4_7_10_15: t7_10_15 - x7_10 - x7_15 - x10_15 >= -2
tri1_7_10_16: t7_10_16 - x7_10 <= 0
tri2_7_10_16: t7_10_16 - x7_16 <= 0
tri3_7_10_16: t7_10_16 - x10_16 <= 0
tri4_7_10_16: t7_10_16 - x7_10 - x7_16 - x10_16 >= -2
tri1_7_10_17: t7_10_17 - x7_10 <= 0
tri2_7_10_17: t7_10_17 - x7_17 <= 0
tri3_7_10_17: t7_10_17 - x10_17 <= 0
tri4_7_10_17: t7_10_17 - x7_10 - x7_17 - x10_17 >= -2
tri1_7_10_18: t7_10_18 - x7_10 <= 0
tri2_7_10_18: t7_10_18 - x7_18 <= 0
tri3_7_10_18: t7_10_18 - x10_18 <= 0
tri4_7_10_18: t7_10_18 - x7_10 - x7_18 - x10_18 >= -2
tri1_7_10_19: t7_10_19 - x7_10 <= 0
tri2_7_10_19: t7_10_19 - x7_19 <= 0
tri3_7_10_19: t7_10_19 - x10_19 <= 0
tri4_7_10_19: t7_10_19 - x7_10 - x7_19 - x10_19 >= -2
tri1_7_10_20: t7_10_20 - x7_10 <= 0
tri2_7_10_20: t7_10_20 - x7_20 <= 0
tri3_7_10_20: t7_10_20 - x10_20 <= 0
tri4_7_10_20: t7_10_20 - x7_10 - x7_20 - x10_20 >= -2
tri1_7_10_21: t7_10_21 - x7_10 <= 0
tri2_7_10_21: t7_10_21 - x7_21 <= 0
tri3_7_10_21: t7_10_21 - x10_21 <= 0
tri4_7_10_21: t7_10_21 - x7_10 - x7_21 - x10_21 >= -2
tri1_7_11_12: t7_11_12 - x7_11 <= 0
tri2_7_11_12: t7_11_12 - x7_12 <= 0
tri3_7_11_12: t7_11_12 - x11_12 <= 0
tri4_7_11_12: t7_11_12 - x7_11 - x7_12 - x11_12 >= -2
tri1_7_11_13: t7_11_13 - x7_11 <= 0
tri2_7_11_13: t7_11_13 - x7_13 <= 0
tri3_7_11_13: t7_11_13 - x11_13 <= 0
tri4_7_11_13: t7_11_13 - x7_11 - x7_13 - x11_13 >= -2
tri1_7_11_14: t7_11_14 - x7_11 <= 0
tri2_7_11_14: t7_11_14 - x7_14 <= 0
tri3_7_11_14: t7_11_14 - x11_14 <= 0
tri4_7_11_14: t7_11_14 - x7_11 - x7_14 - x11_14 >= -2
tri1_7_11_15: t7_11_15 - x7_11 <= 0
tri2_7_11_15: t7_11_15 - x7_15 <= 0
tri3_7_11_15: t7_11_15 - x11_15 <= 0
tri4_7_11_15: t7_11_15 - x7_11 - x7_15 - x11_15 >= -2
tri1_7_11_16: t7_11_16 - x7_11 <= 0
tri2_7_11_16: t7_11_16 - x7_16 <= 0
tri3_7_11_16: t7_11_16 - x11_16 <= 0
tri4_7_11_16: t7_11_16 - x7_11 - x7_16 - x11_16 >= -2
tri1_7_11_17: t7_11_17 - x7_11 <= 0
tri2_7_11_17: t7_11_17 - x7_17 <= 0
tri3_7_11_17: t7_11_17 - x11_17 <= 0
tri4_7_11_17: t7_11_17 - x7_11 - x7_17 - x11_17 >= -2
tri1_7_11_18: t7_11_18 - x7_11 <= 0
tri2_7_11_18: t7_11_18 - x7_18 <= 0
tri3_7_11_18: t7_11_18 - x11_18 <= 0
tri4_7_11_18: t7_11_18 - x7_11 - x7_18 - x11_18 >= -2
tri1_7_11_19: t7_11_19 - x7_11 <= 0
tri2_7_11_19: t7_11_19 - x7_19 <= 0
tri3_7_11_19: t7_11_19 - x11_19 <= 0
tri4_7_11_19: t7_11_19 - x7_11 - x7_19 - x11_19 >= -2
tri1_7_11_20: t7_11_20 - x7_11 <= 0
tri2_7_11_20: t7_11_20 - x7_20 <= 0
tri3_7_11_20: t7_11_20 - x11_20 <= 0
tri4_7_11_20: t7_11_20 - x7_11 - x7_20 - x11_20 >= -2
tri1_7_11_21: t7_11_21 - x7_11 <= 0
tri2_7_11_21: t7_11_21 - x7_21 <= 0
tri3_7_11_21: t7_11_21 - x11_21 <= 0
tri4_7_11_21: t7_11_21 - x7_11 - x7_21 - x11_21 >= -2
tri1_7_12_13: t7_12_13 - x7_12 <= 0
tri2_7_12_13: t7_12_13 - x7_13 <= 0
tri3_7_12_13: t7_12_13 - x12_13 <= 0
tri4_7_12_13: t7_12_13 - x7_12 - x7_13 - x12_13 >= -2
tri1_7_12_14: t7_12_14 - x7_12 <= 0
tri2_7_12_14: t7_12_14 - x7_14 <= 0
tri3_7_12_14: t7_12_14 - x12_14 <= 0
tri4_7_12_14: t7_12_14 - x7_12 - x7_14 - x12_14 >= -2
tri1_7_12_15: t7_12_15 - x7_12 <= 0
tri2_7_12_15: t7_12_15 - x7_15 <= 0
tri3_7_12_15: t7_12_15 - x12_15 <= 0
tri4_7_12_15: t7_12_15 - x7_12 - x7_15 - x12_15 >= -2
tri1_7_12_16: t7_12_16 - x7_12 <= 0
tri2_7_12_16: t7_12_16 - x7_16 <= 0
tri3_7_12_16: t7_12_16 - x12_16 <= 0
tri4_7_12_16: t7_12_16 - x7_12 - x7_16 - x12_16 >= -2
tri1_7_12_17: t7_12_17 - x7_12 <= 0
tri2_7_12_17: t7_12_17 - x7_17 <= 0
tri3_7_12_17: t7_12_17 - x12_17 <= 0
tri4_7_12_17: t7_12_17 - x7_12 - x7_17 - x12_17 >= -2
tri1_7_12_18: t7_12_18 - x7_12 <= 0
tri2_7_12_18: t7_12_18 - x7_18 <= 0
tri3_7_12_18: t7_12_18 - x12_18 <= 0
tri4_7_12_18: t7_12_18 - x7_12 - x7_18 - x12_18 >= -2
tri1_7_12_19: t7_12_19 - x7_12 <= 0
tri2_7_12_19: t7_12_19 - x7_19 <= 0
tri3_7_12_19: t7_12_19 - x12_19 <= 0
tri4_7_12_19: t7_12_19 - x7_12 - x7_19 - x12_19 >= -2
tri1_7_12_20: t7_12_20 - x7_12 <= 0
tri2_7_12_20: t7_12_20 - x7_20 <= 0
tri3_7_12_20: t7_12_20 - x12_20 <= 0
tri4_7_12_20: t7_12_20 - x7_12 - x7_20 - x12_20 >= -2
tri1_7_12_21: t7_12_21 - x7_12 <= 0
tri2_7_12_21: t7_12_21 - x7_21 <= 0
tri3_7_12_21: t7_12_21 - x12_21 <= 0
tri4_7_12_21: t7_12_21 - x7_12 - x7_21 - x12_21 >= -2
tri1_7_13_14: t7_13_14 - x7_13 <= 0
tri2_7_13_14: t7_13_14 - x7_14 <= 0
tri3_7_13_14: t7_13_14 - x13_14 <= 0
tri4_7_13_14: t7_13_14 - x7_13 - x7_14 - x13_14 >= -2
tri1_7_13_15: t7_13_15 - x7_13 <= 0
tri2_7_13_15: t7_13_15 - x7_15 <= 0
tri3_7_13_15: t7_13_15 - x13_15 <= 0
tri4_7_13_15: t7_13_15 - x7_13 - x7_15 - x13_15 >= -2
tri1_7_13_16: t7_13_16 - x7_13 <= 0
tri2_7_13_16: t7_13_16 - x7_16 <= 0
tri3_7_13_16: t7_13_16 - x13_16 <= 0
tri4_7_13_16: t7_13_16 - x7_13 - x7_16 - x13_16 >= -2
tri1_7_13_17: t7_13_17 - x7_13 <= 0
tri2_7_13_17: t7_13_17 - x7_17 <= 0
tri3_7_13_17: t7_13_17 - x13_17 <= 0
tri4_7_13_17: t7_13_17 - x7_13 - x7_17 - x13_17 >= -2
tri1_7_13_18: t7_13_18 - x7_13 <= 0
tri2_7_13_18: t7_13_18 - x7_18 <= 0
tri3_7_13_18: t7_13_18 - x13_18 <= 0
tri4_7_13_18: t7_13_18 - x7_13 - x7_18 - x13_18 >= -2
tri1_7_13_19: t7_13_19 - x7_13 <= 0
tri2_7_13_19: t7_13_19 - x7_19 <= 0
tri3_7_13_19: t7_13_19 - x13_19 <= 0
tri4_7_13_19: t7_13_19 - x7_13 - x7_19 - x13_19 >= -2
tri1_7_13_20: t7_13_20 - x7_13 <= 0
tri2_7_13_20: t7_13_20 - x7_20 <= 0
tri3_7_13_20: t7_13_20 - x13_20 <= 0
tri4_7_13_20: t7_13_20 - x7_13 - x7_20 - x13_20 >= -2
tri1_7_13_21: t7_13_21 - x7_13 <= 0
tri2_7_13_21: t7_13_21 - x7_21 <= 0
tri3_7_13_21: t7_13_21 - x13_21 <= 0
tri4_7_13_21: t7_13_21 - x7_13 - x7_21 - x13_21 >= -2
tri1_7_14_15: t7_14_15 - x7_14 <= 0
tri2_7_14_15: t7_14_15 - x7_15 <= 0
tri3_7_14_15: t7_14_15 - x14_15 <= 0
tri4_7_14_15: t7_14_15 - x7_14 - x7_15 - x14_15 >= -2
tri1_7_14_16: t7_14_16 - x7_14 <= 0
tri2_7_14_16: t7_14_16 - x7_16 <= 0
tri3_7_14_16: t7_14_16 - x14_16 <= 0
tri4_7_14_16: t7_14_16 - x7_14 - x7_16 - x14_16 >= -2
tri1_7_14_17: t7_14_17 - x7_14 <= 0
tri2_7_14_17: t7_14_17 - x7_17 <= 0
tri3_7_14_17: t7_14_17 - x14_17 <= 0
tri4_7_14_17: t7_14_17 - x7_14 - x7_17 - x14_17 >= -2
tri1_7_14_18: t7_14_18 - x7_14 <= 0
tri2_7_14_18: t7_14_18 - x7_18 <= 0
tri3_7_14_18: t7_14_18 - x14_18 <= 0
tri4_7_14_18: t7_14_18 - x7_14 - x7_18 - x14_18 >= -2
tri1_7_14_19: t7_14_19 - x7_14 <= 0
tri2_7_14_19: t7_14_19 - x7_19 <= 0
tri3_7_14_19: t7_14_19 - x14_19 <= 0
tri4_7_14_19: t7_14_19 - x7_14 - x7_19 - x14_19 >= -2
tri1_7_14_20: t7_14_20 - x7_14 <= 0
tri2_7_14_20: t7_14_20 - x7_20 <= 0
tri3_7_14_20: t7_14_20 - x14_20 <= 0
tri4_7_14_20: t7_14_20 - x7_14 - x7_20 - x14_20 >= -2
tri1_7_14_21: t7_14_21 - x7_14 <= 0
tri2_7_14_21: t7_14_21 - x7_21 <= 0
tri3_7_14_21: t7_14_21 - x14_21 <= 0
tri4_7_14_21: t7_14_21 - x7_14 - x7_21 - x14_21 >= -2
tri1_7_15_16: t7_15_16 - x7_15 <= 0
tri2_7_15_16: t7_15_16 - x7_16 <= 0
tri3_7_15_16: t7_15_16 - x15_16 <= 0
tri4_7_15_16: t7_15_16 - x7_15 - x7_16 - x15_16 >= -2
tri1_7_15_17: t7_15_17 - x7_15 <= 0
tri2_7_15_17: t7_15_17 - x7_17 <= 0
tri3_7_15_17: t7_15_17 - x15_17 <= 0
tri4_7_15_17: t7_15_17 - x7_15 - x7_17 - x15_17 >= -2
tri1_7_15_18: t7_15_18 - x7_15 <= 0
tri2_7_15_18: t7_15_18 - x7_18 <= 0
tri3_7_15_18: t7_15_18 - x15_18 <= 0
tri4_7_15_18: t7_15_18 - x7_15 - x7_18 - x15_18 >= -2
tri1_7_15_19: t7_15_19 - x7_15 <= 0
tri2_7_15_19: t7_15_19 - x7_19 <= 0
tri3_7_15_19: t7_15_19 - x15_19 <= 0
tri4_7_15_19: t7_15_19 - x7_15 - x7_19 - x15_19 >= -2
tri1_7_15_20: t7_15_20 - x7_15 <= 0
tri2_7_15_20: t7_15_20 - x7_20 <= 0
tri3_7_15_20: t7_15_20 - x15_20 <= 0
tri4_7_15_20: t7_15_20 - x7_15 - x7_20 - x15_20 >= -2
tri1_7_15_21: t7_15_21 - x7_15 <= 0
tri2_7_15_21: t7_15_21 - x7_21 <= 0
tri3_7_15_21: t7_15_21 - x15_21 <= 0
tri4_7_15_21: t7_15_21 - x7_15 - x7_21 - x15_21 >= -2
tri1_7_16_17: t7_16_17 - x7_16 <= 0
tri2_7_16_17: t7_16_17 - x7_17 <= 0
tri3_7_16_17: t7_16_17 - x16_17 <= 0
tri4_7_16_17: t7_16_17 - x7_16 - x7_17 - x16_17 >= -2
tri1_7_16_18: t7_16_18 - x7_16 <= 0
tri2_7_16_18: t7_16_18 - x7_18 <= 0
tri3_7_16_18: t7_16_18 - x16_18 <= 0
tri4_7_16_18: t7_16_18 - x7_16 - x7_18 - x16_18 >= -2
tri1_7_16_19: t7_16_19 - x7_16 <= 0
tri2_7_16_19: t7_16_19 - x7_19 <= 0
tri3_7_16_19: t7_16_19 - x16_19 <= 0
tri4_7_16_19: t7_16_19 - x7_16 - x7_19 - x16_19 >= -2
tri1_7_16_20: t7_16_20 - x7_16 <= 0
tri2_7_16_20: t7_16_20 - x7_20 <= 0
tri3_7_16_20: t7_16_20 - x16_20 <= 0
tri4_7_16_20: t7_16_20 - x7_16 - x7_20 - x16_20 >= -2
tri1_7_16_21: t7_16_21 - x7_16 <= 0
tri2_7_16_21: t7_16_21 - x7_21 <= 0
tri3_7_16_21: t7_16_21 - x16_21 <= 0
tri4_7_16_21: t7_16_21 - x7_16 - x7_21 - x16_21 >= -2
tri1_7_17_18: t7_17_18 - x7_17 <= 0
tri2_7_17_18: t7_17_18 - x7_18 <= 0
tri3_7_17_18: t7_17_18 - x17_18 <= 0
tri4_7_17_18: t7_17_18 - x7_17 - x7_18 - x17_18 >= -2
tri1_7_17_19: t7_17_19 - x7_17 <= 0
tri2_7_17_19: t7_17_19 - x7_19 <= 0
tri3_7_17_19: t7_17_19 - x17_19 <= 0
tri4_7_17_19: t7_17_19 - x7_17 - x7_19 - x17_19 >= -2
tri1_7_17_20: t7_17_20 - x7_17 <= 0
tri2_7_17_20: t7_17_20 - x7_20 <= 0
tri3_7_17_20: t7_17_20 - x17_20 <= 0
tri4_7_17_20: t7_17_20 - x7_17 - x7_20 - x17_20 >= -2
tri1_7_17_21: t7_17_21 - x7_17 <= 0
tri2_7_17_21: t7_17_21 - x7_21 <= 0
tri3_7_17_21: t7_17_21 - x17_21 <= 0
tri4_7_17_21: t7_17_21 - x7_17 - x7_21 - x17_21 >= -2
tri1_7_18_19: t7_18_19 - x7_18 <= 0
tri2_7_18_19: t7_18_19 - x7_19 <= 0
tri3_7_18_19: t7_18_19 - x18_19 <= 0
tri4_7_18_19: t7_18_19 - x7_18 - x7_19 - x18_19 >= -2
tri1_7_18_20: t7_18_20 - x7_18 <= 0
tri2_7_18_20: t7_18_20 - x7_20 <= 0
tri3_7_18_20: t7_18_20 - x18_20 <= 0
tri4_7_18_20: t7_18_20 - x7_18 - x7_20 - x18_20 >= -2
tri1_7_18_21: t7_18_21 - x7_18 <= 0
tri2_7_18_21: t7_18_21 - x7_21 <= 0
tri3_7_18_21: t7_18_21 - x18_21 <= 0
tri4_7_18_21: t7_18_21 - x7_18 - x7_21 - x18_21 >= -2
tri1_7_19_20: t7_19_20 - x7_19 <= 0
tri2_7_19_20: t7_19_20 - x7_20 <= 0
tri3_7_19_20: t7_19_20 - x19_20 <= 0
tri4_7_19_20: t7_19_20 - x7_19 - x7_20 - x19_20 >= -2
tri1_7_19_21: t7_19_21 - x7_19 <= 0
tri2_7_19_21: t7_19_21 - x7_21 <= 0
tri3_7_19_21: t7_19_21 - x19_21 <= 0
tri4_7_19_21: t7_19_21 - x7_19 - x7_21 - x19_21 >= -2
tri1_7_20_21: t7_20_21 - x7_20 <= 0
tri2_7_20_21: t7_20_21 - x7_21 <= 0
tri3_7_20_21: t7_20_21 - x20_21 <= 0
tri4_7_20_21: t7_20_21 - x7_20 - x7_21 - x20_21 >= -2
tri1_8_9_10: t8_9_10 - x8_9 <= 0
tri2_8_9_10: t8_9_10 - x8_10 <= 0
tri3_8_9_10: t8_9_10 - x9_10 <= 0
tri4_8_9_10: t8_9_10 - x8_9 - x8_10 - x9_10 >= -2
tri1_8_9_11: t8_9_11 - x8_9 <= 0
tri2_8_9_11: t8_9_11 - x8_11 <= 0
tri3_8_9_11: t8_9_11 - x9_11 <= 0
tri4_8_9_11: t8_9_11 - x8_9 - x8_11 - x9_11 >= -2
tri1_8_9_12: t8_9_12 - x8_9 <= 0
tri2_8_9_12: t8_9_12 - x8_12 <= 0
tri3_8_9_12: t8_9_12 - x9_12 <= 0
tri4_8_9_12: t8_9_12 - x8_9 - x8_12 - x9_12 >= -2
tri1_8_9_13: t8_9_13 - x8_9 <= 0
tri2_8_9_13: t8_9_13 - x8_13 <= 0
tri3_8_9_13: t8_9_13 - x9_13 <= 0
tri4_8_9_13: t8_9_13 - x8_9 - x8_13 - x9_13 >= -2
tri1_8_9_14: t8_9_14 - x8_9 <= 0
tri2_8_9_14: t8_9_14 - x8_14 <= 0
tri3_8_9_14: t8_9_14 - x9_14 <= 0
tri4_8_9_14: t8_9_14 - x8_9 - x8_14 - x9_14 >= -2
tri1_8_9_15: t8_9_15 - x8_9 <= 0
tri2_8_9_15: t8_9_15 - x8_15 <= 0
tri3_8_9_15: t8_9_15 - x9_15 <= 0
tri4_8_9_15: t8_9_15 - x8_9 - x8_15 - x9_15 >= -2
tri1_8_9_16: t8_9_16 - x8_9 <= 0
tri2_8_9_16: t8_9_16 - x8_16 <= 0
tri3_8_9_16: t8_9_16 - x9_16 <= 0
tri4_8_9_16: t8_9_16 - x8_9 - x8_16 - x9_16 >= -2
tri1_8_9_17: t8_9_17 - x8_9 <= 0
tri2_8_9_17: t8_9_17 - x8_17 <= 0
tri3_8_9_17: t8_9_17 - x9_17 <= 0
tri4_8_9_17: t8_9_17 - x8_9 - x8_17 - x9_17 >= -2
tri1_8_9_18: t8_9_18 - x8_9 <= 0
tri2_8_9_18: t8_9_18 - x8_18 <= 0
tri3_8_9_18: t8_9_18 - x9_18 <= 0
tri4_8_9_18: t8_9_18 - x8_9 - x8_18 - x9_18 >= -2
tri1_8_9_19: t8_9_19 - x8_9 <= 0
tri2_8_9_19: t8_9_19 - x8_19 <= 0
tri3_8_9_19: t8_9_19 - x9_19 <= 0
tri4_8_9_19: t8_9_19 - x8_9 - x8_19 - x9_19 >= -2
tri1_8_9_20: t8_9_20 - x8_9 <= 0
tri2_8_9_20: t8_9_20 - x8_20 <= 0
tri3_8_9_20: t8_9_20 - x9_20 <= 0
tri4_8_9_20: t8_9_20 - x8_9 - x8_20 - x9_20 >= -2
tri1_8_9_21: t8_9_21 - x8_9 <= 0
tri2_8_9_21: t8_9_21 - x8_21 <= 0
tri3_8_9_21: t8_9_21 - x9_21 <= 0
tri4_8_9_21: t8_9_21 - x8_9 - x8_21 - x9_21 >= -2
tri1_8_10_11: t8_10_11 - x8_10 <= 0
tri2_8_10_11: t8_10_11 - x8_11 <= 0
tri3_8_10_11: t8_10_11 - x10_11 <= 0
tri4_8_10_11: t8_10_11 - x8_10 - x8_11 - x10_11 >= -2
tri1_8_10_12: t8_10_12 - x8_10 <= 0
tri2_8_10_12: t8_10_12 - x8_12 <= 0
tri3_8_10_12: t8_10_12 - x10_12 <= 0
tri4_8_10_12: t8_10_12 - x8_10 - x8_12 - x10_12 >= -2
tri1_8_10_13: t8_10_13 - x8_10 <= 0
tri2_8_10_13: t8_10_13 - x8_13 <= 0
tri3_8_10_13: t8_10_13 - x10_13 <= 0
tri4_8_10_13: t8_10_13 - x8_10 - x8_13 - x10_13 >= -2
tri1_8_10_14: t8_10_14 - x8_10 <= 0
tri2_8_10_14: t8_10_14 - x8_14 <= 0
tri3_8_10_14: t8_10_14 - x10_14 <= 0
tri4_8_10_14: t8_10_14 - x8_10 - x8_14 - x10_14 >= -2
tri1_8_10_15: t8_10_15 - x8_10 <= 0
tri2_8_10_15: t8_10_15 - x8_15 <= 0
tri3_8_10_15: t8_10_15 - x10_15 <= 0
tri4_8_10_15: t8_10_15 - x8_10 - x8_15 - x10_15 >= -2
tri1_8_10_16: t8_10_16 - x8_10 <= 0
tri2_8_10_16: t8_10_16 - x8_16 <= 0
tri3_8_10_16: t8_10_16 - x10_16 <= 0
tri4_8_10_16: t8_10_16 - x8_10 - x8_16 - x10_16 >= -2
tri1_8_10_17: t8_10_17 - x8_10 <= 0
tri2_8_10_17: t8_10_17 - x8_17 <= 0
tri3_8_10_17: t8_10_17 - x10_17 <= 0
tri4_8_10_17: t8_10_17 - x8_10 - x8_17 - x10_17 >= -2
tri1_8_10_18: t8_10_18 - x8_10 <= 0
tri2_8_10_18: t8_10_18 - x8_18 <= 0
tri3_8_10_18: t8_10_18 - x10_18 <= 0
tri4_8_10_18: t8_10_18 - x8_10 - x8_18 - x10_18 >= -2
tri1_8_10_19: t8_10_19 - x8_10 <= 0
tri2_8_10_19: t8_10_19 - x8_19 <= 0
tri3_8_10_19: t8_10_19 - x10_19 <= 0
tri4_8_10_19: t8_10_19 - x8_10 - x8_19 - x10_19 >= -2
tri1_8_10_20: t8_10_20 - x8_10 <= 0
tri2_8_10_20: t8_10_20 - x8_20 <= 0
tri3_8_10_20: t8_10_20 - x10_20 <= 0
tri4_8_10_20: t8_10_20 - x8_10 - x8_20 - x10_20 >= -2
tri1_8_10_21: t8_10_21 - x8_10 <= 0
tri2_8_10_21: t8_10_21 - x8_21 <= 0
tri3_8_10_21: t8_10_21 - x10_21 <= 0
tri4_8_10_21: t8_10_21 - x8_10 - x8_21 - x10_21 >= -2
tri1_8_11_12: t8_11_12 - x8_11 <= 0
tri2_8_11_12: t8_11_12 - x8_12 <= 0
tri3_8_11_12: t8_11_12 - x11_12 <= 0
tri4_8_11_12: t8_11_12 - x8_11 - x8_12 - x11_12 >= -2
tri1_8_11_13: t8_11_13 - x8_11 <= 0
tri2_8_11_13: t8_11_13 - x8_13 <= 0
tri3_8_11_13: t8_11_13 - x11_13 <= 0
tri4_8_11_13: t8_11_13 - x8_11 - x8_13 - x11_13 >= -2
tri1_8_11_14: t8_11_14 - x8_11 <= 0
tri2_8_11_14: t8_11_14 - x8_14 <= 0
tri3_8_11_14: t8_11_14 - x11_14 <= 0
tri4_8_11_14: t8_11_14 - x8_11 - x8_14 - x11_14 >= -2
tri1_8_11_15: t8_11_15 - x8_11 <= 0
tri2_8_11_15: t8_11_15 - x8_15 <= 0
tri3_8_11_15: t8_11_15 - x11_15 <= 0
tri4_8_11_15: t8_11_15 - x8_11 - x8_15 - x11_15 >= -2
tri1_8_11_16: t8_11_16 - x8_11 <= 0
tri2_8_11_16: t8_11_16 - x8_16 <= 0
tri3_8_11_16: t8_11_16 - x11_16 <= 0
tri4_8_11_16: t8_11_16 - x8_11 - x8_16 - x11_16 >= -2
tri1_8_11_17: t8_11_17 - x8_11 <= 0
tri2_8_11_17: t8_11_17 - x8_17 <= 0
tri3_8_11_17: t8_11_17 - x11_17 <= 0
tri4_8_11_17: t8_11_17 - x8_11 - x8_17 - x11_17 >= -2
tri1_8_11_18: t8_11_18 - x8_11 <= 0
tri2_8_11_18: t8_11_18 - x8_18 <= 0
tri3_8_11_18: t8_11_18 - x11_18 <= 0
tri4_8_11_18: t8_11_18 - x8_11 - x8_18 - x11_18 >= -2
tri1_8_11_19: t8_11_19 - x8_11 <= 0
tri2_8_11_19: t8_11_19 - x8_19 <= 0
tri3_8_11_19: t8_11_19 - x11_19 <= 0
tri4_8_11_19: t8_11_19 - x8_11 - x8_19 - x11_19 >= -2
tri1_8_11_20: t8_11_20 - x8_11 <= 0
tri2_8_11_20: t8_11_20 - x8_20 <= 0
tri3_8_11_20: t8_11_20 - x11_20 <= 0
tri4_8_11_20: t8_11_20 - x8_11 - x8_20 - x11_20 >= -2
tri1_8_11_21: t8_11_21 - x8_11 <= 0
tri2_8_11_21: t8_11_21 - x8_21 <= 0
tri3_8_11_21: t8_11_21 - x11_21 <= 0
tri4_8_11_21: t8_11_21 - x8_11 - x8_21 - x11_21 >= -2
tri1_8_12_13: t8_12_13 - x8_12 <= 0
tri2_8_12_13: t8_12_13 - x8_13 <= 0
tri3_8_12_13: t8_12_13 - x12_13 <= 0
tri4_8_12_13: t8_12_13 - x8_12 - x8_13 - x12_13 >= -2
tri1_8_12_14: t8_12_14 - x8_12 <= 0
tri2_8_12_14: t8_12_14 - x8_14 <= 0
tri3_8_12_14: t8_12_14 - x12_14 <= 0
tri4_8_12_14: t8_12_14 - x8_12 - x8_14 - x12_14 >= -2
tri1_8_12_15: t8_12_15 - x8_12 <= 0
tri2_8_12_15: t8_12_15 - x8_15 <= 0
tri3_8_12_15: t8_12_15 - x12_15 <= 0
tri4_8_12_15: t8_12_15 - x8_12 - x8_15 - x12_15 >= -2
tri1_8_12_16: t8_12_16 - x8_12 <= 0
tri2_8_12_16: t8_12_16 - x8_16 <= 0
tri3_8_12_16: t8_12_16 - x12_16 <= 0
tri4_8_12_16: t8_12_16 - x8_12 - x8_16 - x12_16 >= -2
tri1_8_12_17: t8_12_17 - x8_12 <= 0
tri2_8_12_17: t8_12_17 - x8_17 <= 0
tri3_8_12_17: t8_12_17 - x12_17 <= 0
tri4_8_12_17: t8_12_17 - x8_12 - x8_17 - x12_17 >= -2
tri1_8_12_18: t8_12_18 - x8_12 <= 0
tri2_8_12_18: t8_12_18 - x8_18 <= 0
tri3_8_12_18: t8_12_18 - x12_18 <= 0
tri4_8_12_18: t8_12_18 - x8_12 - x8_18 - x12_18 >= -2
tri1_8_12_19: t8_12_19 - x8_12 <= 0
tri2_8_12_19: t8_12_19 - x8_19 <= 0
tri3_8_12_19: t8_12_19 - x12_19 <= 0
tri4_8_12_19: t8_12_19 - x8_12 - x8_19 - x12_19 >= -2
tri1_8_12_20: t8_12_20 - x8_12 <= 0
tri2_8_12_20: t8_12_20 - x8_20 <= 0
tri3_8_12_20: t8_12_20 - x12_20 <= 0
tri4_8_12_20: t8_12_20 - x8_12 - x8_20 - x12_20 >= -2
tri1_8_12_21: t8_12_21 - x8_12 <= 0
tri2_8_12_21: t8_12_21 - x8_21 <= 0
tri3_8_12_21: t8_12_21 - x12_21 <= 0
tri4_8_12_21: t8_12_21 - x8_12 - x8_21 - x12_21 >= -2
tri1_8_13_14: t8_13_14 - x8_13 <= 0
tri2_8_13_14: t8_13_14 - x8_14 <= 0
tri3_8_13_14: t8_13_14 - x13_14 <= 0
tri4_8_13_14: t8_13_14 - x8_13 - x8_14 - x13_14 >= -2
tri1_8_13_15: t8_13_15 - x8_13 <= 0
tri2_8_13_15: t8_13_15 - x8_15 <= 0
tri3_8_13_15: t8_13_15 - x13_15 <= 0
tri4_8_13_15: t8_13_15 - x8_13 - x8_15 - x13_15 >= -2
tri1_8_13_16: t8_13_16 - x8_13 <= 0
tri2_8_13_16: t8_13_16 - x8_16 <= 0
tri3_8_13_16: t8_13_16 - x13_16 <= 0
tri4_8_13_16: t8_13_16 - x8_13 - x8_16 - x13_16 >= -2
tri1_8_13_17: t8_13_17 - x8_13 <= 0
tri2_8_13_17: t8_13_17 - x8_17 <= 0
tri3_8_13_17: t8_13_17 - x13_17 <= 0
tri4_8_13_17: t8_13_17 - x8_13 - x8_17 - x13_17 >= -2
tri1_8_13_18: t8_13_18 - x8_13 <= 0
tri2_8_13_18: t8_13_18 - x8_18 <= 0
tri3_8_13_18: t8_13_18 - x13_18 <= 0
tri4_8_13_18: t8_13_18 - x8_13 - x8_18 - x13_18 >= -2
tri1_8_13_19: t8_13_19 - x8_13 <= 0
tri2_8_13_19: t8_13_19 - x8_19 <= 0
tri3_8_13_19: t8_13_19 - x13_19 <= 0
tri4_8_13_19: t8_13_19 - x8_13 - x8_19 - x13_19 >= -2
tri1_8_13_20: t8_13_20 - x8_13 <= 0
tri2_8_13_20: t8_13_20 - x8_20 <= 0
tri3_8_13_20: t8_13_20 - x13_20 <= 0
tri4_8_13_20: t8_13_20 - x8_13 - x8_20 - x13_20 >= -2
tri1_8_13_21: t8_13_21 - x8_13 <= 0
tri2_8_13_21: t8_13_21 - x8_21 <= 0
tri3_8_13_21: t8_13_21 - x13_21 <= 0
tri4_8_13_21: t8_13_21 - x8_13 - x8_21 - x13_21 >= -2
tri1_8_14_15: t8_14_15 - x8_14 <= 0
tri2_8_14_15: t8_14_15 - x8_15 <= 0
tri3_8_14_15: t8_14_15 - x14_15 <= 0
tri4_8_14_15: t8_14_15 - x8_14 - x8_15 - x14_15 >= -2
tri1_8_14_16: t8_14_16 - x8_14 <= 0
tri2_8_14_16: t8_14_16 - x8_16 <= 0
tri3_8_14_16: t8_14_16 - x14_16 <= 0
tri4_8_14_16: t8_14_16 - x8_14 - x8_16 - x14_16 >= -2
tri1_8_14_17: t8_14_17 - x8_14 <= 0
tri2_8_14_17: t8_14_17 - x8_17 <= 0
tri3_8_14_17: t8_14_17 - x14_17 <= 0
tri4_8_14_17: t8_14_17 - x8_14 - x8_17 - x14_17 >= -2
tri1_8_14_18: t8_14_18 - x8_14 <= 0
tri2_8_14_18: t8_14_18 - x8_18 <= 0
tri3_8_14_18: t8_14_18 - x14_18 <= 0
tri4_8_14_18: t8_14_18 - x8_14 - x8_18 - x14_18 >= -2
tri1_8_14_19: t8_14_19 - x8_14 <= 0
tri2_8_14_19: t8_14_19 - x8_19 <= 0
tri3_8_14_19: t8_14_19 - x14_19 <= 0
tri4_8_14_19: t8_14_19 - x8_14 - x8_19 - x14_19 >= -2
tri1_8_14_20: t8_14_20 - x8_14 <= 0
tri2_8_14_20: t8_14_20 - x8_20 <= 0
tri3_8_14_20: t8_14_20 - x14_20 <= 0
tri4_8_14_20: t8_14_20 - x8_14 - x8_20 - x14_20 >= -2
tri1_8_14_21: t8_14_21 - x8_14 <= 0
tri2_8_14_21: t8_14_21 - x8_21 <= 0
tri3_8_14_21: t8_14_21 - x14_21 <= 0
tri4_8_14_21: t8_14_21 - x8_14 - x8_21 - x14_21 >= -2
tri1_8_15_16: t8_15_16 - x8_15 <= 0
tri2_8_15_16: t8_15_16 - x8_16 <= 0
tri3_8_15_16: t8_15_16 - x15_16 <= 0
tri4_8_15_16: t8_15_16 - x8_15 - x8_16 - x15_16 >= -2
tri1_8_15_17: t8_15_17 - x8_15 <= 0
tri2_8_15_17: t8_15_17 - x8_17 <= 0
tri3_8_15_17: t8_15_17 - x15_17 <= 0
tri4_8_15_17: t8_15_17 - x8_15 - x8_17 - x15_17 >= -2
tri1_8_15_18: t8_15_18 - x8_15 <= 0
tri2_8_15_18: t8_15_18 - x8_18 <= 0
tri3_8_15_18: t8_15_18 - x15_18 <= 0
tri4_8_15_18: t8_15_18 - x8_15 - x8_18 - x15_18 >= -2
tri1_8_15_19: t8_15_19 - x8_15 <= 0
tri2_8_15_19: t8_15_19 - x8_19 <= 0
tri3_8_15_19: t8_15_19 - x15_19 <= 0
tri4_8_15_19: t8_15_19 - x8_15 - x8_19 - x15_19 >= -2
tri1_8_15_20: t8_15_20 - x8_15 <= 0
tri2_8_15_20: t8_15_20 - x8_20 <= 0
tri3_8_15_20: t8_15_20 - x15_20 <= 0
tri4_8_15_20: t8_15_20 - x8_15 - x8_20 - x15_20 >= -2
tri1_8_15_21: t8_15_21 - x8_15 <= 0
tri2_8_15_21: t8_15_21 - x8_21 <= 0
tri3_8_15_21: t8_15_21 - x15_21 <= 0
tri4_8_15_21: t8_15_21 - x8_15 - x8_21 - x15_21 >= -2
tri1_8_16_17: t8_16_17 - x8_16 <= 0
tri2_8_16_17: t8_16_17 - x8_17 <= 0
tri3_8_16_17: t8_16_17 - x16_17 <= 0
tri4_8_16_17: t8_16_17 - x8_16 - x8_17 - x16_17 >= -2
tri1_8_16_18: t8_16_18 - x8_16 <= 0
tri2_8_16_18: t8_16_18 - x8_18 <= 0
tri3_8_16_18: t8_16_18 - x16_18 <= 0
tri4_8_16_18: t8_16_18 - x8_16 - x8_18 - x16_18 >= -2
tri1_8_16_19: t8_16_19 - x8_16 <= 0
tri2_8_16_19: t8_16_19 - x8_19 <= 0
tri3_8_16_19: t8_16_19 - x16_19 <= 0
tri4_8_16_19: t8_16_19 - x8_16 - x8_19 - x16_19 >= -2
tri1_8_16_20: t8_16_20 - x8_16 <= 0
tri2_8_16_20: t8_16_20 - x8_20 <= 0
tri3_8_16_20: t8_16_20 - x16_20 <= 0
tri4_8_16_20: t8_16_20 - x8_16 - x8_20 - x16_20 >= -2
tri1_8_16_21: t8_16_21 - x8_16 <= 0
tri2_8_16_21: t8_16_21 - x8_21 <= 0
tri3_8_16_21: t8_16_21 - x16_21 <= 0
tri4_8_16_21: t8_16_21 - x8_16 - x8_21 - x16_21 >= -2
tri1_8_17_18: t8_17_18 - x8_17 <= 0
tri2_8_17_18: t8_17_18 - x8_18 <= 0
tri3_8_17_18: t8_17_18 - x17_18 <= 0
tri4_8_17_18: t8_17_18 - x8_17 - x8_18 - x17_18 >= -2
tri1_8_17_19: t8_17_19 - x8_17 <= 0
tri2_8_17_19: t8_17_19 - x8_19 <= 0
tri3_8_17_19: t8_17_19 - x17_19 <= 0
tri4_8_17_19: t8_17_19 - x8_17 - x8_19 - x17_19 >= -2
tri1_8_17_20: t8_17_20 - x8_17 <= 0
tri2_8_17_20: t8_17_20 - x8_20 <= 0
tri3_8_17_20: t8_17_20 - x17_20 <= 0
tri4_8_17_20: t8_17_20 - x8_17 - x8_20 - x17_20 >= -2
tri1_8_17_21: t8_17_21 - x8_17 <= 0
tri2_8_17_21: t8_17_21 - x8_21 <= 0
tri3_8_17_21: t8_17_21 - x17_21 <= 0
tri4_8_17_21: t8_17_21 - x8_17 - x8_21 - x17_21 >= -2
tri1_8_18_19: t8_18_19 - x8_18 <= 0
tri2_8_18_19: t8_18_19 - x8_19 <= 0
tri3_8_18_19: t8_18_19 - x18_19 <= 0
tri4_8_18_19: t8_18_19 - x8_18 - x8_19 - x18_19 >= -2
tri1_8_18_20: t8_18_20 - x8_18 <= 0
tri2_8_18_20: t8_18_20 - x8_20 <= 0
tri3_8_18_20: t8_18_20 - x18_20 <= 0
tri4_8_18_20: t8_18_20 - x8_18 - x8_20 - x18_20 >= -2
tri1_8_18_21: t8_18_21 - x8_18 <= 0
tri2_8_18_21: t8_18_21 - x8_21 <= 0
tri3_8_18_21: t8_18_21 - x18_21 <= 0
tri4_8_18_21: t8_18_21 - x8_18 - x8_21 - x18_21 >= -2
tri1_8_19_20: t8_19_20 - x8_19 <= 0
tri2_8_19_20: t8_19_20 - x8_20 <= 0
tri3_8_19_20: t8_19_20 - x19_20 <= 0
tri4_8_19_20: t8_19_20 - x8_19 - x8_20 - x19_20 >= -2
tri1_8_19_21: t8_19_21 - x8_19 <= 0
tri2_8_19_21: t8_19_21 - x8_21 <= 0
tri3_8_19_21: t8_19_21 - x19_21 <= 0
tri4_8_19_21: t8_19_21 - x8_19 - x8_21 - x19_21 >= -2
tri1_8_20_21: t8_20_21 - x8_20 <= 0
tri2_8_20_21: t8_20_21 - x8_21 <= 0
tri3_8_20_21: t8_20_21 - x20_21 <= 0
tri4_8_20_21: t8_20_21 - x8_20 - x8_21 - x20_21 >= -2
tri1_9_10_11: t9_10_11 - x9_10 <= 0
tri2_9_10_11: t9_10_11 - x9_11 <= 0
tri3_9_10_11: t9_10_11 - x10_11 <= 0
tri4_9_10_11: t9_10_11 - x9_10 - x9_11 - x10_11 >= -2
tri1_9_10_12: t9_10_12 - x9_10 <= 0
tri2_9_10_12: t9_10_12 - x9_12 <= 0
tri3_9_10_12: t9_10_12 - x10_12 <= 0
tri4_9_10_12: t9_10_12 - x9_10 - x9_12 - x10_12 >= -2
tri1_9_10_13: t9_10_13 - x9_10 <= 0
tri2_9_10_13: t9_10_13 - x9_13 <= 0
tri3_9_10_13: t9_10_13 - x10_13 <= 0
tri4_9_10_13: t9_10_13 - x9_10 - x9_13 - x10_13 >= -2
tri1_9_10_14: t9_10_14 - x9_10 <= 0
tri2_9_10_14: t9_10_14 - x9_14 <= 0
tri3_9_10_14: t9_10_14 - x10_14 <= 0
tri4_9_10_14: t9_10_14 - x9_10 - x9_14 - x10_14 >= -2
tri1_9_10_15: t9_10_15 - x9_10 <= 0
tri2_9_10_15: t9_10_15 - x9_15 <= 0
tri3_9_10_15: t9_10_15 - x10_15 <= 0
tri4_9_10_15: t9_10_15 - x9_10 - x9_15 - x10_15 >= -2
tri1_9_10_16: t9_10_16 - x9_10 <= 0
tri2_9_10_16: t9_10_16 - x9_16 <= 0
tri3_9_10_16: t9_10_16 - x10_16 <= 0
tri4_9_10_16: t9_10_16 - x9_10 - x9_16 - x10_16 >= -2
tri1_9_10_17: t9_10_17 - x9_10 <= 0
tri2_9_10_17: t9_10_17 - x9_17 <= 0
tri3_9_10_17: t9_10_17 - x10_17 <= 0
tri4_9_10_17: t9_10_17 - x9_10 - x9_17 - x10_17 >= -2
tri1_9_10_18: t9_10_18 - x9_10 <= 0
tri2_9_10_18: t9_10_18 - x9_18 <= 0
tri3_9_10_18: t9_10_18 - x10_18 <= 0
tri4_9_10_18: t9_10_18 - x9_10 - x9_18 - x10_18 >= -2
tri1_9_10_19: t9_10_19 - x9_10 <= 0
tri2_9_10_19: t9_10_19 - x9_19 <= 0
tri3_9_10_19: t9_10_19 - x10_19 <= 0
tri4_9_10_19: t9_10_19 - x9_10 - x9_19 - x10_19 >= -2
tri1_9_10_20: t9_10_20 - x9_10 <= 0
tri2_9_10_20: t9_10_20 - x9_20 <= 0
tri3_9_10_20: t9_10_20 - x10_20 <= 0
tri4_9_10_20: t9_10_20 - x9_10 - x9_20 - x10_20 >= -2
tri1_9_10_21: t9_10_21 - x9_10 <= 0
tri2_9_10_21: t9_10_21 - x9_21 <= 0
tri3_9_10_21: t9_10_21 - x10_21 <= 0
tri4_9_10_21: t9_10_21 - x9_10 - x9_21 - x10_21 >= -2
tri1_9_11_12: t9_11_12 - x9_11 <= 0
tri2_9_11_12: t9_11_12 - x9_12 <= 0
tri3_9_11_12: t9_11_12 - x11_12 <= 0
tri4_9_11_12: t9_11_12 - x9_11 - x9_12 - x11_12 >= -2
tri1_9_11_13: t9_11_13 - x9_11 <= 0
tri2_9_11_13: t9_11_13 - x9_13 <= 0
tri3_9_11_13: t9_11_13 - x11_13 <= 0
tri4_9_11_13: t9_11_13 - x9_11 - x9_13 - x11_13 >= -2
tri1_9_11_14: t9_11_14 - x9_11 <= 0
tri2_9_11_14: t9_11_14 - x9_14 <= 0
tri3_9_11_14: t9_11_14 - x11_14 <= 0
tri4_9_11_14: t9_11_14 - x9_11 - x9_14 - x11_14 >= -2
tri1_9_11_15: t9_11_15 - x9_11 <= 0
tri2_9_11_15: t9_11_15 - x9_15 <= 0
tri3_9_11_15: t9_11_15 - x11_15 <= 0
tri4_9_11_15: t9_11_15 - x9_11 - x9_15 - x11_15 >= -2
tri1_9_11_16: t9_11_16 - x9_11 <= 0
tri2_9_11_16: t9_11_16 - x9_16 <= 0
tri3_9_11_16: t9_11_16 - x11_16 <= 0
tri4_9_11_16: t9_11_16 - x9_11 - x9_16 - x11_16 >= -2
tri1_9_11_17: t9_11_17 - x9_11 <= 0
tri2_9_11_17: t9_11_17 - x9_17 <= 0
tri3_9_11_17: t9_11_17 - x11_17 <= 0
tri4_9_11_17: t9_11_17 - x9_11 - x9_17 - x11_17 >= -2
tri1_9_11_18: t9_11_18 - x9_11 <= 0
tri2_9_11_18: t9_11_18 - x9_18 <= 0
tri3_9_11_18: t9_11_18 - x11_18 <= 0
tri4_9_11_18: t9_11_18 - x9_11 - x9_18 - x11_18 >= -2
tri1_9_11_19: t9_11_19 - x9_11 <= 0
tri2_9_11_19: t9_11_19 - x9_19 <= 0
tri3_9_11_19: t9_11_19 - x11_19 <= 0
tri4_9_11_19: t9_11_19 - x9_11 - x9_19 - x11_19 >= -2
tri1_9_11_20: t9_11_20 - x9_11 <= 0
tri2_9_11_20: t9_11_20 - x9_20 <= 0
tri3_9_11_20: t9_11_20 - x11_20 <= 0
tri4_9_11_20: t9_11_20 - x9_11 - x9_20 - x11_20 >= -2
tri1_9_11_21: t9_11_21 - x9_11 <= 0
tri2_9_11_21: t9_11_21 - x9_21 <= 0
tri3_9_11_21: t9_11_21 - x11_21 <= 0
tri4_9_11_21: t9_11_21 - x9_11 - x9_21 - x11_21 >= -2
tri1_9_12_13: t9_12_13 - x9_12 <= 0
tri2_9_12_13: t9_12_13 - x9_13 <= 0
tri3_9_12_13: t9_12_13 - x12_13 <= 0
tri4_9_12_13: t9_12_13 - x9_12 - x9_13 - x12_13 >= -2
tri1_9_12_14: t9_12_14 - x9_12 <= 0
tri2_9_12_14: t9_12_14 - x9_14 <= 0
tri3_9_12_14: t9_12_14 - x12_14 <= 0
tri4_9_12_14: t9_12_14 - x9_12 - x9_14 - x12_14 >= -2
tri1_9_12_15: t9_12_15 - x9_12 <= 0
tri2_9_12_15: t9_12_15 - x9_15 <= 0
tri3_9_12_15: t9_12_15 - x12_15 <= 0
tri4_9_12_15: t9_12_15 - x9_12 - x9_15 - x12_15 >= -2
tri1_9_12_16: t9_12_16 - x9_12 <= 0
tri2_9_12_16: t9_12_16 - x9_16 <= 0
tri3_9_12_16: t9_12_16 - x12_16 <= 0
tri4_9_12_16: t9_12_16 - x9_12 - x9_16 - x12_16 >= -2
tri1_9_12_17: t9_12_17 - x9_12 <= 0
tri2_9_12_17: t9_12_17 - x9_17 <= 0
tri3_9_12_17: t9_12_17 - x12_17 <= 0
tri4_9_12_17: t9_12_17 - x9_12 - x9_17 - x12_17 >= -2
tri1_9_12_18: t9_12_18 - x9_12 <= 0
tri2_9_12_18: t9_12_18 - x9_18 <= 0
tri3_9_12_18: t9_12_18 - x12_18 <= 0
tri4_9_12_18: t9_12_18 - x9_12 - x9_18 - x12_18 >= -2
tri1_9_12_19: t9_12_19 - x9_12 <= 0
tri2_9_12_19: t9_12_19 - x9_19 <= 0
tri3_9_12_19: t9_12_19 - x12_19 <= 0
tri4_9_12_19: t9_12_19 - x9_12 - x9_19 - x12_19 >= -2
tri1_9_12_20: t9_12_20 - x9_12 <= 0
tri2_9_12_20: t9_12_20 - x9_20 <= 0
tri3_9_12_20: t9_12_20 - x12_20 <= 0
tri4_9_12_20: t9_12_20 - x9_12 - x9_20 - x12_20 >= -2
tri1_9_12_21: t9_12_21 - x9_12 <= 0
tri2_9_12_21: t9_12_21 - x9_21 <= 0
tri3_9_12_21: t9_12_21 - x12_21 <= 0
tri4_9_12_21: t9_12_21 - x9_12 - x9_21 - x12_21 >= -2
tri1_9_13_14: t9_13_14 - x9_13 <= 0
tri2_9_13_14: t9_13_14 - x9_14 <= 0
tri3_9_13_14: t9_13_14 - x13_14 <= 0
tri4_9_13_14: t9_13_14 - x9_13 - x9_14 - x13_14 >= -2
tri1_9_13_15: t9_13_15 - x9_13 <= 0
tri2_9_13_15: t9_13_15 - x9_15 <= 0
tri3_9_13_15: t9_13_15 - x13_15 <= 0
tri4_9_13_15: t9_13_15 - x9_13 - x9_15 - x13_15 >= -2
tri1_9_13_16: t9_13_16 - x9_13 <= 0
tri2_9_13_16: t9_13_16 - x9_16 <= 0
tri3_9_13_16: t9_13_16 - x13_16 <= 0
tri4_9_13_16: t9_13_16 - x9_13 - x9_16 - x13_16 >= -2
tri1_9_13_17: t9_13_17 - x9_13 <= 0
tri2_9_13_17: t9_13_17 - x9_17 <= 0
tri3_9_13_17: t9_13_17 - x13_17 <= 0
tri4_9_13_17: t9_13_17 - x9_13 - x9_17 - x13_17 >= -2
tri1_9_13_18: t9_13_18 - x9_13 <= 0
tri2_9_13_18: t9_13_18 - x9_18 <= 0
tri3_9_13_18: t9_13_18 - x13_18 <= 0
tri4_9_13_18: t9_13_18 - x9_13 - x9_18 - x13_18 >= -2
tri1_9_13_19: t9_13_19 - x9_13 <= 0
tri2_9_13_19: t9_13_19 - x9_19 <= 0
tri3_9_13_19: t9_13_19 - x13_19 <= 0
tri4_9_13_19: t9_13_19 - x9_13 - x9_19 - x13_19 >= -2
tri1_9_13_20: t9_13_20 - x9_13 <= 0
tri2_9_13_20: t9_13_20 - x9_20 <= 0
tri3_9_13_20: t9_13_20 - x13_20 <= 0
tri4_9_13_20: t9_13_20 - x9_13 - x9_20 - x13_20 >= -2
tri1_9_13_21: t9_13_21 - x9_13 <= 0
tri2_9_13_21: t9_13_21 - x9_21 <= 0
tri3_9_13_21: t9_13_21 - x13_21 <= 0
tri4_9_13_21: t9_13_21 - x9_13 - x9_21 - x13_21 >= -2
tri1_9_14_15: t9_14_15 - x9_14 <= 0
tri2_9_14_15: t9_14_15 - x9_15 <= 0
tri3_9_14_15: t9_14_15 - x14_15 <= 0
tri4_9_14_15: t9_14_15 - x9_14 - x9_15 - x14_15 >= -2
tri1_9_14_16: t9_14_16 - x9_14 <= 0
tri2_9_14_16: t9_14_16 - x9_16 <= 0
tri3_9_14_16: t9_14_16 - x14_16 <= 0
tri4_9_14_16: t9_14_16 - x9_14 - x9_16 - x14_16 >= -2
tri1_9_14_17: t9_14_17 - x9_14 <= 0
tri2_9_14_17: t9_14_17 - x9_17 <= 0
tri3_9_14_17: t9_14_17 - x14_17 <= 0
tri4_9_14_17: t9_14_17 - x9_14 - x9_17 - x14_17 >= -2
tri1_9_14_18: t9_14_18 - x9_14 <= 0
tri2_9_14_18: t9_14_18 - x9_18 <= 0
tri3_9_14_18: t9_14_18 - x14_18 <= 0
tri4_9_14_18: t9_14_18 - x9_14 - x9_18 - x14_18 >= -2
tri1_9_14_19: t9_14_19 - x9_14 <= 0
tri2_9_14_19: t9_14_19 - x9_19 <= 0
tri3_9_14_19: t9_14_19 - x14_19 <= 0
tri4_9_14_19: t9_14_19 - x9_14 - x9_19 - x14_19 >= -2
tri1_9_14_20: t9_14_20 - x9_14 <= 0
tri2_9_14_20: t9_14_20 - x9_20 <= 0
tri3_9_14_20: t9_14_20 - x14_20 <= 0
tri4_9_14_20: t9_14_20 - x9_14 - x9_20 - x14_20 >= -2
tri1_9_14_21: t9_14_21 - x9_14 <= 0
tri2_9_14_21: t9_14_21 - x9_21 <= 0
tri3_9_14_21: t9_14_21 - x14_21 <= 0
tri4_9_14_21: t9_14_21 - x9_14 - x9_21 - x14_21 >= -2
tri1_9_15_16: t9_15_16 - x9_15 <= 0
tri2_9_15_16: t9_15_16 - x9_16 <= 0
tri3_9_15_16: t9_15_16 - x15_16 <= 0
tri4_9_15_16: t9_15_16 - x9_15 - x9_16 - x15_16 >= -2
tri1_9_15_17: t9_15_17 - x9_15 <= 0
tri2_9_15_17: t9_15_17 - x9_17 <= 0
tri3_9_15_17: t9_15_17 - x15_17 <= 0
tri4_9_15_17: t9_15_17 - x9_15 - x9_17 - x15_17 >= -2
tri1_9_15_18: t9_15_18 - x9_15 <= 0
tri2_9_15_18: t9_15_18 - x9_18 <= 0
tri3_9_15_18: t9_15_18 - x15_18 <= 0
tri4_9_15_18: t9_15_18 - x9_15 - x9_18 - x15_18 >= -2
tri1_9_15_19: t9_15_19 - x9_15 <= 0
tri2_9_15_19: t9_15_19 - x9_19 <= 0
tri3_9_15_19: t9_15_19 - x15_19 <= 0
tri4_9_15_19: t9_15_19 - x9_15 - x9_19 - x15_19 >= -2
tri1_9_15_20: t9_15_20 - x9_15 <= 0
tri2_9_15_20: t9_15_20 - x9_20 <= 0
tri3_9_15_20: t9_15_20 - x15_20 <= 0
tri4_9_15_20: t9_15_20 - x9_15 - x9_20 - x15_20 >= -2
tri1_9_15_21: t9_15_21 - x9_15 <= 0
tri2_9_15_21: t9_15_21 - x9_21 <= 0
tri3_9_15_21: t9_15_21 - x15_21 <= 0
tri4_9_15_21: t9_15_21 - x9_15 - x9_21 - x15_21 >= -2
tri1_9_16_17: t9_16_17 - x9_16 <= 0
tri2_9_16_17: t9_16_17 - x9_17 <= 0
tri3_9_16_17: t9_16_17 - x16_17 <= 0
tri4_9_16_17: t9_16_17 - x9_16 - x9_17 - x16_17 >= -2
tri1_9_16_18: t9_16_18 - x9_16 <= 0
tri2_9_16_18: t9_16_18 - x9_18 <= 0
tri3_9_16_18: t9_16_18 - x16_18 <= 0
tri4_9_16_18: t9_16_18 - x9_16 - x9_18 - x16_18 >= -2
tri1_9_16_19: t9_16_19 - x9_16 <= 0
tri2_9_16_19: t9_16_19 - x9_19 <= 0
tri3_9_16_19: t9_16_19 - x16_19 <= 0
tri4_9_16_19: t9_16_19 - x9_16 - x9_19 - x16_19 >= -2
tri1_9_16_20: t9_16_20 - x9_16 <= 0
tri2_9_16_20: t9_16_20 - x9_20 <= 0
tri3_9_16_20: t9_16_20 - x16_20 <= 0
tri4_9_16_20: t9_16_20 - x9_16 - x9_20 - x16_20 >= -2
tri1_9_16_21: t9_16_21 - x9_16 <= 0
tri2_9_16_21: t9_16_21 - x9_21 <= 0
tri3_9_16_21: t9_16_21 - x16_21 <= 0
tri4_9_16_21: t9_16_21 - x9_16 - x9_21 - x16_21 >= -2
tri1_9_17_18: t9_17_18 - x9_17 <= 0
tri2_9_17_18: t9_17_18 - x9_18 <= 0
tri3_9_17_18: t9_17_18 - x17_18 <= 0
tri4_9_17_18: t9_17_18 - x9_17 - x9_18 - x17_18 >= -2
tri1_9_17_19: t9_17_19 - x9_17 <= 0
tri2_9_17_19: t9_17_19 - x9_19 <= 0
tri3_9_17_19: t9_17_19 - x17_19 <= 0
tri4_9_17_19: t9_17_19 - x9_17 - x9_19 - x17_19 >= -2
tri1_9_17_20: t9_17_20 - x9_17 <= 0
tri2_9_17_20: t9_17_20 - x9_20 <= 0
tri3_9_17_20: t9_17_20 - x17_20 <= 0
tri4_9_17_20: t9_17_20 - x9_17 - x9_20 - x17_20 >= -2
tri1_9_17_21: t9_17_21 - x9_17 <= 0
tri2_9_17_21: t9_17_21 - x9_21 <= 0
tri3_9_17_21: t9_17_21 - x17_21 <= 0
tri4_9_17_21: t9_17_21 - x9_17 - x9_21 - x17_21 >= -2
tri1_9_18_19: t9_18_19 - x9_18 <= 0
tri2_9_18_19: t9_18_19 - x9_19 <= 0
tri3_9_18_19: t9_18_19 - x18_19 <= 0
tri4_9_18_19: t9_18_19 - x9_18 - x9_19 - x18_19 >= -2
tri1_9_18_20: t9_18_20 - x9_18 <= 0
tri2_9_18_20: t9_18_20 - x9_20 <= 0
tri3_9_18_20: t9_18_20 - x18_20 <= 0
tri4_9_18_20: t9_18_20 - x9_18 - x9_20 - x18_20 >= -2
tri1_9_18_21: t9_18_21 - x9_18 <= 0
tri2_9_18_21: t9_18_21 - x9_21 <= 0
tri3_9_18_21: t9_18_21 - x18_21 <= 0
tri4_9_18_21: t9_18_21 - x9_18 - x9_21 - x18_21 >= -2
tri1_9_19_20: t9_19_20 - x9_19 <= 0
tri2_9_19_20: t9_19_20 - x9_20 <= 0
tri3_9_19_20: t9_19_20 - x19_20 <= 0
tri4_9_19_20: t9_19_20 - x9_19 - x9_20 - x19_20 >= -2
tri1_9_19_21: t9_19_21 - x9_19 <= 0
tri2_9_19_21: t9_19_21 - x9_21 <= 0
tri3_9_19_21: t9_19_21 - x19_21 <= 0
tri4_9_19_21: t9_19_21 - x9_19 - x9_21 - x19_21 >= -2
tri1_9_20_21: t9_20_21 - x9_20 <= 0
tri2_9_20_21: t9_20_21 - x9_21 <= 0
tri3_9_20_21: t9_20_21 - x20_21 <= 0
tri4_9_20_21: t9_20_21 - x9_20 - x9_21 - x20_21 >= -2
tri1_10_11_12: t10_11_12 - x10_11 <= 0
tri2_10_11_12: t10_11_12 - x10_12 <= 0
tri3_10_11_12: t10_11_12 - x11_12 <= 0
tri4_10_11_12: t10_11_12 - x10_11 - x10_12 - x11_12 >= -2
tri1_10_11_13: t10_11_13 - x10_11 <= 0
tri2_10_11_13: t10_11_13 - x10_13 <= 0
tri3_10_11_13: t10_11_13 - x11_13 <= 0
tri4_10_11_13: t10_11_13 - x10_11 - x10_13 - x11_13 >= -2
tri1_10_11_14: t10_11_14 - x10_11 <= 0
tri2_10_11_14: t10_11_14 - x10_14 <= 0
tri3_10_11_14: t10_11_14 - x11_14 <= 0
tri4_10_11_14: t10_11_14 - x10_11 - x10_14 - x11_14 >= -2
tri1_10_11_15: t10_11_15 - x10_11 <= 0
tri2_10_11_15: t10_11_15 - x10_15 <= 0
tri3_10_11_15: t10_11_15 - x11_15 <= 0
tri4_10_11_15: t10_11_15 - x10_11 - x10_15 - x11_15 >= -2
tri1_10_11_16: t10_11_16 - x10_11 <= 0
tri2_10_11_16: t10_11_16 - x10_16 <= 0
tri3_10_11_16: t10_11_16 - x11_16 <= 0
tri4_10_11_16: t10_11_16 - x10_11 - x10_16 - x11_16 >= -2
tri1_10_11_17: t10_11_17 - x10_11 <= 0
tri2_10_11_17: t10_11_17 - x10_17 <= 0
tri3_10_11_17: t10_11_17 - x11_17 <= 0
tri4_10_11_17: t10_11_17 - x10_11 - x10_17 - x11_17 >= -2
tri1_10_11_18: t10_11_18 - x10_11 <= 0
tri2_10_11_18: t10_11_18 - x10_18 <= 0
tri3_10_11_18: t10_11_18 - x11_18 <= 0
tri4_10_11_18: t10_11_18 - x10_11 - x10_18 - x11_18 >= -2
tri1_10_11_19: t10_11_19 - x10_11 <= 0
tri2_10_11_19: t10_11_19 - x10_19 <= 0
tri3_10_11_19: t10_11_19 - x11_19 <= 0
tri4_10_11_19: t10_11_19 - x10_11 - x10_19 - x11_19 >= -2
tri1_10_11_20: t10_11_20 - x10_11 <= 0
tri2_10_11_20: t10_11_20 - x10_20 <= 0
tri3_10_11_20: t10_11_20 - x11_20 <= 0
tri4_10_11_20: t10_11_20 - x10_11 - x10_20 - x11_20 >= -2
tri1_10_11_21: t10_11_21 - x10_11 <= 0
tri2_10_11_21: t10_11_21 - x10_21 <= 0
tri3_10_11_21: t10_11_21 - x11_21 <= 0
tri4_10_11_21: t10_11_21 - x10_11 - x10_21 - x11_21 >= -2
tri1_10_12_13: t10_12_13 - x10_12 <= 0
tri2_10_12_13: t10_12_13 - x10_13 <= 0
tri3_10_12_13: t10_12_13 - x12_13 <= 0
tri4_10_12_13: t10_12_13 - x10_12 - x10_13 - x12_13 >= -2
tri1_10_12_14: t10_12_14 - x10_12 <= 0
tri2_10_12_14: t10_12_14 - x10_14 <= 0
tri3_10_12_14: t10_12_14 - x12_14 <= 0
tri4_10_12_14: t10_12_14 - x10_12 - x10_14 - x12_14 >= -2
tri1_10_12_15: t10_12_15 - x10_12 <= 0
tri2_10_12_15: t10_12_15 - x10_15 <= 0
tri3_10_12_15: t10_12_15 - x12_15 <= 0
tri4_10_12_15: t10_12_15 - x10_12 - x10_15 - x12_15 >= -2
tri1_10_12_16: t10_12_16 - x10_12 <= 0
tri2_10_12_16: t10_12_16 - x10_16 <= 0
tri3_10_12_16: t10_12_16 - x12_16 <= 0
tri4_10_12_16: t10_12_16 - x10_12 - x10_16 - x12_16 >= -2
tri1_10_12_17: t10_12_17 - x10_12 <= 0
tri2_10_12_17: t10_12_17 - x10_17 <= 0
tri3_10_12_17: t10_12_17 - x12_17 <= 0
tri4_10_12_17: t10_12_17 - x10_12 - x10_17 - x12_17 >= -2
tri1_10_12_18: t10_12_18 - x10_12 <= 0
tri2_10_12_18: t10_12_18 - x10_18 <= 0
tri3_10_12_18: t10_12_18 - x12_18 <= 0
tri4_10_12_18: t10_12_18 - x10_12 - x10_18 - x12_18 >= -2
tri1_10_12_19: t10_12_19 - x10_12 <= 0
tri2_10_12_19: t10_12_19 - x10_19 <= 0
tri3_10_12_19: t10_12_19 - x12_19 <= 0
tri4_10_12_19: t10_12_19 - x10_12 - x10_19 - x12_19 >= -2
tri1_10_12_20: t10_12_20 - x10_12 <= 0
tri2_10_12_20: t10_12_20 - x10_20 <= 0
tri3_10_12_20: t10_12_20 - x12_20 <= 0
tri4_10_12_20: t10_12_20 - x10_12 - x10_20 - x12_20 >= -2
tri1_10_12_21: t10_12_21 - x10_12 <= 0
tri2_10_12_21: t10_12_21 - x10_21 <= 0
tri3_10_12_21: t10_12_21 - x12_21 <= 0
tri4_10_12_21: t10_12_21 - x10_12 - x10_21 - x12_21 >= -2
tri1_10_13_14: t10_13_14 - x10_13 <= 0
tri2_10_13_14: t10_13_14 - x10_14 <= 0
tri3_10_13_14: t10_13_14 - x13_14 <= 0
tri4_10_13_14: t10_13_14 - x10_13 - x10_14 - x13_14 >= -2
tri1_10_13_15: t10_13_15 - x10_13 <= 0
tri2_10_13_15: t10_13_15 - x10_15 <= 0
tri3_10_13_15: t10_13_15 - x13_15 <= 0
tri4_10_13_15: t10_13_15 - x10_13 - x10_15 - x13_15 >= -2
tri1_10_13_16: t10_13_16 - x10_13 <= 0
tri2_10_13_16: t10_13_16 - x10_16 <= 0
tri3_10_13_16: t10_13_16 - x13_16 <= 0
tri4_10_13_16: t10_13_16 - x10_13 - x10_16 - x13_16 >= -2
tri1_10_13_17: t10_13_17 - x10_13 <= 0
tri2_10_13_17: t10_13_17 - x10_17 <= 0
tri3_10_13_17: t10_13_17 - x13_17 <= 0
tri4_10_13_17: t10_13_17 - x10_13 - x10_17 - x13_17 >= -2
tri1_10_13_18: t10_13_18 - x10_13 <= 0
tri2_10_13_18: t10_13_18 - x10_18 <= 0
tri3_10_13_18: t10_13_18 - x13_18 <= 0
tri4_10_13_18: t10_13_18 - x10_13 - x10_18 - x13_18 >= -2
tri1_10_13_19: t10_13_19 - x10_13 <= 0
tri2_10_13_19: t10_13_19 - x10_19 <= 0
tri3_10_13_19: t10_13_19 - x13_19 <= 0
tri4_10_13_19: t10_13_19 - x10_13 - x10_19 - x13_19 >= -2
tri1_10_13_20: t10_13_20 - x10_13 <= 0
tri2_10_13_20: t10_13_20 - x10_20 <= 0
tri3_10_13_20: t10_13_20 - x13_20 <= 0
tri4_10_13_20: t10_13_20 - x10_13 - x10_20 - x13_20 >= -2
tri1_10_13_21: t10_13_21 - x10_13 <= 0
tri2_10_13_21: t10_13_21 - x10_21 <= 0
tri3_10_13_21: t10_13_21 - x13_21 <= 0
tri4_10_13_21: t10_13_21 - x10_13 - x10_21 - x13_21 >= -2
tri1_10_14_15: t10_14_15 - x10_14 <= 0
tri2_10_14_15: t10_14_15 - x10_15 <= 0
tri3_10_14_15: t10_14_15 - x14_15 <= 0
tri4_10_14_15: t10_14_15 - x10_14 - x10_15 - x14_15 >= -2
tri1_10_14_16: t10_14_16 - x10_14 <= 0
tri2_10_14_16: t10_14_16 - x10_16 <= 0
tri3_10_14_16: t10_14_16 - x14_16 <= 0
tri4_10_14_16: t10_14_16 - x10_14 - x10_16 - x14_16 >= -2
tri1_10_14_17: t10_14_17 - x10_14 <= 0
tri2_10_14_17: t10_14_17 - x10_17 <= 0
tri3_10_14_17: t10_14_17 - x14_17 <= 0
tri4_10_14_17: t10_14_17 - x10_14 - x10_17 - x14_17 >= -2
tri1_10_14_18: t10_14_18 - x10_14 <= 0
tri2_10_14_18: t10_14_18 - x10_18 <= 0
tri3_10_14_18: t10_14_18 - x14_18 <= 0
tri4_10_14_18: t10_14_18 - x10_14 - x10_18 - x14_18 >= -2
tri1_10_14_19: t10_14_19 - x10_14 <= 0
tri2_10_14_19: t10_14_19 - x10_19 <= 0
tri3_10_14_19: t10_14_19 - x14_19 <= 0
tri4_10_14_19: t10_14_19 - x10_14 - x10_19 - x14_19 >= -2
tri1_10_14_20: t10_14_20 - x10_14 <= 0
tri2_10_14_20: t10_14_20 - x10_20 <= 0
tri3_10_14_20: t10_14_20 - x14_20 <= 0
tri4_10_14_20: t10_14_20 - x10_14 - x10_20 - x14_20 >= -2
tri1_10_14_21: t10_14_21 - x10_14 <= 0
tri2_10_14_21: t10_14_21 - x10_21 <= 0
tri3_10_14_21: t10_14_21 - x14_21 <= 0
tri4_10_14_21: t10_14_21 - x10_14 - x10_21 - x14_21 >= -2
tri1_10_15_16: t10_15_16 - x10_15 <= 0
tri2_10_15_16: t10_15_16 - x10_16 <= 0
tri3_10_15_16: t10_15_16 - x15_16 <= 0
tri4_10_15_16: t10_15_16 - x10_15 - x10_16 - x15_16 >= -2
tri1_10_15_17: t10_15_17 - x10_15 <= 0
tri2_10_15_17: t10_15_17 - x10_17 <= 0
tri3_10_15_17: t10_15_17 - x15_17 <= 0
tri4_10_15_17: t10_15_17 - x10_15 - x10_17 - x15_17 >= -2
tri1_10_15_18: t10_15_18 - x10_15 <= 0
tri2_10_15_18: t10_15_18 - x10_18 <= 0
tri3_10_15_18: t10_15_18 - x15_18 <= 0
tri4_10_15_18: t10_15_18 - x10_15 - x10_18 - x15_18 >= -2
tri1_10_15_19: t10_15_19 - x10_15 <= 0
tri2_10_15_19: t10_15_19 - x10_19 <= 0
tri3_10_15_19: t10_15_19 - x15_19 <= 0
tri4_10_15_19: t10_15_19 - x10_15 - x10_19 - x15_19 >= -2
tri1_10_15_20: t10_15_20 - x10_15 <= 0
tri2_10_15_20: t10_15_20 - x10_20 <= 0
tri3_10_15_20: t10_15_20 - x15_20 <= 0
tri4_10_15_20: t10_15_20 - x10_15 - x10_20 - x15_20 >= -2
tri1_10_15_21: t10_15_21 - x10_15 <= 0
tri2_10_15_21: t10_15_21 - x10_21 <= 0
tri3_10_15_21: t10_15_21 - x15_21 <= 0
tri4_10_15_21: t10_15_21 - x10_15 - x10_21 - x15_21 >= -2
tri1_10_16_17: t10_16_17 - x10_16 <= 0
tri2_10_16_17: t10_16_17 - x10_17 <= 0
tri3_10_16_17: t10_16_17 - x16_17 <= 0
tri4_10_16_17: t10_16_17 - x10_16 - x10_17 - x16_17 >= -2
tri1_10_16_18: t10_16_18 - x10_16 <= 0
tri2_10_16_18: t10_16_18 - x10_18 <= 0
tri3_10_16_18: t10_16_18 - x16_18 <= 0
tri4_10_16_18: t10_16_18 - x10_16 - x10_18 - x16_18 >= -2
tri1_10_16_19: t10_16_19 - x10_16 <= 0
tri2_10_16_19: t10_16_19 - x10_19 <= 0
tri3_10_16_19: t10_16_19 - x16_19 <= 0
tri4_10_16_19: t10_16_19 - x10_16 - x10_19 - x16_19 >= -2
tri1_10_16_20: t10_16_20 - x10_16 <= 0
tri2_10_16_20: t10_16_20 - x10_20 <= 0
tri3_10_16_20: t10_16_20 - x16_20 <= 0
tri4_10_16_20: t10_16_20 - x10_16 - x10_20 - x16_20 >= -2
tri1_10_16_21: t10_16_21 - x10_16 <= 0
tri2_10_16_21: t10_16_21 - x10_21 <= 0
tri3_10_16_21: t10_16_21 - x16_21 <= 0
tri4_10_16_21: t10_16_21 - x10_16 - x10_21 - x16_21 >= -2
tri1_10_17_18: t10_17_18 - x10_17 <= 0
tri2_10_17_18: t10_17_18 - x10_18 <= 0
tri3_10_17_18: t10_17_18 - x17_18 <= 0
tri4_10_17_18: t10_17_18 - x10_17 - x10_18 - x17_18 >= -2
tri1_10_17_19: t10_17_19 - x10_17 <= 0
tri2_10_17_19: t10_17_19 - x10_19 <= 0
tri3_10_17_19: t10_17_19 - x17_19 <= 0
tri4_10_17_19: t10_17_19 - x10_17 - x10_19 - x17_19 >= -2
tri1_10_17_20: t10_17_20 - x10_17 <= 0
tri2_10_17_20: t10_17_20 - x10_20 <= 0
tri3_10_17_20: t10_17_20 - x17_20 <= 0
tri4_10_17_20: t10_17_20 - x10_17 - x10_20 - x17_20 >= -2
tri1_10_17_21: t10_17_21 - x10_17 <= 0
tri2_10_17_21: t10_17_21 - x10_21 <= 0
tri3_10_17_21: t10_17_21 - x17_21 <= 0
tri4_10_17_21: t10_17_21 - x10_17 - x10_21 - x17_21 >= -2
tri1_10_18_19: t10_18_19 - x10_18 <= 0
tri2_10_18_19: t10_18_19 - x10_19 <= 0
tri3_10_18_19: t10_18_19 - x18_19 <= 0
tri4_10_18_19: t10_18_19 - x10_18 - x10_19 - x18_19 >= -2
tri1_10_18_20: t10_18_20 - x10_18 <= 0
tri2_10_18_20: t10_18_20 - x10_20 <= 0
tri3_10_18_20: t10_18_20 - x18_20 <= 0
tri4_10_18_20: t10_18_20 - x10_18 - x10_20 - x18_20 >= -2
tri1_10_18_21: t10_18_21 - x10_18 <= 0
tri2_10_18_21: t10_18_21 - x10_21 <= 0
tri3_10_18_21: t10_18_21 - x18_21 <= 0
tri4_10_18_21: t10_18_21 - x10_18 - x10_21 - x18_21 >= -2
tri1_10_19_20: t10_19_20 - x10_19 <= 0
tri2_10_19_20: t10_19_20 - x10_20 <= 0
tri3_10_19_20: t10_19_20 - x19_20 <= 0
tri4_10_19_20: t10_19_20 - x10_19 - x10_20 - x19_20 >= -2
tri1_10_19_21: t10_19_21 - x10_19 <= 0
tri2_10_19_21: t10_19_21 - x10_21 <= 0
tri3_10_19_21: t10_19_21 - x19_21 <= 0
tri4_10_19_21: t10_19_21 - x10_19 - x10_21 - x19_21 >= -2
tri1_10_20_21: t10_20_21 - x10_20 <= 0
tri2_10_20_21: t10_20_21 - x10_21 <= 0
tri3_10_20_21: t10_20_21 - x20_21 <= 0
tri4_10_20_21: t10_20_21 - x10_20 - x10_21 - x20_21 >= -2
tri1_11_12_13: t11_12_13 - x11_12 <= 0
tri2_11_12_13: t11_12_13 - x11_13 <= 0
tri3_11_12_13: t11_12_13 - x12_13 <= 0
tri4_11_12_13: t11_12_13 - x11_12 - x11_13 - x12_13 >= -2
tri1_11_12_14: t11_12_14 - x11_12 <= 0
tri2_11_12_14: t11_12_14 - x11_14 <= 0
tri3_11_12_14: t11_12_14 - x12_14 <= 0
tri4_11_12_14: t11_12_14 - x11_12 - x11_14 - x12_14 >= -2
tri1_11_12_15: t11_12_15 - x11_12 <= 0
tri2_11_12_15: t11_12_15 - x11_15 <= 0
tri3_11_12_15: t11_12_15 - x12_15 <= 0
tri4_11_12_15: t11_12_15 - x11_12 - x11_15 - x12_15 >= -2
tri1_11_12_16: t11_12_16 - x11_12 <= 0
tri2_11_12_16: t11_12_16 - x11_16 <= 0
tri3_11_12_16: t11_12_16 - x12_16 <= 0
tri4_11_12_16: t11_12_16 - x11_12 - x11_16 - x12_16 >= -2
tri1_11_12_17: t11_12_17 - x11_12 <= 0
tri2_11_12_17: t11_12_17 - x11_17 <= 0
tri3_11_12_17: t11_12_17 - x12_17 <= 0
tri4_11_12_17: t11_12_17 - x11_12 - x11_17 - x12_17 >= -2
tri1_11_12_18: t11_12_18 - x11_12 <= 0
tri2_11_12_18: t11_12_18 - x11_18 <= 0
tri3_11_12_18: t11_12_18 - x12_18 <= 0
tri4_11_12_18: t11_12_18 - x11_12 - x11_18 - x12_18 >= -2
tri1_11_12_19: t11_12_19 - x11_12 <= 0
tri2_11_12_19: t11_12_19 - x11_19 <= 0
tri3_11_12_19: t11_12_19 - x12_19 <= 0
tri4_11_12_19: t11_12_19 - x11_12 - x11_19 - x12_19 >= -2
tri1_11_12_20: t11_12_20 - x11_12 <= 0
tri2_11_12_20: t11_12_20 - x11_20 <= 0
tri3_11_12_20: t11_12_20 - x12_20 <= 0
tri4_11_12_20: t11_12_20 - x11_12 - x11_20 - x12_20 >= -2
tri1_11_12_21: t11_12_21 - x11_12 <= 0
tri2_11_12_21: t11_12_21 - x11_21 <= 0
tri3_11_12_21: t11_12_21 - x12_21 <= 0
tri4_11_12_21: t11_12_21 - x11_12 - x11_21 - x12_21 >= -2
tri1_11_13_14: t11_13_14 - x11_13 <= 0
tri2_11_13_14: t11_13_14 - x11_14 <= 0
tri3_11_13_14: t11_13_14 - x13_14 <= 0
tri4_11_13_14: t11_13_14 - x11_13 - x11_14 - x13_14 >= -2
tri1_11_13_15: t11_13_15 - x11_13 <= 0
tri2_11_13_15: t11_13_15 - x11_15 <= 0
tri3_11_13_15: t11_13_15 - x13_15 <= 0
tri4_11_13_15: t11_13_15 - x11_13 - x11_15 - x13_15 >= -2
tri1_11_13_16: t11_13_16 - x11_13 <= 0
tri2_11_13_16: t11_13_16 - x11_16 <= 0
tri3_11_13_16: t11_13_16 - x13_16 <= 0
tri4_11_13_16: t11_13_16 - x11_13 - x11_16 - x13_16 >= -2
tri1_11_13_17: t11_13_17 - x11_13 <= 0
tri2_11_13_17: t11_13_17 - x11_17 <= 0
tri3_11_13_17: t11_13_17 - x13_17 <= 0
tri4_11_13_17: t11_13_17 - x11_13 - x11_17 - x13_17 >= -2
tri1_11_13_18: t11_13_18 - x11_13 <= 0
tri2_11_13_18: t11_13_18 - x11_18 <= 0
tri3_11_13_18: t11_13_18 - x13_18 <= 0
tri4_11_13_18: t11_13_18 - x11_13 - x11_18 - x13_18 >= -2
tri1_11_13_19: t11_13_19 - x11_13 <= 0
tri2_11_13_19: t11_13_19 - x11_19 <= 0
tri3_11_13_19: t11_13_19 - x13_19 <= 0
tri4_11_13_19: t11_13_19 - x11_13 - x11_19 - x13_19 >= -2
tri1_11_13_20: t11_13_20 - x11_13 <= 0
tri2_11_13_20: t11_13_20 - x11_20 <= 0
tri3_11_13_20: t11_13_20 - x13_20 <= 0
tri4_11_13_20: t11_13_20 - x11_13 - x11_20 - x13_20 >= -2
tri1_11_13_21: t11_13_21 - x11_13 <= 0
tri2_11_13_21: t11_13_21 - x11_21 <= 0
tri3_11_13_21: t11_13_21 - x13_21 <= 0
tri4_11_13_21: t11_13_21 - x11_13 - x11_21 - x13_21 >= -2
tri1_11_14_15: t11_14_15 - x11_14 <= 0
tri2_11_14_15: t11_14_15 - x11_15 <= 0
tri3_11_14_15: t11_14_15 - x14_15 <= 0
tri4_11_14_15: t11_14_15 - x11_14 - x11_15 - x14_15 >= -2
tri1_11_14_16: t11_14_16 - x11_14 <= 0
tri2_11_14_16: t11_14_16 - x11_16 <= 0
tri3_11_14_16: t11_14_16 - x14_16 <= 0
tri4_11_14_16: t11_14_16 - x11_14 - x11_16 - x14_16 >= -2
tri1_11_14_17: t11_14_17 - x11_14 <= 0
tri2_11_14_17: t11_14_17 - x11_17 <= 0
tri3_11_14_17: t11_14_17 - x14_17 <= 0
tri4_11_14_17: t11_14_17 - x11_14 - x11_17 - x14_17 >= -2
tri1_11_14_18: t11_14_18 - x11_14 <= 0
tri2_11_14_18: t11_14_18 - x11_18 <= 0
tri3_11_14_18: t11_14_18 - x14_18 <= 0
tri4_11_14_18: t11_14_18 - x11_14 - x11_18 - x14_18 >= -2
tri1_11_14_19: t11_14_19 - x11_14 <= 0
tri2_11_14_19: t11_14_19 - x11_19 <= 0
tri3_11_14_19: t11_14_19 - x14_19 <= 0
tri4_11_14_19: t11_14_19 - x11_14 - x11_19 - x14_19 >= -2
tri1_11_14_20: t11_14_20 - x11_14 <= 0
tri2_11_14_20: t11_14_20 - x11_20 <= 0
tri3_11_14_20: t11_14_20 - x14_20 <= 0
tri4_11_14_20: t11_14_20 - x11_14 - x11_20 - x14_20 >= -2
tri1_11_14_21: t11_14_21 - x11_14 <= 0
tri2_11_14_21: t11_14_21 - x11_21 <= 0
tri3_11_14_21: t11_14_21 - x14_21 <= 0
tri4_11_14_21: t11_14_21 - x11_14 - x11_21 - x14_21 >= -2
tri1_11_15_16: t11_15_16 - x11_15 <= 0
tri2_11_15_16: t11_15_16 - x11_16 <= 0
tri3_11_15_16: t11_15_16 - x15_16 <= 0
tri4_11_15_16: t11_15_16 - x11_15 - x11_16 - x15_16 >= -2
tri1_11_15_17: t11_15_17 - x11_15 <= 0
tri2_11_15_17: t11_15_17 - x11_17 <= 0
tri3_11_15_17: t11_15_17 - x15_17 <= 0
tri4_11_15_17: t11_15_17 - x11_15 - x11_17 - x15_17 >= -2
tri1_11_15_18: t11_15_18 - x11_15 <= 0
tri2_11_15_18: t11_15_18 - x11_18 <= 0
tri3_11_15_18: t11_15_18 - x15_18 <= 0
tri4_11_15_18: t11_15_18 - x11_15 - x11_18 - x15_18 >= -2
tri1_11_15_19: t11_15_19 - x11_15 <= 0
tri2_11_15_19: t11_15_19 - x11_19 <= 0
tri3_11_15_19: t11_15_19 - x15_19 <= 0
tri4_11_15_19: t11_15_19 - x11_15 - x11_19 - x15_19 >= -2
tri1_11_15_20: t11_15_20 - x11_15 <= 0
tri2_11_15_20: t11_15_20 - x11_20 <= 0
tri3_11_15_20: t11_15_20 - x15_20 <= 0
tri4_11_15_20: t11_15_20 - x11_15 - x11_20 - x15_20 >= -2
tri1_11_15_21: t11_15_21 - x11_15 <= 0
tri2_11_15_21: t11_15_21 - x11_21 <= 0
tri3_11_15_21: t11_15_21 - x15_21 <= 0
tri4_11_15_21: t11_15_21 - x11_15 - x11_21 - x15_21 >= -2
tri1_11_16_17: t11_16_17 - x11_16 <= 0
tri2_11_16_17: t11_16_17 - x11_17 <= 0
tri3_11_16_17: t11_16_17 - x16_17 <= 0
tri4_11_16_17: t11_16_17 - x11_16 - x11_17 - x16_17 >= -2
tri1_11_16_18: t11_16_18 - x11_16 <= 0
tri2_11_16_18: t11_16_18 - x11_18 <= 0
tri3_11_16_18: t11_16_18 - x16_18 <= 0
tri4_11_16_18: t11_16_18 - x11_16 - x11_18 - x16_18 >= -2
tri1_11_16_19: t11_16_19 - x11_16 <= 0
tri2_11_16_19: t11_16_19 - x11_19 <= 0
tri3_11_16_19: t11_16_19 - x16_19 <= 0
tri4_11_16_19: t11_16_19 - x11_16 - x11_19 - x16_19 >= -2
tri1_11_16_20: t11_16_20 - x11_16 <= 0
tri2_11_16_20: t11_16_20 - x11_20 <= 0
tri3_11_16_20: t11_16_20 - x16_20 <= 0
tri4_11_16_20: t11_16_20 - x11_16 - x11_20 - x16_20 >= -2
tri1_11_16_21: t11_16_21 - x11_16 <= 0
tri2_11_16_21: t11_16_21 - x11_21 <= 0
tri3_11_16_21: t11_16_21 - x16_21 <= 0
tri4_11_16_21: t11_16_21 - x11_16 - x11_21 - x16_21 >= -2
tri1_11_17_18: t11_17_18 - x11_17 <= 0
tri2_11_17_18: t11_17_18 - x11_18 <= 0
tri3_11_17_18: t11_17_18 - x17_18 <= 0
tri4_11_17_18: t11_17_18 - x11_17 - x11_18 - x17_18 >= -2
tri1_11_17_19: t11_17_19 - x11_17 <= 0
tri2_11_17_19: t11_17_19 - x11_19 <= 0
tri3_11_17_19: t11_17_19 - x17_19 <= 0
tri4_11_17_19: t11_17_19 - x11_17 - x11_19 - x17_19 >= -2
tri1_11_17_20: t11_17_20 - x11_17 <= 0
tri2_11_17_20: t11_17_20 - x11_20 <= 0
tri3_11_17_20: t11_17_20 - x17_20 <= 0
tri4_11_17_20: t11_17_20 - x11_17 - x11_20 - x17_20 >= -2
tri1_11_17_21: t11_17_21 - x11_17 <= 0
tri2_11_17_21: t11_17_21 - x11_21 <= 0
tri3_11_17_21: t11_17_21 - x17_21 <= 0
tri4_11_17_21: t11_17_21 - x11_17 - x11_21 - x17_21 >= -2
tri1_11_18_19: t11_18_19 - x11_18 <= 0
tri2_11_18_19: t11_18_19 - x11_19 <= 0
tri3_11_18_19: t11_18_19 - x18_19 <= 0
tri4_11_18_19: t11_18_19 - x11_18 - x11_19 - x18_19 >= -2
tri1_11_18_20: t11_18_20 - x11_18 <= 0
tri2_11_18_20: t11_18_20 - x11_20 <= 0
tri3_11_18_20: t11_18_20 - x18_20 <= 0
tri4_11_18_20: t11_18_20 - x11_18 - x11_20 - x18_20 >= -2
tri1_11_18_21: t11_18_21 - x11_18 <= 0
tri2_11_18_21: t11_18_21 - x11_21 <= 0
tri3_11_18_21: t11_18_21 - x18_21 <= 0
tri4_11_18_21: t11_18_21 - x11_18 - x11_21 - x18_21 >= -2
tri1_11_19_20: t11_19_20 - x11_19 <= 0
tri2_11_19_20: t11_19_20 - x11_20 <= 0
tri3_11_19_20: t11_19_20 - x19_20 <= 0
tri4_11_19_20: t11_19_20 - x11_19 - x11_20 - x19_20 >= -2
tri1_11_19_21: t11_19_21 - x11_19 <= 0
tri2_11_19_21: t11_19_21 - x11_21 <= 0
tri3_11_19_21: t11_19_21 - x19_21 <= 0
tri4_11_19_21: t11_19_21 - x11_19 - x11_21 - x19_21 >= -2
tri1_11_20_21: t11_20_21 - x11_20 <= 0
tri2_11_20_21: t11_20_21 - x11_21 <= 0
tri3_11_20_21: t11_20_21 - x20_21 <= 0
tri4_11_20_21: t11_20_21 - x11_20 - x11_21 - x20_21 >= -2
tri1_12_13_14: t12_13_14 - x12_13 <= 0
tri2_12_13_14: t12_13_14 - x12_14 <= 0
tri3_12_13_14: t12_13_14 - x13_14 <= 0
tri4_12_13_14: t12_13_14 - x12_13 - x12_14 - x13_14 >= -2
tri1_12_13_15: t12_13_15 - x12_13 <= 0
tri2_12_13_15: t12_13_15 - x12_15 <= 0
tri3_12_13_15: t12_13_15 - x13_15 <= 0
tri4_12_13_15: t12_13_15 - x12_13 - x12_15 - x13_15 >= -2
tri1_12_13_16: t12_13_16 - x12_13 <= 0
tri2_12_13_16: t12_13_16 - x12_16 <= 0
tri3_12_13_16: t12_13_16 - x13_16 <= 0
tri4_12_13_16: t12_13_16 - x12_13 - x12_16 - x13_16 >= -2
tri1_12_13_17: t12_13_17 - x12_13 <= 0
tri2_12_13_17: t12_13_17 - x12_17 <= 0
tri3_12_13_17: t12_13_17 - x13_17 <= 0
tri4_12_13_17: t12_13_17 - x12_13 - x12_17 - x13_17 >= -2
tri1_12_13_18: t12_13_18 - x12_13 <= 0
tri2_12_13_18: t12_13_18 - x12_18 <= 0
tri3_12_13_18: t12_13_18 - x13_18 <= 0
tri4_12_13_18: t12_13_18 - x12_13 - x12_18 - x13_18 >= -2
tri1_12_13_19: t12_13_19 - x12_13 <= 0
tri2_12_13_19: t12_13_19 - x12_19 <= 0
tri3_12_13_19: t12_13_19 - x13_19 <= 0
tri4_12_13_19: t12_13_19 - x12_13 - x12_19 - x13_19 >= -2
tri1_12_13_20: t12_13_20 - x12_13 <= 0
tri2_12_13_20: t12_13_20 - x12_20 <= 0
tri3_12_13_20: t12_13_20 - x13_20 <= 0
tri4_12_13_20: t12_13_20 - x12_13 - x12_20 - x13_20 >= -2
tri1_12_13_21: t12_13_21 - x12_13 <= 0
tri2_12_13_21: t12_13_21 - x12_21 <= 0
tri3_12_13_21: t12_13_21 - x13_21 <= 0
tri4_12_13_21: t12_13_21 - x12_13 - x12_21 - x13_21 >= -2
tri1_12_14_15: t12_14_15 - x12_14 <= 0
tri2_12_14_15: t12_14_15 - x12_15 <= 0
tri3_12_14_15: t12_14_15 - x14_15 <= 0
tri4_12_14_15: t12_14_15 - x12_14 - x12_15 - x14_15 >= -2
tri1_12_14_16: t12_14_16 - x12_14 <= 0
tri2_12_14_16: t12_14_16 - x12_16 <= 0
tri3_12_14_16: t12_14_16 - x14_16 <= 0
tri4_12_14_16: t12_14_16 - x12_14 - x12_16 - x14_16 >= -2
tri1_12_14_17: t12_14_17 - x12_14 <= 0
tri2_12_14_17: t12_14_17 - x12_17 <= 0
tri3_12_14_17: t12_14_17 - x14_17 <= 0
tri4_12_14_17: t12_14_17 - x12_14 - x12_17 - x14_17 >= -2
tri1_12_14_18: t12_14_18 - x12_14 <= 0
tri2_12_14_18: t12_14_18 - x12_18 <= 0
tri3_12_14_18: t12_14_18 - x14_18 <= 0
tri4_12_14_18: t12_14_18 - x12_14 - x12_18 - x14_18 >= -2
tri1_12_14_19: t12_14_19 - x12_14 <= 0
tri2_12_14_19: t12_14_19 - x12_19 <= 0
tri3_12_14_19: t12_14_19 - x14_19 <= 0
tri4_12_14_19: t12_14_19 - x12_14 - x12_19 - x14_19 >= -2
tri1_12_14_20: t12_14_20 - x12_14 <= 0
tri2_12_14_20: t12_14_20 - x12_20 <= 0
tri3_12_14_20: t12_14_20 - x14_20 <= 0
tri4_12_14_20: t12_14_20 - x12_14 - x12_20 - x14_20 >= -2
tri1_12_14_21: t12_14_21 - x12_14 <= 0
tri2_12_14_21: t12_14_21 - x12_21 <= 0
tri3_12_14_21: t12_14_21 - x14_21 <= 0
tri4_12_14_21: t12_14_21 - x12_14 - x12_21 - x14_21 >= -2
tri1_12_15_16: t12_15_16 - x12_15 <= 0
tri2_12_15_16: t12_15_16 - x12_16 <= 0
tri3_12_15_16: t12_15_16 - x15_16 <= 0
tri4_12_15_16: t12_15_16 - x12_15 - x12_16 - x15_16 >= -2
tri1_12_15_17: t12_15_17 - x12_15 <= 0
tri2_12_15_17: t12_15_17 - x12_17 <= 0
tri3_12_15_17: t12_15_17 - x15_17 <= 0
tri4_12_15_17: t12_15_17 - x12_15 - x12_17 - x15_17 >= -2
tri1_12_15_18: t12_15_18 - x12_15 <= 0
tri2_12_15_18: t12_15_18 - x12_18 <= 0
tri3_12_15_18: t12_15_18 - x15_18 <= 0
tri4_12_15_18: t12_15_18 - x12_15 - x12_18 - x15_18 >= -2
tri1_12_15_19: t12_15_19 - x12_15 <= 0
tri2_12_15_19: t12_15_19 - x12_19 <= 0
tri3_12_15_19: t12_15_19 - x15_19 <= 0
tri4_12_15_19: t12_15_19 - x12_15 - x12_19 - x15_19 >= -2
tri1_12_15_20: t12_15_20 - x12_15 <= 0
tri2_12_15_20: t12_15_20 - x12_20 <= 0
tri3_12_15_20: t12_15_20 - x15_20 <= 0
tri4_12_15_20: t12_15_20 - x12_15 - x12_20 - x15_20 >= -2
tri1_12_15_21: t12_15_21 - x12_15 <= 0
tri2_12_15_21: t12_15_21 - x12_21 <= 0
tri3_12_15_21: t12_15_21 - x15_21 <= 0
tri4_12_15_21: t12_15_21 - x12_15 - x12_21 - x15_21 >= -2
tri1_12_16_17: t12_16_17 - x12_16 <= 0
tri2_12_16_17: t12_16_17 - x12_17 <= 0
tri3_12_16_17: t12_16_17 - x16_17 <= 0
tri4_12_16_17: t12_16_17 - x12_16 - x12_17 - x16_17 >= -2
tri1_12_16_18: t12_16_18 - x12_16 <= 0
tri2_12_16_18: t12_16_18 - x12_18 <= 0
tri3_12_16_18: t12_16_18 - x16_18 <= 0
tri4_12_16_18: t12_16_18 - x12_16 - x12_18 - x16_18 >= -2
tri1_12_16_19: t12_16_19 - x12_16 <= 0
tri2_12_16_19: t12_16_19 - x12_19 <= 0
tri3_12_16_19: t12_16_19 - x16_19 <= 0
tri4_12_16_19: t12_16_19 - x12_16 - x12_19 - x16_19 >= -2
tri1_12_16_20: t12_16_20 - x12_16 <= 0
tri2_12_16_20: t12_16_20 - x12_20 <= 0
tri3_12_16_20: t12_16_20 - x16_20 <= 0
tri4_12_16_20: t12_16_20 - x12_16 - x12_20 - x16_20 >= -2
tri1_12_16_21: t12_16_21 - x12_16 <= 0
tri2_12_16_21: t12_16_21 - x12_21 <= 0
tri3_12_16_21: t12_16_21 - x16_21 <= 0
tri4_12_16_21: t12_16_21 - x12_16 - x12_21 - x16_21 >= -2
tri1_12_17_18: t12_17_18 - x12_17 <= 0
tri2_12_17_18: t12_17_18 - x12_18 <= 0
tri3_12_17_18: t12_17_18 - x17_18 <= 0
tri4_12_17_18: t12_17_18 - x12_17 - x12_18 - x17_18 >= -2
tri1_12_17_19: t12_17_19 - x12_17 <= 0
tri2_12_17_19: t12_17_19 - x12_19 <= 0
tri3_12_17_19: t12_17_19 - x17_19 <= 0
tri4_12_17_19: t12_17_19 - x12_17 - x12_19 - x17_19 >= -2
tri1_12_17_20: t12_17_20 - x12_17 <= 0
tri2_12_17_20: t12_17_20 - x12_20 <= 0
tri3_12_17_20: t12_17_20 - x17_20 <= 0
tri4_12_17_20: t12_17_20 - x12_17 - x12_20 - x17_20 >= -2
tri1_12_17_21: t12_17_21 - x12_17 <= 0
tri2_12_17_21: t12_17_21 - x12_21 <= 0
tri3_12_17_21: t12_17_21 - x17_21 <= 0
tri4_12_17_21: t12_17_21 - x12_17 - x12_21 - x17_21 >= -2
tri1_12_18_19: t12_18_19 - x12_18 <= 0
tri2_12_18_19: t12_18_19 - x12_19 <= 0
tri3_12_18_19: t12_18_19 - x18_19 <= 0
tri4_12_18_19: t12_18_19 - x12_18 - x12_19 - x18_19 >= -2
tri1_12_18_20: t12_18_20 - x12_18 <= 0
tri2_12_18_20: t12_18_20 - x12_20 <= 0
tri3_12_18_20: t12_18_20 - x18_20 <= 0
tri4_12_18_20: t12_18_20 - x12_18 - x12_20 - x18_20 >= -2
tri1_12_18_21: t12_18_21 - x12_18 <= 0
tri2_12_18_21: t12_18_21 - x12_21 <= 0
tri3_12_18_21: t12_18_21 - x18_21 <= 0
tri4_12_18_21: t12_18_21 - x12_18 - x12_21 - x18_21 >= -2
tri1_12_19_20: t12_19_20 - x12_19 <= 0
tri2_12_19_20: t12_19_20 - x12_20 <= 0
tri3_12_19_20: t12_19_20 - x19_20 <= 0
tri4_12_19_20: t12_19_20 - x12_19 - x12_20 - x19_20 >= -2
tri1_12_19_21: t12_19_21 - x12_19 <= 0
tri2_12_19_21: t12_19_21 - x12_21 <= 0
tri3_12_19_21: t12_19_21 - x19_21 <= 0
tri4_12_19_21: t12_19_21 - x12_19 - x12_21 - x19_21 >= -2
tri1_12_20_21: t12_20_21 - x12_20 <= 0
tri2_12_20_21: t12_20_21 - x12_21 <= 0
tri3_12_20_21: t12_20_21 - x20_21 <= 0
tri4_12_20_21: t12_20_21 - x12_20 - x12_21 - x20_21 >= -2
tri1_13_14_15: t13_14_15 - x13_14 <= 0
tri2_13_14_15: t13_14_15 - x13_15 <= 0
tri3_13_14_15: t13_14_15 - x14_15 <= 0
tri4_13_14_15: t13_14_15 - x13_14 - x13_15 - x14_15 >= -2
tri1_13_14_16: t13_14_16 - x13_14 <= 0
tri2_13_14_16: t13_14_16 - x13_16 <= 0
tri3_13_14_16: t13_14_16 - x14_16 <= 0
tri4_13_14_16: t13_14_16 - x13_14 - x13_16 - x14_16 >= -2
tri1_13_14_17: t13_14_17 - x13_14 <= 0
tri2_13_14_17: t13_14_17 - x13_17 <= 0
tri3_13_14_17: t13_14_17 - x14_17 <= 0
tri4_13_14_17: t13_14_17 - x13_14 - x13_17 - x14_17 >= -2
tri1_13_14_18: t13_14_18 - x13_14 <= 0
tri2_13_14_18: t13_14_18 - x13_18 <= 0
tri3_13_14_18: t13_14_18 - x14_18 <= 0
tri4_13_14_18: t13_14_18 - x13_14 - x13_18 - x14_18 >= -2
tri1_13_14_19: t13_14_19 - x13_14 <= 0
tri2_13_14_19: t13_14_19 - x13_19 <= 0
tri3_13_14_19: t13_14_19 - x14_19 <= 0
tri4_13_14_19: t13_14_19 - x13_14 - x13_19 - x14_19 >= -2
tri1_13_14_20: t13_14_20 - x13_14 <= 0
tri2_13_14_20: t13_14_20 - x13_20 <= 0
tri3_13_14_20: t13_14_20 - x14_20 <= 0
tri4_13_14_20: t13_14_20 - x13_14 - x13_20 - x14_20 >= -2
tri1_13_14_21: t13_14_21 - x13_14 <= 0
tri2_13_14_21: t13_14_21 - x13_21 <= 0
tri3_13_14_21: t13_14_21 - x14_21 <= 0
tri4_13_14_21: t13_14_21 - x13_14 - x13_21 - x14_21 >= -2
tri1_13_15_16: t13_15_16 - x13_15 <= 0
tri2_13_15_16: t13_15_16 - x13_16 <= 0
tri3_13_15_16: t13_15_16 - x15_16 <= 0
tri4_13_15_16: t13_15_16 - x13_15 - x13_16 - x15_16 >= -2
tri1_13_15_17: t13_15_17 - x13_15 <= 0
tri2_13_15_17: t13_15_17 - x13_17 <= 0
tri3_13_15_17: t13_15_17 - x15_17 <= 0
tri4_13_15_17: t13_15_17 - x13_15 - x13_17 - x15_17 >= -2
tri1_13_15_18: t13_15_18 - x13_15 <= 0
tri2_13_15_18: t13_15_18 - x13_18 <= 0
tri3_13_15_18: t13_15_18 - x15_18 <= 0
tri4_13_15_18: t13_15_18 - x13_15 - x13_18 - x15_18 >= -2
tri1_13_15_19: t13_15_19 - x13_15 <= 0
tri2_13_15_19: t13_15_19 - x13_19 <= 0
tri3_13_15_19: t13_15_19 - x15_19 <= 0
tri4_13_15_19: t13_15_19 - x13_15 - x13_19 - x15_19 >= -2
tri1_13_15_20: t13_15_20 - x13_15 <= 0
tri2_13_15_20: t13_15_20 - x13_20 <= 0
tri3_13_15_20: t13_15_20 - x15_20 <= 0
tri4_13_15_20: t13_15_20 - x13_15 - x13_20 - x15_20 >= -2
tri1_13_15_21: t13_15_21 - x13_15 <= 0
tri2_13_15_21: t13_15_21 - x13_21 <= 0
tri3_13_15_21: t13_15_21 - x15_21 <= 0
tri4_13_15_21: t13_15_21 - x13_15 - x13_21 - x15_21 >= -2
tri1_13_16_17: t13_16_17 - x13_16 <= 0
tri2_13_16_17: t13_16_17 - x13_17 <= 0
tri3_13_16_17: t13_16_17 - x16_17 <= 0
tri4_13_16_17: t13_16_17 - x13_16 - x13_17 - x16_17 >= -2
tri1_13_16_18: t13_16_18 - x13_16 <= 0
tri2_13_16_18: t13_16_18 - x13_18 <= 0
tri3_13_16_18: t13_16_18 - x16_18 <= 0
tri4_13_16_18: t13_16_18 - x13_16 - x13_18 - x16_18 >= -2
tri1_13_16_19: t13_16_19 - x13_16 <= 0
tri2_13_16_19: t13_16_19 - x13_19 <= 0
tri3_13_16_19: t13_16_19 - x16_19 <= 0
tri4_13_16_19: t13_16_19 - x13_16 - x13_19 - x16_19 >= -2
tri1_13_16_20: t13_16_20 - x13_16 <= 0
tri2_13_16_20: t13_16_20 - x13_20 <= 0
tri3_13_16_20: t13_16_20 - x16_20 <= 0
tri4_13_16_20: t13_16_20 - x13_16 - x13_20 - x16_20 >= -2
tri1_13_16_21: t13_16_21 - x13_16 <= 0
tri2_13_16_21: t13_16_21 - x13_21 <= 0
tri3_13_16_21: t13_16_21 - x16_21 <= 0
tri4_13_16_21: t13_16_21 - x13_16 - x13_21 - x16_21 >= -2
tri1_13_17_18: t13_17_18 - x13_17 <= 0
tri2_13_17_18: t13_17_18 - x13_18 <= 0
tri3_13_17_18: t13_17_18 - x17_18 <= 0
tri4_13_17_18: t13_17_18 - x13_17 - x13_18 - x17_18 >= -2
tri1_13_17_19: t13_17_19 - x13_17 <= 0
tri2_13_17_19: t13_17_19 - x13_19 <= 0
tri3_13_17_19: t13_17_19 - x17_19 <= 0
tri4_13_17_19: t13_17_19 - x13_17 - x13_19 - x17_19 >= -2
tri1_13_17_20: t13_17_20 - x13_17 <= 0
tri2_13_17_20: t13_17_20 - x13_20 <= 0
tri3_13_17_20: t13_17_20 - x17_20 <= 0
tri4_13_17_20: t13_17_20 - x13_17 - x13_20 - x17_20 >= -2
tri1_13_17_21: t13_17_21 - x13_17 <= 0
tri2_13_17_21: t13_17_21 - x13_21 <= 0
tri3_13_17_21: t13_17_21 - x17_21 <= 0
tri4_13_17_21: t13_17_21 - x13_17 - x13_21 - x17_21 >= -2
tri1_13_18_19: t13_18_19 - x13_18 <= 0
tri2_13_18_19: t13_18_19 - x13_19 <= 0
tri3_13_18_19: t13_18_19 - x18_19 <= 0
tri4_13_18_19: t13_18_19 - x13_18 - x13_19 - x18_19 >= -2
tri1_13_18_20: t13_18_20 - x13_18 <= 0
tri2_13_18_20: t13_18_20 - x13_20 <= 0
tri3_13_18_20: t13_18_20 - x18_20 <= 0
tri4_13_18_20: t13_18_20 - x13_18 - x13_20 - x18_20 >= -2
tri1_13_18_21: t13_18_21 - x13_18 <= 0
tri2_13_18_21: t13_18_21 - x13_21 <= 0
tri3_13_18_21: t13_18_21 - x18_21 <= 0
tri4_13_18_21: t13_18_21 - x13_18 - x13_21 - x18_21 >= -2
tri1_13_19_20: t13_19_20 - x13_19 <= 0
tri2_13_19_20: t13_19_20 - x13_20 <= 0
tri3_13_19_20: t13_19_20 - x19_20 <= 0
tri4_13_19_20: t13_19_20 - x13_19 - x13_20 - x19_20 >= -2
tri1_13_19_21: t13_19_21 - x13_19 <= 0
tri2_13_19_21: t13_19_21 - x13_21 <= 0
tri3_13_19_21: t13_19_21 - x19_21 <= 0
tri4_13_19_21: t13_19_21 - x13_19 - x13_21 - x19_21 >= -2
tri1_13_20_21: t13_20_21 - x13_20 <= 0
tri2_13_20_21: t13_20_21 - x13_21 <= 0
tri3_13_20_21: t13_20_21 - x20_21 <= 0
tri4_13_20_21: t13_20_21 - x13_20 - x13_21 - x20_21 >= -2
tri1_14_15_16: t14_15_16 - x14_15 <= 0
tri2_14_15_16: t14_15_16 - x14_16 <= 0
tri3_14_15_16: t14_15_16 - x15_16 <= 0
tri4_14_15_16: t14_15_16 - x14_15 - x14_16 - x15_16 >= -2
tri1_14_15_17: t14_15_17 - x14_15 <= 0
tri2_14_15_17: t14_15_17 - x14_17 <= 0
tri3_14_15_17: t14_15_17 - x15_17 <= 0
tri4_14_15_17: t14_15_17 - x14_15 - x14_17 - x15_17 >= -2
tri1_14_15_18: t14_15_18 - x14_15 <= 0
tri2_14_15_18: t14_15_18 - x14_18 <= 0
tri3_14_15_18: t14_15_18 - x15_18 <= 0
tri4_14_15_18: t14_15_18 - x14_15 - x14_18 - x15_18 >= -2
tri1_14_15_19: t14_15_19 - x14_15 <= 0
tri2_14_15_19: t14_15_19 - x14_19 <= 0
tri3_14_15_19: t14_15_19 - x15_19 <= 0
tri4_14_15_19: t14_15_19 - x14_15 - x14_19 - x15_19 >= -2
tri1_14_15_20: t14_15_20 - x14_15 <= 0
tri2_14_15_20: t14_15_20 - x14_20 <= 0
tri3_14_15_20: t14_15_20 - x15_20 <= 0
tri4_14_15_20: t14_15_20 - x14_15 - x14_20 - x15_20 >= -2
tri1_14_15_21: t14_15_21 - x14_15 <= 0
tri2_14_15_21: t14_15_21 - x14_21 <= 0
tri3_14_15_21: t14_15_21 - x15_21 <= 0
tri4_14_15_21: t14_15_21 - x14_15 - x14_21 - x15_21 >= -2
tri1_14_16_17: t14_16_17 - x14_16 <= 0
tri2_14_16_17: t14_16_17 - x14_17 <= 0
tri3_14_16_17: t14_16_17 - x16_17 <= 0
tri4_14_16_17: t14_16_17 - x14_16 - x14_17 - x16_17 >= -2
tri1_14_16_18: t14_16_18 - x14_16 <= 0
tri2_14_16_18: t14_16_18 - x14_18 <= 0
tri3_14_16_18: t14_16_18 - x16_18 <= 0
tri4_14_16_18: t14_16_18 - x14_16 - x14_18 - x16_18 >= -2
tri1_14_16_19: t14_16_19 - x14_16 <= 0
tri2_14_16_19: t14_16_19 - x14_19 <= 0
tri3_14_16_19: t14_16_19 - x16_19 <= 0
tri4_14_16_19: t14_16_19 - x14_16 - x14_19 - x16_19 >= -2
tri1_14_16_20: t14_16_20 - x14_16 <= 0
tri2_14_16_20: t14_16_20 - x14_20 <= 0
tri3_14_16_20: t14_16_20 - x16_20 <= 0
tri4_14_16_20: t14_16_20 - x14_16 - x14_20 - x16_20 >= -2
tri1_14_16_21: t14_16_21 - x14_16 <= 0
tri2_14_16_21: t14_16_21 - x14_21 <= 0
tri3_14_16_21: t14_16_21 - x16_21 <= 0
tri4_14_16_21: t14_16_21 - x14_16 - x14_21 - x16_21 >= -2
tri1_14_17_18: t14_17_18 - x14_17 <= 0
tri2_14_17_18: t14_17_18 - x14_18 <= 0
tri3_14_17_18: t14_17_18 - x17_18 <= 0
tri4_14_17_18: t14_17_18 - x14_17 - x14_18 - x17_18 >= -2
tri1_14_17_19: t14_17_19 - x14_17 <= 0
tri2_14_17_19: t14_17_19 - x14_19 <= 0
tri3_14_17_19: t14_17_19 - x17_19 <= 0
tri4_14_17_19: t14_17_19 - x14_17 - x14_19 - x17_19 >= -2
tri1_14_17_20: t14_17_20 - x14_17 <= 0
tri2_14_17_20: t14_17_20 - x14_20 <= 0
tri3_14_17_20: t14_17_20 - x17_20 <= 0
tri4_14_17_20: t14_17_20 - x14_17 - x14_20 - x17_20 >= -2
tri1_14_17_21: t14_17_21 - x14_17 <= 0
tri2_14_17_21: t14_17_21 - x14_21 <= 0
tri3_14_17_21: t14_17_21 - x17_21 <= 0
tri4_14_17_21: t14_17_21 - x14_17 - x14_21 - x17_21 >= -2
tri1_14_18_19: t14_18_19 - x14_18 <= 0
tri2_14_18_19: t14_18_19 - x14_19 <= 0
tri3_14_18_19: t14_18_19 - x18_19 <= 0
tri4_14_18_19: t14_18_19 - x14_18 - x14_19 - x18_19 >= -2
tri1_14_18_20: t14_18_20 - x14_18 <= 0
tri2_14_18_20: t14_18_20 - x14_20 <= 0
tri3_14_18_20: t14_18_20 - x18_20 <= 0
tri4_14_18_20: t14_18_20 - x14_18 - x14_20 - x18_20 >= -2
tri1_14_18_21: t14_18_21 - x14_18 <= 0
tri2_14_18_21: t14_18_21 - x14_21 <= 0
tri3_14_18_21: t14_18_21 - x18_21 <= 0
tri4_14_18_21: t14_18_21 - x14_18 - x14_21 - x18_21 >= -2
tri1_14_19_20: t14_19_20 - x14_19 <= 0
tri2_14_19_20: t14_19_20 - x14_20 <= 0
tri3_14_19_20: t14_19_20 - x19_20 <= 0
tri4_14_19_20: t14_19_20 - x14_19 - x14_20 - x19_20 >= -2
tri1_14_19_21: t14_19_21 - x14_19 <= 0
tri2_14_19_21: t14_19_21 - x14_21 <= 0
tri3_14_19_21: t14_19_21 - x19_21 <= 0
tri4_14_19_21: t14_19_21 - x14_19 - x14_21 - x19_21 >= -2
tri1_14_20_21: t14_20_21 - x14_20 <= 0
tri2_14_20_21: t14_20_21 - x14_21 <= 0
tri3_14_20_21: t14_20_21 - x20_21 <= 0
tri4_14_20_21: t14_20_21 - x14_20 - x14_21 - x20_21 >= -2
tri1_15_16_17: t15_16_17 - x15_16 <= 0
tri2_15_16_17: t15_16_17 - x15_17 <= 0
tri3_15_16_17: t15_16_17 - x16_17 <= 0
tri4_15_16_17: t15_16_17 - x15_16 - x15_17 - x16_17 >= -2
tri1_15_16_18: t15_16_18 - x15_16 <= 0
tri2_15_16_18: t15_16_18 - x15_18 <= 0
tri3_15_16_18: t15_16_18 - x16_18 <= 0
tri4_15_16_18: t15_16_18 - x15_16 - x15_18 - x16_18 >= -2
tri1_15_16_19: t15_16_19 - x15_16 <= 0
tri2_15_16_19: t15_16_19 - x15_19 <= 0
tri3_15_16_19: t15_16_19 - x16_19 <= 0
tri4_15_16_19: t15_16_19 - x15_16 - x15_19 - x16_19 >= -2
tri1_15_16_20: t15_16_20 - x15_16 <= 0
tri2_15_16_20: t15_16_20 - x15_20 <= 0
tri3_15_16_20: t15_16_20 - x16_20 <= 0
tri4_15_16_20: t15_16_20 - x15_16 - x15_20 - x16_20 >= -2
tri1_15_16_21: t15_16_21 - x15_16 <= 0
tri2_15_16_21: t15_16_21 - x15_21 <= 0
tri3_15_16_21: t15_16_21 - x16_21 <= 0
tri4_15_16_21: t15_16_21 - x15_16 - x15_21 - x16_21 >= -2
tri1_15_17_18: t15_17_18 - x15_17 <= 0
tri2_15_17_18: t15_17_18 - x15_18 <= 0
tri3_15_17_18: t15_17_18 - x17_18 <= 0
tri4_15_17_18: t15_17_18 - x15_17 - x15_18 - x17_18 >= -2
tri1_15_17_19: t15_17_19 - x15_17 <= 0
tri2_15_17_19: t15_17_19 - x15_19 <= 0
tri3_15_17_19: t15_17_19 - x17_19 <= 0
tri4_15_17_19: t15_17_19 - x15_17 - x15_19 - x17_19 >= -2
tri1_15_17_20: t15_17_20 - x15_17 <= 0
tri2_15_17_20: t15_17_20 - x15_20 <= 0
tri3_15_17_20: t15_17_20 - x17_20 <= 0
tri4_15_17_20: t15_17_20 - x15_17 - x15_20 - x17_20 >= -2
tri1_15_17_21: t15_17_21 - x15_17 <= 0
tri2_15_17_21: t15_17_21 - x15_21 <= 0
tri3_15_17_21: t15_17_21 - x17_21 <= 0
tri4_15_17_21: t15_17_21 - x15_17 - x15_21 - x17_21 >= -2
tri1_15_18_19: t15_18_19 - x15_18 <= 0
tri2_15_18_19: t15_18_19 - x15_19 <= 0
tri3_15_18_19: t15_18_19 - x18_19 <= 0
tri4_15_18_19: t15_18_19 - x15_18 - x15_19 - x18_19 >= -2
tri1_15_18_20: t15_18_20 - x15_18 <= 0
tri2_15_18_20: t15_18_20 - x15_20 <= 0
tri3_15_18_20: t15_18_20 - x18_20 <= 0
tri4_15_18_20: t15_18_20 - x15_18 - x15_20 - x18_20 >= -2
tri1_15_18_21: t15_18_21 - x15_18 <= 0
tri2_15_18_21: t15_18_21 - x15_21 <= 0
tri3_15_18_21: t15_18_21 - x18_21 <= 0
tri4_15_18_21: t15_18_21 - x15_18 - x15_21 - x18_21 >= -2
tri1_15_19_20: t15_19_20 - x15_19 <= 0
tri2_15_19_20: t15_19_20 - x15_20 <= 0
tri3_15_19_20: t15_19_20 - x19_20 <= 0
tri4_15_19_20: t15_19_20 - x15_19 - x15_20 - x19_20 >= -2
tri1_15_19_21: t15_19_21 - x15_19 <= 0
tri2_15_19_21: t15_19_21 - x15_21 <= 0
tri3_15_19_21: t15_19_21 - x19_21 <= 0
tri4_15_19_21: t15_19_21 - x15_19 - x15_21 - x19_21 >= -2
tri1_15_20_21: t15_20_21 - x15_20 <= 0
tri2_15_20_21: t15_20_21 - x15_21 <= 0
tri3_15_20_21: t15_20_21 - x20_21 <= 0
tri4_15_20_21: t15_20_21 - x15_20 - x15_21 - x20_21 >= -2
tri1_16_17_18: t16_17_18 - x16_17 <= 0
tri2_16_17_18: t16_17_18 - x16_18 <= 0
tri3_16_17_18: t16_17_18 - x17_18 <= 0
tri4_16_17_18: t16_17_18 - x16_17 - x16_18 - x17_18 >= -2
tri1_16_17_19: t16_17_19 - x16_17 <= 0
tri2_16_17_19: t16_17_19 - x16_19 <= 0
tri3_16_17_19: t16_17_19 - x17_19 <= 0
tri4_16_17_19: t16_17_19 - x16_17 - x16_19 - x17_19 >= -2
tri1_16_17_20: t16_17_20 - x16_17 <= 0
tri2_16_17_20: t16_17_20 - x16_20 <= 0
tri3_16_17_20: t16_17_20 - x17_20 <= 0
tri4_16_17_20: t16_17_20 - x16_17 - x16_20 - x17_20 >= -2
tri1_16_17_21: t16_17_21 - x16_17 <= 0
tri2_16_17_21: t16_17_21 - x16_21 <= 0
tri3_16_17_21: t16_17_21 - x17_21 <= 0
tri4_16_17_21: t16_17_21 - x16_17 - x16_21 - x17_21 >= -2
tri1_16_18_19: t16_18_19 - x16_18 <= 0
tri2_16_18_19: t16_18_19 - x16_19 <= 0
tri3_16_18_19: t16_18_19 - x18_19 <= 0
tri4_16_18_19: t16_18_19 - x16_18 - x16_19 - x18_19 >= -2
tri1_16_18_20: t16_18_20 - x16_18 <= 0
tri2_16_18_20: t16_18_20 - x16_20 <= 0
tri3_16_18_20: t16_18_20 - x18_20 <= 0
tri4_16_18_20: t16_18_20 - x16_18 - x16_20 - x18_20 >= -2
tri1_16_18_21: t16_18_21 - x16_18 <= 0
tri2_16_18_21: t16_18_21 - x16_21 <= 0
tri3_16_18_21: t16_18_21 - x18_21 <= 0
tri4_16_18_21: t16_18_21 - x16_18 - x16_21 - x18_21 >= -2
tri1_16_19_20: t16_19_20 - x16_19 <= 0
tri2_16_19_20: t16_19_20 - x16_20 <= 0
tri3_16_19_20: t16_19_20 - x19_20 <= 0
tri4_16_19_20: t16_19_20 - x16_19 - x16_20 - x19_20 >= -2
tri1_16_19_21: t16_19_21 - x16_19 <= 0
tri2_16_19_21: t16_19_21 - x16_21 <= 0
tri3_16_19_21: t16_19_21 - x19_21 <= 0
tri4_16_19_21: t16_19_21 - x16_19 - x16_21 - x19_21 >= -2
tri1_16_20_21: t16_20_21 - x16_20 <= 0
tri2_16_20_21: t16_20_21 - x16_21 <= 0
tri3_16_20_21: t16_20_21 - x20_21 <= 0
tri4_16_20_21: t16_20_21 - x16_20 - x16_21 - x20_21 >= -2
tri1_17_18_19: t17_18_19 - x17_18 <= 0
tri2_17_18_19: t17_18_19 - x17_19 <= 0
tri3_17_18_19: t17_18_19 - x18_19 <= 0
tri4_17_18_19: t17_18_19 - x17_18 - x17_19 - x18_19 >= -2
tri1_17_18_20: t17_18_20 - x17_18 <= 0
tri2_17_18_20: t17_18_20 - x17_20 <= 0
tri3_17_18_20: t17_18_20 - x18_20 <= 0
tri4_17_18_20: t17_18_20 - x17_18 - x17_20 - x18_20 >= -2
tri1_17_18_21: t17_18_21 - x17_18 <= 0
tri2_17_18_21: t17_18_21 - x17_21 <= 0
tri3_17_18_21: t17_18_21 - x18_21 <= 0
tri4_17_18_21: t17_18_21 - x17_18 - x17_21 - x18_21 >= -2
tri1_17_19_20: t17_19_20 - x17_19 <= 0
tri2_17_19_20: t17_19_20 - x17_20 <= 0
tri3_17_19_20: t17_19_20 - x19_20 <= 0
tri4_17_19_20: t17_19_20 - x17_19 - x17_20 - x19_20 >= -2
tri1_17_19_21: t17_19_21 - x17_19 <= 0
tri2_17_19_21: t17_19_21 - x17_21 <= 0
tri3_17_19_21: t17_19_21 - x19_21 <= 0
tri4_17_19_21: t17_19_21 - x17_19 - x17_21 - x19_21 >= -2
tri1_17_20_21: t17_20_21 - x17_20 <= 0
tri2_17_20_21: t17_20_21 - x17_21 <= 0
tri3_17_20_21: t17_20_21 - x20_21 <= 0
tri4_17_20_21: t17_20_21 - x17_20 - x17_21 - x20_21 >= -2
tri1_18_19_20: t18_19_20 - x18_19 <= 0
tri2_18_19_20: t18_19_20 - x18_20 <= 0
tri3_18_19_20: t18_19_20 - x19_20 <= 0
tri4_18_19_20: t18_19_20 - x18_19 - x18_20 - x19_20 >= -2
tri1_18_19_21: t18_19_21 - x18_19 <= 0
tri2_18_19_21: t18_19_21 - x18_21 <= 0
tri3_18_19_21: t18_19_21 - x19_21 <= 0
tri4_18_19_21: t18_19_21 - x18_19 - x18_21 - x19_21 >= -2
tri1_18_20_21: t18_20_21 - x18_20 <= 0
tri2_18_20_21: t18_20_21 - x18_21 <= 0
tri3_18_20_21: t18_20_21 - x20_21 <= 0
tri4_18_20_21: t18_20_21 - x18_20 - x18_21 - x20_21 >= -2
tri1_19_20_21: t19_20_21 - x19_20 <= 0
tri2_19_20_21: t19_20_21 - x19_21 <= 0
tri3_19_20_21: t19_20_21 - x20_21 <= 0
tri4_19_20_21: t19_20_21 - x19_20 - x19_21 - x20_21 >= -2
k3deg0: d0 - t0_1_2 - t0_1_3 - t0_1_4 - t0_1_5 - t0_1_6 - t0_1_7 - t0_1_8 - t0_1_9 - t0_1_10 - t0_1_11 - t0_1_12 - t0_1_13 - t0_1_14 - t0_1_15 - t0_1_16 - t0_1_17 - t0_1_18 - t0_1_19 - t0_1_20 - t0_1_21 - t0_2_3 - t0_2_4 - t0_2_5 - t0_2_6 - t0_2_7 - t0_2_8 - t0_2_9 - t0_2_10 - t0_2_11 - t0_2_12 - t0_2_13 - t0_2_14 - t0_2_15 - t0_2_16 - t0_2_17 - t0_2_18 - t0_2_19 - t0_2_20 - t0_2_21 - t0_3_4 - t0_3_5 - t0_3_6 - t0_3_7 - t0_3_8 - t0_3_9 - t0_3_10 - t0_3_11 - t0_3_12 - t0_3_13 - t0_3_14 - t0_3_15 - t0_3_16 - t0_3_17 - t0_3_18 - t0_3_19 - t0_3_20 - t0_3_21 - t0_4_5 - t0_4_6 - t0_4_7 - t0_4_8 - t0_4_9 - t0_4_10 - t0_4_11 - t0_4_12 - t0_4_13 - t0_4_14 - t0_4_15 - t0_4_16 - t0_4_17 - t0_4_18 - t0_4_19 - t0_4_20 - t0_4_21 - t0_5_6 - t0_5_7 - t0_5_8 - t0_5_9 - t0_5_10 - t0_5_11 - t0_5_12 - t0_5_13 - t0_5_14 - t0_5_15 - t0_5_16 - t0_5_17 - t0_5_18 - t0_5_19 - t0_5_20 - t0_5_21 - t0_6_7 - t0_6_8 - t0_6_9 - t0_6_10 - t0_6_11 - t0_6_12 - t0_6_13 - t0_6_14 - t0_6_15 - t0_6_16 - t0_6_17 - t0_6_18 - t0_6_19 - t0_6_20 - t0_6_21 - t0_7_8 - t0_7_9 - t0_7_10 - t0_7_11 - t0_7_12 - t0_7_13 - t0_7_14 - t0_7_15 - t0_7_16 - t0_7_17 - t0_7_18 - t0_7_19 - t0_7_20 - t0_7_21 - t0_8_9 - t0_8_10 - t0_8_11 - t0_8_12 - t0_8_13 - t0_8_14 - t0_8_15 - t0_8_16 - t0_8_17 - t0_8_18 - t0_8_19 - t0_8_20 - t0_8_21 - t0_9_10 - t0_9_11 - t0_9_12 - t0_9_13 - t0_9_14 - t0_9_15 - t0_9_16 - t0_9_17 - t0_9_18 - t0_9_19 - t0_9_20 - t0_9_21 - t0_10_11 - t0_10_12 - t0_10_13 - t0_10_14 - t0_10_15 - t0_10_16 - t0_10_17 - t0_10_18 - t0_10_19 - t0_10_20 - t0_10_21 - t0_11_12 - t0_11_13 - t0_11_14 - t0_11_15 - t0_11_16 - t0_11_17 - t0_11_18 - t0_11_19 - t0_11_20 - t0_11_21 - t0_12_13 - t0_12_14 - t0_12_15 - t0_12_16 - t0_12_17 - t0_12_18 - t0_12_19 - t0_12_20 - t0_12_21 - t0_13_14 - t0_13_15 - t0_13_16 - t0_13_17 - t0_13_18 - t0_13_19 - t0_13_20 - t0_13_21 - t0_14_15 - t0_14_16 - t0_14_17 - t0_14_18 - t0_14_19 - t0_14_20 - t0_14_21 - t0_15_16 - t0_15_17 - t0_15_18 - t0_15_19 - t0_15_20 - t0_15_21 - t0_16_17 - t0_16_18 - t0_16_19 - t0_16_20 - t0_16_21 - t0_17_18 - t0_17_19 - t0_17_20 - t0_17_21 - t0_18_19 - t0_18_20 - t0_18_21 - t0_19_20 - t0_19_21 - t0_20_21 = 0
k3deg1: d1 - t0_1_2 - t0_1_3 - t0_1_4 - t0_1_5 - t0_1_6 - t0_1_7 - t0_1_8 - t0_1_9 - t0_1_10 - t0_1_11 - t0_1_12 - t0_1_13 - t0_1_14 - t0_1_15 - t0_1_16 - t0_1_17 - t0_1_18 - t0_1_19 - t0_1_20 - t0_1_21 - t1_2_3 - t1_2_4 - t1_2_5 - t1_2_6 - t1_2_7 - t1_2_8 - t1_2_9 - t1_2_10 - t1_2_11 - t1_2_12 - t1_2_13 - t1_2_14 - t1_2_15 - t1_2_16 - t1_2_17 - t1_2_18 - t1_2_19 - t1_2_20 - t1_2_21 - t1_3_4 - t1_3_5 - t1_3_6 - t1_3_7 - t1_3_8 - t1_3_9 - t1_3_10 - t1_3_11 - t1_3_12 - t1_3_13 - t1_3_14 - t1_3_15 - t1_3_16 - t1_3_17 - t1_3_18 - t1_3_19 - t1_3_20 - t1_3_21 - t1_4_5 - t1_4_6 - t1_4_7 - t1_4_8 - t1_4_9 - t1_4_10 - t1_4_11 - t1_4_12 - t1_4_13 - t1_4_14 - t1_4_15 - t1_4_16 - t1_4_17 - t1_4_18 - t1_4_19 - t1_4_20 - t1_4_21 - t1_5_6 - t1_5_7 - t1_5_8 - t1_5_9 - t1_5_10 - t1_5_11 - t1_5_12 - t1_5_13 - t1_5_14 - t1_5_15 - t1_5_16 - t1_5_17 - t1_5_18 - t1_5_19 - t1_5_20 - t1_5_21 - t1_6_7 - t1_6_8 - t1_6_9 - t1_6_10 - t1_6_11 - t1_6_12 - t1_6_13 - t1_6_14 - t1_6_15 - t1_6_16 - t1_6_17 - t1_6_18 - t1_6_19 - t1_6_20 - t1_6_21 - t1_7_8 - t1_7_9 - t1_7_10 - t1_7_11 - t1_7_12 - t1_7_13 - t1_7_14 - t1_7_15 - t1_7_16 - t1_7_17 - t1_7_18 - t1_7_19 - t1_7_20 - t1_7_21 - t1_8_9 - t1_8_10 - t1_8_11 - t1_8_12 - t1_8_13 - t1_8_14 - t1_8_15 - t1_8_16 - t1_8_17 - t1_8_18 - t1_8_19 - t1_8_20 - t1_8_21 - t1_9_10 - t1_9_11 - t1_9_12 - t1_9_13 - t1_9_14 - t1_9_15 - t1_9_16 - t1_9_17 - t1_9_18 - t1_9_19 - t1_9_20 - t1_9_21 - t1_10_11 - t1_10_12 - t1_10_13 - t1_10_14 - t1_10_15 - t1_10_16 - t1_10_17 - t1_10_18 - t1_10_19 - t1_10_20 - t1_10_21 - t1_11_12 - t1_11_13 - t1_11_14 - t1_11_15 - t1_11_16 - t1_11_17 - t1_11_18 - t1_11_19 - t1_11_20 - t1_11_21 - t1_12_13 - t1_12_14 - t1_12_15 - t1_12_16 - t1_12_17 - t1_12_18 - t1_12_19 - t1_12_20 - t1_12_21 - t1_13_14 - t1_13_15 - t1_13_16 - t1_13_17 - t1_13_18 - t1_13_19 - t1_13_20 - t1_13_21 - t1_14_15 - t1_14_16 - t1_14_17 - t1_14_18 - t1_14_19 - t1_14_20 - t1_14_21 - t1_15_16 - t1_15_17 - t1_15_18 - t1_15_19 - t1_15_20 - t1_15_21 - t1_16_17 - t1_16_18 - t1_16_19 - t1_16_20 - t1_16_21 - t1_17_18 - t1_17_19 - t1_17_20 - t1_17_21 - t1_18_19 - t1_18_20 - t1_18_21 - t1_19_20 - t1_19_21 - t1_20_21 = 0
k3deg2: d2 - t0_1_2 - t0_2_3 - t0_2_4 - t0_2_5 - t0_2_6 - t0_2_7 - t0_2_8 - t0_2_9 - t0_2_10 - t0_2_11 - t0_2_12 - t0_2_13 - t0_2_14 - t0_2_15 - t0_2_16 - t0_2_17 - t0_2_18 - t0_2_19 - t0_2_20 - t0_2_21 - t1_2_3 - t1_2_4 - t1_2_5 - t1_2_6 - t1_2_7 - t1_2_8 - t1_2_9 - t1_2_10 - t1_2_11 - t1_2_12 - t1_2_13 - t1_2_14 - t1_2_15 - t1_2_16 - t1_2_17 - t1_2_18 - t1_2_19 - t1_2_20 - t1_2_21 - t2_3_4 - t2_3_5 - t2_3_6 - t2_3_7 - t2_3_8 - t2_3_9 - t2_3_10 - t2_3_11 - t2_3_12 - t2_3_13 - t2_3_14 - t2_3_15 - t2_3_16 - t2_3_17 - t2_3_18 - t2_3_19 - t2_3_20 - t2_3_21 - t2_4_5 - t2_4_6 - t2_4_7 - t2_4_8 - t2_4_9 - t2_4_10 - t2_4_11 - t2_4_12 - t2_4_13 - t2_4_14 - t2_4_15 - t2_4_16 - t2_4_17 - t2_4_18 - t2_4_19 - t2_4_20 - t2_4_21 - t2_5_6 - t2_5_7 - t2_5_8 - t2_5_9 - t2_5_10 - t2_5_11 - t2_5_12 - t2_5_13 - t2_5_14 - t2_5_15 - t2_5_16 - t2_5_17 - t2_5_18 - t2_5_19 - t2_5_20 - t2_5_21 - t2_6_7 - t2_6_8 - t2_6_9 - t2_6_10 - t2_6_11 - t2_6_12 - t2_6_13 - t2_6_14 - t2_6_15 - t2_6_16 - t2_6_17 - t2_6_18 - t2_6_19 - t2_6_20 - t2_6_21 - t2_7_8 - t2_7_9 - t2_7_10 - t2_7_11 - t2_7_12 - t2_7_13 - t2_7_14 - t2_7_15 - t2_7_16 - t2_7_17 - t2_7_18 - t2_7_19 - t2_7_20 - t2_7_21 - t2_8_9 - t2_8_10 - t2_8_11 - t2_8_12 - t2_8_13 - t2_8_14 - t2_8_15 - t2_8_16 - t2_8_17 - t2_8_18 - t2_8_19 - t2_8_20 - t2_8_21 - t2_9_10 - t2_9_11 - t2_9_12 - t2_9_13 - t2_9_14 - t2_9_15 - t2_9_16 - t2_9_17 - t2_9_18 - t2_9_19 - t2_9_20 - t2_9_21 - t2_10_11 - t2_10_12 - t2_10_13 - t2_10_14 - t2_10_15 - t2_10_16 - t2_10_17 - t2_10_18 - t2_10_19 - t2_10_20 - t2_10_21 - t2_11_12 - t2_11_13 - t2_11_14 - t2_11_15 - t2_11_16 - t2_11_17 - t2_11_18 - t2_11_19 - t2_11_20 - t2_11_21 - t2_12_13 - t2_12_14 - t2_12_15 - t2_12_16 - t2_12_17 - t2_12_18 - t2_12_19 - t2_12_20 - t2_12_21 - t2_13_14 - t2_13_15 - t2_13_16 - t2_13_17 - t2_13_18 - t2_13_19 - t2_13_20 - t2_13_21 - t2_14_15 - t2_14_16 - t2_14_17 - t2_14_18 - t2_14_19 - t2_14_20 - t2_14_21 - t2_15_16 - t2_15_17 - t2_15_18 - t2_15_19 - t2_15_20 - t2_15_21 - t2_16_17 - t2_16_18 - t2_16_19 - t2_16_20 - t2_16_21 - t2_17_18 - t2_17_19 - t2_17_20 - t2_17_21 - t2_18_19 - t2_18_20 - t2_18_21 - t2_19_20 - t2_19_21 - t2_20_21 = 0
k3deg3: d3 - t0_1_3 - t0_2_3 - t0_3_4 - t0_3_5 - t0_3_6 - t0_3_7 - t0_3_8 - t0_3_9 - t0_3_10 - t0_3_11 - t0_3_12 - t0_3_13 - t0_3_14 - t0_3_15 - t0_3_16 - t0_3_17 - t0_3_18 - t0_3_19 - t0_3_20 - t0_3_21 - t1_2_3 - t1_3_4 - t1_3_5 - t1_3_6 - t1_3_7 - t1_3_8 - t1_3_9 - t1_3_10 - t1_3_11 - t1_3_12 - t1_3_13 - t1_3_14 - t1_3_15 - t1_3_16 - t1_3_17 - t1_3_18 - t1_3_19 - t1_3_20 - t1_3_21 - t2_3_4 - t2_3_5 - t2_3_6 - t2_3_7 - t2_3_8 - t2_3_9 - t2_3_10 - t2_3_11 - t2_3_12 - t2_3_13 - t2_3_14 - t2_3_15 - t2_3_16 - t2_3_17 - t2_3_18 - t2_3_19 - t2_3_20 - t2_3_21 - t3_4_5 - t3_4_6 - t3_4_7 - t3_4_8 - t3_4_9 - t3_4_10 - t3_4_11 - t3_4_12 - t3_4_13 - t3_4_14 - t3_4_15 - t3_4_16 - t3_4_17 - t3_4_18 - t3_4_19 - t3_4_20 - t3_4_21 - t3_5_6 - t3_5_7 - t3_5_8 - t3_5_9 - t3_5_10 - t3_5_11 - t3_5_12 - t3_5_13 - t3_5_14 - t3_5_15 - t3_5_16 - t3_5_17 - t3_5_18 - t3_5_19 - t3_5_20 - t3_5_21 - t3_6_7 - t3_6_8 - t3_6_9 - t3_6_10 - t3_6_11 - t3_6_12 - t3_6_13 - t3_6_14 - t3_6_15 - t3_6_16 - t3_6_17 - t3_6_18 - t3_6_19 - t3_6_20 - t3_6_21 - t3_7_8 - t3_7_9 - t3_7_10 - t3_7_11 - t3_7_12 - t3_7_13 - t3_7_14 - t3_7_15 - t3_7_16 - t3_7_17 - t3_7_18 - t3_7_19 - t3_7_20 - t3_7_21 - t3_8_9 - t3_8_10 - t3_8_11 - t3_8_12 - t3_8_13 - t3_8_14 - t3_8_15 - t3_8_16 - t3_8_17 - t3_8_18 - t3_8_19 - t3_8_20 - t3_8_21 - t3_9_10 - t3_9_11 - t3_9_12 - t3_9_13 - t3_9_14 - t3_9_15 - t3_9_16 - t3_9_17 - t3_9_18 - t3_9_19 - t3_9_20 - t3_9_21 - t3_10_11 - t3_10_12 - t3_10_13 - t3_10_14 - t3_10_15 - t3_10_16 - t3_10_17 - t3_10_18 - t3_10_19 - t3_10_20 - t3_10_21 - t3_11_12 - t3_11_13 - t3_11_14 - t3_11_15 - t3_11_16 - t3_11_17 - t3_11_18 - t3_11_19 - t3_11_20 - t3_11_21 - t3_12_13 - t3_12_14 - t3_12_15 - t3_12_16 - t3_12_17 - t3_12_18 - t3_12_19 - t3_12_20 - t3_12_21 - t3_13_14 - t3_13_15 - t3_13_16 - t3_13_17 - t3_13_18 - t3_13_19 - t3_13_20 - t3_13_21 - t3_14_15 - t3_14_16 - t3_14_17 - t3_14_18 - t3_14_19 - t3_14_20 - t3_14_21 - t3_15_16 - t3_15_17 - t3_15_18 - t3_15_19 - t3_15_20 - t3_15_21 - t3_16_17 - t3_16_18 - t3_16_19 - t3_16_20 - t3_16_21 - t3_17_18 - t3_17_19 - t3_17_20 - t3_17_21 - t3_18_19 - t3_18_20 - t3_18_21 - t3_19_20 - t3_19_21 - t3_20_21 = 0
k3deg4: d4 - t0_1_4 - t0_2_4 - t0_3_4 - t0_4_5 - t0_4_6 - t0_4_7 - t0_4_8 - t0_4_9 - t0_4_10 - t0_4_11 - t0_4_12 - t0_4_13 - t0_4_14 - t0_4_15 - t0_4_16 - t0_4_17 - t0_4_18 - t0_4_19 - t0_4_20 - t0_4_21 - t1_2_4 - t1_3_4 - t1_4_5 - t1_4_6 - t1_4_7 - t1_4_8 - t1_4_9 - t1_4_10 - t1_4_11 - t1_4_12 - t1_4_13 - t1_4_14 - t1_4_15 - t1_4_16 - t1_4_17 - t1_4_18 - t1_4_19 - t1_4_20 - t1_4_21 - t2_3_4 - t2_4_5 - t2_4_6 - t2_4_7 - t2_4_8 - t2_4_9 - t2_4_10 - t2_4_11 - t2_4_12 - t2_4_13 - t2_4_14 - t2_4_15 - t2_4_16 - t2_4_17 - t2_4_18 - t2_4_19 - t2_4_20 - t2_4_21 - t3_4_5 - t3_4_6 - t3_4_7 - t3_4_8 - t3_4_9 - t3_4_10 - t3_4_11 - t3_4_12 - t3_4_13 - t3_4_14 - t3_4_15 - t3_4_16 - t3_4_17 - t3_4_18 - t3_4_19 - t3_4_20 - t3_4_21 - t4_5_6 - t4_5_7 - t4_5_8 - t4_5_9 - t4_5_10 - t4_5_11 - t4_5_12 - t4_5_13 - t4_5_14 - t4_5_15 - t4_5_16 - t4_5_17 - t4_5_18 - t4_5_19 - t4_5_20 - t4_5_21 - t4_6_7 - t4_6_8 - t4_6_9 - t4_6_10 - t4_6_11 - t4_6_12 - t4_6_13 - t4_6_14 - t4_6_15 - t4_6_16 - t4_6_17 - t4_6_18 - t4_6_19 - t4_6_20 - t4_6_21 - t4_7_8 - t4_7_9 - t4_7_10 - t4_7_11 - t4_7_12 - t4_7_13 - t4_7_14 - t4_7_15 - t4_7_16 - t4_7_17 - t4_7_18 - t4_7_19 - t4_7_20 - t4_7_21 - t4_8_9 - t4_8_10 - t4_8_11 - t4_8_12 - t4_8_13 - t4_8_14 - t4_8_15 - t4_8_16 - t4_8_17 - t4_8_18 - t4_8_19 - t4_8_20 - t4_8_21 - t4_9_10 - t4_9_11 - t4_9_12 - t4_9_13 - t4_9_14 - t4_9_15 - t4_9_16 - t4_9_17 - t4_9_18 - t4_9_19 - t4_9_20 - t4_9_21 - t4_10_11 - t4_10_12 - t4_10_13 - t4_10_14 - t4_10_15 - t4_10_16 - t4_10_17 - t4_10_18 - t4_10_19 - t4_10_20 - t4_10_21 - t4_11_12 - t4_11_13 - t4_11_14 - t4_11_15 - t4_11_16 - t4_11_17 - t4_11_18 - t4_11_19 - t4_11_20 - t4_11_21 - t4_12_13 - t4_12_14 - t4_12_15 - t4_12_16 - t4_12_17 - t4_12_18 - t4_12_19 - t4_12_20 - t4_12_21 - t4_13_14 - t4_13_15 - t4_13_16 - t4_13_17 - t4_13_18 - t4_13_19 - t4_13_20 - t4_13_21 - t4_14_15 - t4_14_16 - t4_14_17 - t4_14_18 - t4_14_19 - t4_14_20 - t4_14_21 - t4_15_16 - t4_15_17 - t4_15_18 - t4_15_19 - t4_15_20 - t4_15_21 - t4_16_17 - t4_16_18 - t4_16_19 - t4_16_20 - t4_16_21 - t4_17_18 - t4_17_19 - t4_17_20 - t4_17_21 - t4_18_19 - t4_18_20 - t4_18_21 - t4_19_20 - t4_19_21 - t4_20_21 = 0
k3deg5: d5 - t0_1_5 - t0_2_5 - t0_3_5 - t0_4_5 - t0_5_6 - t0_5_7 - t0_5_8 - t0_5_9 - t0_5_10 - t0_5_11 - t0_5_12 - t0_5_13 - t0_5_14 - t0_5_15 - t0_5_16 - t0_5_17 - t0_5_18 - t0_5_19 - t0_5_20 - t0_5_21 - t1_2_5 - t1_3_5 - t1_4_5 - t1_5_6 - t1_5_7 - t1_5_8 - t1_5_9 - t1_5_10 - t1_5_11 - t1_5_12 - t1_5_13 - t1_5_14 - t1_5_15 - t1_5_16 - t1_5_17 - t1_5_18 - t1_5_19 - t1_5_20 - t1_5_21 - t2_3_5 - t2_4_5 - t2_5_6 - t2_5_7 - t2_5_8 - t2_5_9 - t2_5_10 - t2_5_11 - t2_5_12 - t2_5_13 - t2_5_14 - t2_5_15 - t2_5_16 - t2_5_17 - t2_5_18 - t2_5_19 - t2_5_20 - t2_5_21 - t3_4_5 - t3_5_6 - t3_5_7 - t3_5_8 - t3_5_9 - t3_5_10 - t3_5_11 - t3_5_12 - t3_5_13 - t3_5_14 - t3_5_15 - t3_5_16 - t3_5_17 - t3_5_18 - t3_5_19 - t3_5_20 - t3_5_21 - t4_5_6 - t4_5_7 - t4_5_8 - t4_5_9 - t4_5_10 - t4_5_11 - t4_5_12 - t4_5_13 - t4_5_14 - t4_5_15 - t4_5_16 - t4_5_17 - t4_5_18 - t4_5_19 - t4_5_20 - t4_5_21 - t5_6_7 - t5_6_8 - t5_6_9 - t5_6_10 - t5_6_11 - t5_6_12 - t5_6_13 - t5_6_14 - t5_6_15 - t5_6_16 - t5_6_17 - t5_6_18 - t5_6_19 - t5_6_20 - t5_6_21 - t5_7_8 - t5_7_9 - t5_7_10 - t5_7_11 - t5_7_12 - t5_7_13 - t5_7_14 - t5_7_15 - t5_7_16 - t5_7_17 - t5_7_18 - t5_7_19 - t5_7_20 - t5_7_21 - t5_8_9 - t5_8_10 - t5_8_11 - t5_8_12 - t5_8_13 - t5_8_14 - t5_8_15 - t5_8_16 - t5_8_17 - t5_8_18 - t5_8_19 - t5_8_20 - t5_8_21 - t5_9_10 - t5_9_11 - t5_9_12 - t5_9_13 - t5_9_14 - t5_9_15 - t5_9_16 - t5_9_17 - t5_9_18 - t5_9_19 - t5_9_20 - t5_9_21 - t5_10_11 - t5_10_12 - t5_10_13 - t5_10_14 - t5_10_15 - t5_10_16 - t5_10_17 - t5_10_18 - t5_10_19 - t5_10_20 - t5_10_21 - t5_11_12 - t5_11_13 - t5_11_14 - t5_11_15 - t5_11_16 - t5_11_17 - t5_11_18 - t5_11_19 - t5_11_20 - t5_11_21 - t5_12_13 - t5_12_14 - t5_12_15 - t5_12_16 - t5_12_17 - t5_12_18 - t5_12_19 - t5_12_20 - t5_12_21 - t5_13_14 - t5_13_15 - t5_13_16 - t5_13_17 - t5_13_18 - t5_13_19 - t5_13_20 - t5_13_21 - t5_14_15 - t5_14_16 - t5_14_17 - t5_14_18 - t5_14_19 - t5_14_20 - t5_14_21 - t5_15_16 - t5_15_17 - t5_15_18 - t5_15_19 - t5_15_20 - t5_15_21 - t5_16_17 - t5_16_18 - t5_16_19 - t5_16_20 - t5_16_21 - t5_17_18 - t5_17_19 - t5_17_20 - t5_17_21 - t5_18_19 - t5_18_20 - t5_18_21 - t5_19_20 - t5_19_21 - t5_20_21 = 0
k3deg6: d6 - t0_1_6 - t0_2_6 - t0_3_6 - t0_4_6 - t0_5_6 - t0_6_7 - t0_6_8 - t0_6_9 - t0_6_10 - t0_6_11 - t0_6_12 - t0_6_13 - t0_6_14 - t0_6_15 - t0_6_16 - t0_6_17 - t0_6_18 - t0_6_19 - t0_6_20 - t0_6_21 - t1_2_6 - t1_3_6 - t1_4_6 - t1_5_6 - t1_6_7 - t1_6_8 - t1_6_9 - t1_6_10 - t1_6_11 - t1_6_12 - t1_6_13 - t1_6_14 - t1_6_15 - t1_6_16 - t1_6_17 - t1_6_18 - t1_6_19 - t1_6_20 - t1_6_21 - t2_3_6 - t2_4_6 - t2_5_6 - t2_6_7 - t2_6_8 - t2_6_9 - t2_6_10 - t2_6_11 - t2_6_12 - t2_6_13 - t2_6_14 - t2_6_15 - t2_6_16 - t2_6_17 - t2_6_18 - t2_6_19 - t2_6_20 - t2_6_21 - t3_4_6 - t3_5_6 - t3_6_7 - t3_6_8 - t3_6_9 - t3_6_10 - t3_6_11 - t3_6_12 - t3_6_13 - t3_6_14 - t3_6_15 - t3_6_16 - t3_6_17 - t3_6_18 - t3_6_19 - t3_6_20 - t3_6_21 - t4_5_6 - t4_6_7 - t4_6_8 - t4_6_9 - t4_6_10 - t4_6_11 - t4_6_12 - t4_6_13 - t4_6_14 - t4_6_15 - t4_6_16 - t4_6_17 - t4_6_18 - t4_6_19 - t4_6_20 - t4_6_21 - t5_6_7 - t5_6_8 - t5_6_9 - t5_6_10 - t5_6_11 - t5_6_12 - t5_6_13 - t5_6_14 - t5_6_15 - t5_6_16 - t5_6_17 - t5_6_18 - t5_6_19 - t5_6_20 - t5_6_21 - t6_7_8 - t6_7_9 - t6_7_10 - t6_7_11 - t6_7_12 - t6_7_13 - t6_7_14 - t6_7_15 - t6_7_16 - t6_7_17 - t6_7_18 - t6_7_19 - t6_7_20 - t6_7_21 - t6_8_9 - t6_8_10 - t6_8_11 - t6_8_12 - t6_8_13 - t6_8_14 - t6_8_15 - t6_8_16 - t6_8_17 - t6_8_18 - t6_8_19 - t6_8_20 - t6_8_21 - t6_9_10 - t6_9_11 - t6_9_12 - t6_9_13 - t6_9_14 - t6_9_15 - t6_9_16 - t6_9_17 - t6_9_18 - t6_9_19 - t6_9_20 - t6_9_21 - t6_10_11 - t6_10_12 - t6_10_13 - t6_10_14 - t6_10_15 - t6_10_16 - t6_10_17 - t6_10_18 - t6_10_19 - t6_10_20 - t6_10_21 - t6_11_12 - t6_11_13 - t6_11_14 - t6_11_15 - t6_11_16 - t6_11_17 - t6_11_18 - t6_11_19 - t6_11_20 - t6_11_21 - t6_12_13 - t6_12_14 - t6_12_15 - t6_12_16 - t6_12_17 - t6_12_18 - t6_12_19 - t6_12_20 - t6_12_21 - t6_13_14 - t6_13_15 - t6_13_16 - t6_13_17 - t6_13_18 - t6_13_19 - t6_13_20 - t6_13_21 - t6_14_15 - t6_14_16 - t6_14_17 - t6_14_18 - t6_14_19 - t6_14_20 - t6_14_21 - t6_15_16 - t6_15_17 - t6_15_18 - t6_15_19 - t6_15_20 - t6_15_21 - t6_16_17 - t6_16_18 - t6_16_19 - t6_16_20 - t6_16_21 - t6_17_18 - t6_17_19 - t6_17_20 - t6_17_21 - t6_18_19 - t6_18_20 - t6_18_21 - t6_19_20 - t6_19_21 - t6_20_21 = 0
k3deg7: d7 - t0_1_7 - t0_2_7 - t0_3_7 - t0_4_7 - t0_5_7 - t0_6_7 - t0_7_8 - t0_7_9 - t0_7_10 - t0_7_11 - t0_7_12 - t0_7_13 - t0_7_14 - t0_7_15 - t0_7_16 - t0_7_17 - t0_7_18 - t0_7_19 - t0_7_20 - t0_7_21 - t1_2_7 - t1_3_7 - t1_4_7 - t1_5_7 - t1_6_7 - t1_7_8 - t1_7_9 - t1_7_10 - t1_7_11 - t1_7_12 - t1_7_13 - t1_7_14 - t1_7_15 - t1_7_16 - t1_7_17 - t1_7_18 - t1_7_19 - t1_7_20 - t1_7_21 - t2_3_7 - t2_4_7 - t2_5_7 - t2_6_7 - t2_7_8 - t2_7_9 - t2_7_10 - t2_7_11 - t2_7_12 - t2_7_13 - t2_7_14 - t2_7_15 - t2_7_16 - t2_7_17 - t2_7_18 - t2_7_19 - t2_7_20 - t2_7_21 - t3_4_7 - t3_5_7 - t3_6_7 - t3_7_8 - t3_7_9 - t3_7_10 - t3_7_11 - t3_7_12 - t3_7_13 - t3_7_14 - t3_7_15 - t3_7_16 - t3_7_17 - t3_7_18 - t3_7_19 - t3_7_20 - t3_7_21 - t4_5_7 - t4_6_7 - t4_7_8 - t4_7_9 - t4_7_10 - t4_7_11 - t4_7_12 - t4_7_13 - t4_7_14 - t4_7_15 - t4_7_16 - t4_7_17 - t4_7_18 - t4_7_19 - t4_7_20 - t4_7_21 - t5_6_7 - t5_7_8 - t5_7_9 - t5_7_10 - t5_7_11 - t5_7_12 - t5_7_13 - t5_7_14 - t5_7_15 - t5_7_16 - t5_7_17 - t5_7_18 - t5_7_19 - t5_7_20 - t5_7_21 - t6_7_8 - t6_7_9 - t6_7_10 - t6_7_11 - t6_7_12 - t6_7_13 - t6_7_14 - t6_7_15 - t6_7_16 - t6_7_17 - t6_7_18 - t6_7_19 - t6_7_20 - t6_7_21 - t7_8_9 - t7_8_10 - t7_8_11 - t7_8_12 - t7_8_13 - t7_8_14 - t7_8_15 - t7_8_16 - t7_8_17 - t7_8_18 - t7_8_19 - t7_8_20 - t7_8_21 - t7_9_10 - t7_9_11 - t7_9_12 - t7_9_13 - t7_9_14 - t7_9_15 - t7_9_16 - t7_9_17 - t7_9_18 - t7_9_19 - t7_9_20 - t7_9_21 - t7_10_11 - t7_10_12 - t7_10_13 - t7_10_14 - t7_10_15 - t7_10_16 - t7_10_17 - t7_10_18 - t7_10_19 - t7_10_20 - t7_10_21 - t7_11_12 - t7_11_13 - t7_11_14 - t7_11_15 - t7_11_16 - t7_11_17 - t7_11_18 - t7_11_19 - t7_11_20 - t7_11_21 - t7_12_13 - t7_12_14 - t7_12_15 - t7_12_16 - t7_12_17 - t7_12_18 - t7_12_19 - t7_12_20 - t7_12_21 - t7_13_14 - t7_13_15 - t7_13_16 - t7_13_17 - t7_13_18 - t7_13_19 - t7_13_20 - t7_13_21 - t7_14_15 - t7_14_16 - t7_14_17 - t7_14_18 - t7_14_19 - t7_14_20 - t7_14_21 - t7_15_16 - t7_15_17 - t7_15_18 - t7_15_19 - t7_15_20 - t7_15_21 - t7_16_17 - t7_16_18 - t7_16_19 - t7_16_20 - t7_16_21 - t7_17_18 - t7_17_19 - t7_17_20 - t7_17_21 - t7_18_19 - t7_18_20 - t7_18_21 - t7_19_20 - t7_19_21 - t7_20_21 = 0
k3deg8: d8 - t0_1_8 - t0_2_8 - t0_3_8 - t0_4_8 - t0_5_8 - t0_6_8 - t0_7_8 - t0_8_9 - t0_8_10 - t0_8_11 - t0_8_12 - t0_8_13 - t0_8_14 - t0_8_15 - t0_8_16 - t0_8_17 - t0_8_18 - t0_8_19 - t0_8_20 - t0_8_21 - t1_2_8 - t1_3_8 - t1_4_8 - t1_5_8 - t1_6_8 - t1_7_8 - t1_8_9 - t1_8_10 - t1_8_11 - t1_8_12 - t1_8_13 - t1_8_14 - t1_8_15 - t1_8_16 - t1_8_17 - t1_8_18 - t1_8_19 - t1_8_20 - t1_8_21 - t2_3_8 - t2_4_8 - t2_5_8 - t2_6_8 - t2_7_8 - t2_8_9 - t2_8_10 - t2_8_11 - t2_8_12 - t2_8_13 - t2_8_14 - t2_8_15 - t2_8_16 - t2_8_17 - t2_8_18 - t2_8_19 - t2_8_20 - t2_8_21 - t3_4_8 - t3_5_8 - t3_6_8 - t3_7_8 - t3_8_9 - t3_8_10 - t3_8_11 - t3_8_12 - t3_8_13 - t3_8_14 - t3_8_15 - t3_8_16 - t3_8_17 - t3_8_18 - t3_8_19 - t3_8_20 - t3_8_21 - t4_5_8 - t4_6_8 - t4_7_8 - t4_8_9 - t4_8_10 - t4_8_11 - t4_8_12 - t4_8_13 - t4_8_14 - t4_8_15 - t4_8_16 - t4_8_17 - t4_8_18 - t4_8_19 - t4_8_20 - t4_8_21 - t5_6_8 - t5_7_8 - t5_8_9 - t5_8_10 - t5_8_11 - t5_8_12 - t5_8_13 - t5_8_14 - t5_8_15 - t5_8_16 - t5_8_17 - t5_8_18 - t5_8_19 - t5_8_20 - t5_8_21 - t6_7_8 - t6_8_9 - t6_8_10 - t6_8_11 - t6_8_12 - t6_8_13 - t6_8_14 - t6_8_15 - t6_8_16 - t6_8_17 - t6_8_18 - t6_8_19 - t6_8_20 - t6_8_21 - t7_8_9 - t7_8_10 - t7_8_11 - t7_8_12 - t7_8_13 - t7_8_14 - t7_8_15 - t7_8_16 - t7_8_17 - t7_8_18 - t7_8_19 - t7_8_20 - t7_8_21 - t8_9_10 - t8_9_11 - t8_9_12 - t8_9_13 - t8_9_14 - t8_9_15 - t8_9_16 - t8_9_17 - t8_9_18 - t8_9_19 - t8_9_20 - t8_9_21 - t8_10_11 - t8_10_12 - t8_10_13 - t8_10_14 - t8_10_15 - t8_10_16 - t8_10_17 - t8_10_18 - t8_10_19 - t8_10_20 - t8_10_21 - t8_11_12 - t8_11_13 - t8_11_14 - t8_11_15 - t8_11_16 - t8_11_17 - t8_11_18 - t8_11_19 - t8_11_20 - t8_11_21 - t8_12_13 - t8_12_14 - t8_12_15 - t8_12_16 - t8_12_17 - t8_12_18 - t8_12_19 - t8_12_20 - t8_12_21 - t8_13_14 - t8_13_15 - t8_13_16 - t8_13_17 - t8_13_18 - t8_13_19 - t8_13_20 - t8_13_21 - t8_14_15 - t8_14_16 - t8_14_17 - t8_14_18 - t8_14_19 - t8_14_20 - t8_14_21 - t8_15_16 - t8_15_17 - t8_15_18 - t8_15_19 - t8_15_20 - t8_15_21 - t8_16_17 - t8_16_18 - t8_16_19 - t8_16_20 - t8_16_21 - t8_17_18 - t8_17_19 - t8_17_20 - t8_17_21 - t8_18_19 - t8_18_20 - t8_18_21 - t8_19_20 - t8_19_21 - t8_20_21 = 0
k3deg9: d9 - t0_1_9 - t0_2_9 - t0_3_9 - t0_4_9 - t0_5_9 - t0_6_9 - t0_7_9 - t0_8_9 - t0_9_10 - t0_9_11 - t0_9_12 - t0_9_13 - t0_9_14 - t0_9_15 - t0_9_16 - t0_9_17 - t0_9_18 - t0_9_19 - t0_9_20 - t0_9_21 - t1_2_9 - t1_3_9 - t1_4_9 - t1_5_9 - t1_6_9 - t1_7_9 - t1_8_9 - t1_9_10 - t1_9_11 - t1_9_12 - t1_9_13 - t1_9_14 - t1_9_15 - t1_9_16 - t1_9_17 - t1_9_18 - t1_9_19 - t1_9_20 - t1_9_21 - t2_3_9 - t2_4_9 - t2_5_9 - t2_6_9 - t2_7_9 - t2_8_9 - t2_9_10 - t2_9_11 - t2_9_12 - t2_9_13 - t2_9_14 - t2_9_15 - t2_9_16 - t2_9_17 - t2_9_18 - t2_9_19 - t2_9_20 - t2_9_21 - t3_4_9 - t3_5_9 - t3_6_9 - t3_7_9 - t3_8_9 - t3_9_10 - t3_9_11 - t3_9_12 - t3_9_13 - t3_9_14 - t3_9_15 - t3_9_16 - t3_9_17 - t3_9_18 - t3_9_19 - t3_9_20 - t3_9_21 - t4_5_9 - t4_6_9 - t4_7_9 - t4_8_9 - t4_9_10 - t4_9_11 - t4_9_12 - t4_9_13 - t4_9_14 - t4_9_15 - t4_9_16 - t4_9_17 - t4_9_18 - t4_9_19 - t4_9_20 - t4_9_21 - t5_6_9 - t5_7_9 - t5_8_9 - t5_9_10 - t5_9_11 - t5_9_12 - t5_9_13 - t5_9_14 - t5_9_15 - t5_9_16 - t5_9_17 - t5_9_18 - t5_9_19 - t5_9_20 - t5_9_21 - t6_7_9 - t6_8_9 - t6_9_10 - t6_9_11 - t6_9_12 - t6_9_13 - t6_9_14 - t6_9_15 - t6_9_16 - t6_9_17 - t6_9_18 - t6_9_19 - t6_9_20 - t6_9_21 - t7_8_9 - t7_9_10 - t7_9_11 - t7_9_12 - t7_9_13 - t7_9_14 - t7_9_15 - t7_9_16 - t7_9_17 - t7_9_18 - t7_9_19 - t7_9_20 - t7_9_21 - t8_9_10 - t8_9_11 - t8_9_12 - t8_9_13 - t8_9_14 - t8_9_15 - t8_9_16 - t8_9_17 - t8_9_18 - t8_9_19 - t8_9_20 - t8_9_21 - t9_10_11 - t9_10_12 - t9_10_13 - t9_10_14 - t9_10_15 - t9_10_16 - t9_10_17 - t9_10_18 - t9_10_19 - t9_10_20 - t9_10_21 - t9_11_12 - t9_11_13 - t9_11_14 - t9_11_15 - t9_11_16 - t9_11_17 - t9_11_18 - t9_11_19 - t9_11_20 - t9_11_21 - t9_12_13 - t9_12_14 - t9_12_15 - t9_12_16 - t9_12_17 - t9_12_18 - t9_12_19 - t9_12_20 - t9_12_21 - t9_13_14 - t9_13_15 - t9_13_16 - t9_13_17 - t9_13_18 - t9_13_19 - t9_13_20 - t9_13_21 - t9_14_15 - t9_14_16 - t9_14_17 - t9_14_18 - t9_14_19 - t9_14_20 - t9_14_21 - t9_15_16 - t9_15_17 - t9_15_18 - t9_15_19 - t9_15_20 - t9_15_21 - t9_16_17 - t9_16_18 - t9_16_19 - t9_16_20 - t9_16_21 - t9_17_18 - t9_17_19 - t9_17_20 - t9_17_21 - t9_18_19 - t9_18_20 - t9_18_21 - t9_19_20 - t9_19_21 - t9_20_21 = 0
k3deg10: d10 - t0_1_10 - t0_2_10 - t0_3_10 - t0_4_10 - t0_5_10 - t0_6_10 - t0_7_10 - t0_8_10 - t0_9_10 - t0_10_11 - t0_10_12 - t0_10_13 - t0_10_14 - t0_10_15 - t0_10_16 - t0_10_17 - t0_10_18 - t0_10_19 - t0_10_20 - t0_10_21 - t1_2_10 - t1_3_10 - t1_4_10 - t1_5_10 - t1_6_10 - t1_7_10 - t1_8_10 - t1_9_10 - t1_10_11 - t1_10_12 - t1_10_13 - t1_10_14 - t1_10_15 - t1_10_16 - t1_10_17 - t1_10_18 - t1_10_19 - t1_10_20 - t1_10_21 - t2_3_10 - t2_4_10 - t2_5_10 - t2_6_10 - t2_7_10 - t2_8_10 - t2_9_10 - t2_10_11 - t2_10_12 - t2_10_13 - t2_10_14 - t2_10_15 - t2_10_16 - t2_10_17 - t2_10_18 - t2_10_19 - t2_10_20 - t2_10_21 - t3_4_10 - t3_5_10 - t3_6_10 - t3_7_10 - t3_8_10 - t3_9_10 - t3_10_11 - t3_10_12 - t3_10_13 - t3_10_14 - t3_10_15 - t3_10_16 - t3_10_17 - t3_10_18 - t3_10_19 - t3_10_20 - t3_10_21 - t4_5_10 - t4_6_10 - t4_7_10 - t4_8_10 - t4_9_10 - t4_10_11 - t4_10_12 - t4_10_13 - t4_10_14 - t4_10_15 - t4_10_16 - t4_10_17 - t4_10_18 - t4_10_19 - t4_10_20 - t4_10_21 - t5_6_10 - t5_7_10 - t5_8_10 - t5_9_10 - t5_10_11 - t5_10_12 - t5_10_13 - t5_10_14 - t5_10_15 - t5_10_16 - t5_10_17 - t5_10_18 - t5_10_19 - t5_10_20 - t5_10_21 - t6_7_10 - t6_8_10 - t6_9_10 - t6_10_11 - t6_10_12 - t6_10_13 - t6_10_14 - t6_10_15 - t6_10_16 - t6_10_17 - t6_10_18 - t6_10_19 - t6_10_20 - t6_10_21 - t7_8_10 - t7_9_10 - t7_10_11 - t7_10_12 - t7_10_13 - t7_10_14 - t7_10_15 - t7_10_16 - t7_10_17 - t7_10_18 - t7_10_19 - t7_10_20 - t7_10_21 - t8_9_10 - t8_10_11 - t8_10_12 - t8_10_13 - t8_10_14 - t8_10_15 - t8_10_16 - t8_10_17 - t8_10_18 - t8_10_19 - t8_10_20 - t8_10_21 - t9_10_11 - t9_10_12 - t9_10_13 - t9_10_14 - t9_10_15 - t9_10_16 - t9_10_17 - t9_10_18 - t9_10_19 - t9_10_20 - t9_10_21 - t10_11_12 - t10_11_13 - t10_11_14 - t10_11_15 - t10_11_16 - t10_11_17 - t10_11_18 - t10_11_19 - t10_11_20 - t10_11_21 - t10_12_13 - t10_12_14 - t10_12_15 - t10_12_16 - t10_12_17 - t10_12_18 - t10_12_19 - t10_12_20 - t10_12_21 - t10_13_14 - t10_13_15 - t10_13_16 - t10_13_17 - t10_13_18 - t10_13_19 - t10_13_20 - t10_13_21 - t10_14_15 - t10_14_16 - t10_14_17 - t10_14_18 - t10_14_19 - t10_14_20 - t10_14_21 - t10_15_16 - t10_15_17 - t10_15_18 - t10_15_19 - t10_15_20 - t10_15_21 - t10_16_17 - t10_16_18 - t10_16_19 - t10_16_20 - t10_16_21 - t10_17_18 - t10_17_19 - t10_17_20 - t10_17_21 - t10_18_19 - t10_18_20 - t10_18_21 - t10_19_20 - t10_19_21 - t10_20_21 = 0
k3deg11: d11 - t0_1_11 - t0_2_11 - t0_3_11 - t0_4_11 - t0_5_11 - t0_6_11 - t0_7_11 - t0_8_11 - t0_9_11 - t0_10_11 - t0_11_12 - t0_11_13 - t0_11_14 - t0_11_15 - t0_11_16 - t0_11_17 - t0_11_18 - t0_11_19 - t0_11_20 - t0_11_21 - t1_2_11 - t1_3_11 - t1_4_11 - t1_5_11 - t1_6_11 - t1_7_11 - t1_8_11 - t1_9_11 - t1_10_11 - t1_11_12 - t1_11_13 - t1_11_14 - t1_11_15 - t1_11_16 - t1_11_17 - t1_11_18 - t1_11_19 - t1_11_20 - t1_11_21 - t2_3_11 - t2_4_11 - t2_5_11 - t2_6_11 - t2_7_11 - t2_8_11 - t2_9_11 - t2_10_11 - t2_11_12 - t2_11_13 - t2_11_14 - t2_11_15 - t2_11_16 - t2_11_17 - t2_11_18 - t2_11_19 - t2_11_20 - t2_11_21 - t3_4_11 - t3_5_11 - t3_6_11 - t3_7_11 - t3_8_11 - t3_9_11 - t3_10_11 - t3_11_12 - t3_11_13 - t3_11_14 - t3_11_15 - t3_11_16 - t3_11_17 - t3_11_18 - t3_11_19 - t3_11_20 - t3_11_21 - t4_5_11 - t4_6_11 - t4_7_11 - t4_8_11 - t4_9_11 - t4_10_11 - t4_11_12 - t4_11_13 - t4_11_14 - t4_11_15 - t4_11_16 - t4_11_17 - t4_11_18 - t4_11_19 - t4_11_20 - t4_11_21 - t5_6_11 - t5_7_11 - t5_8_11 - t5_9_11 - t5_10_11 - t5_11_12 - t5_11_13 - t5_11_14 - t5_11_15 - t5_11_16 - t5_11_17 - t5_11_18 - t5_11_19 - t5_11_20 - t5_11_21 - t6_7_11 - t6_8_11 - t6_9_11 - t6_10_11 - t6_11_12 - t6_11_13 - t6_11_14 - t6_11_15 - t6_11_16 - t6_11_17 - t6_11_18 - t6_11_19 - t6_11_20 - t6_11_21 - t7_8_11 - t7_9_11 - t7_10_11 - t7_11_12 - t7_11_13 - t7_11_14 - t7_11_15 - t7_11_16 - t7_11_17 - t7_11_18 - t7_11_19 - t7_11_20 - t7_11_21 - t8_9_11 - t8_10_11 - t8_11_12 - t8_11_13 - t8_11_14 - t8_11_15 - t8_11_16 - t8_11_17 - t8_11_18 - t8_11_19 - t8_11_20 - t8_11_21 - t9_10_11 - t9_11_12 - t9_11_13 - t9_11_14 - t9_11_15 - t9_11_16 - t9_11_17 - t9_11_18 - t9_11_19 - t9_11_20 - t9_11_21 - t10_11_12 - t10_11_13 - t10_11_14 - t10_11_15 - t10_11_16 - t10_11_17 - t10_11_18 - t10_11_19 - t10_11_20 - t10_11_21 - t11_12_13 - t11_12_14 - t11_12_15 - t11_12_16 - t11_12_17 - t11_12_18 - t11_12_19 - t11_12_20 - t11_12_21 - t11_13_14 - t11_13_15 - t11_13_16 - t11_13_17 - t11_13_18 - t11_13_19 - t11_13_20 - t11_13_21 - t11_14_15 - t11_14_16 - t11_14_17 - t11_14_18 - t11_14_19 - t11_14_20 - t11_14_21 - t11_15_16 - t11_15_17 - t11_15_18 - t11_15_19 - t11_15_20 - t11_15_21 - t11_16_17 - t11_16_18 - t11_16_19 - t11_16_20 - t11_16_21 - t11_17_18 - t11_17_19 - t11_17_20 - t11_17_21 - t11_18_19 - t11_18_20 - t11_18_21 - t11_19_20 - t11_19_21 - t11_20_21 = 0
k3deg12: d12 - t0_1_12 - t0_2_12 - t0_3_12 - t0_4_12 - t0_5_12 - t0_6_12 - t0_7_12 - t0_8_12 - t0_9_12 - t0_10_12 - t0_11_12 - t0_12_13 - t0_12_14 - t0_12_15 - t0_12_16 - t0_12_17 - t0_12_18 - t0_12_19 - t0_12_20 - t0_12_21 - t1_2_12 - t1_3_12 - t1_4_12 - t1_5_12 - t1_6_12 - t1_7_12 - t1_8_12 - t1_9_12 - t1_10_12 - t1_11_12 - t1_12_13 - t1_12_14 - t1_12_15 - t1_12_16 - t1_12_17 - t1_12_18 - t1_12_19 - t1_12_20 - t1_12_21 - t2_3_12 - t2_4_12 - t2_5_12 - t2_6_12 - t2_7_12 - t2_8_12 - t2_9_12 - t2_10_12 - t2_11_12 - t2_12_13 - t2_12_14 - t2_12_15 - t2_12_16 - t2_12_17 - t2_12_18 - t2_12_19 - t2_12_20 - t2_12_21 - t3_4_12 - t3_5_12 - t3_6_12 - t3_7_12 - t3_8_12 - t3_9_12 - t3_10_12 - t3_11_12 - t3_12_13 - t3_12_14 - t3_12_15 - t3_12_16 - t3_12_17 - t3_12_18 - t3_12_19 - t3_12_20 - t3_12_21 - t4_5_12 - t4_6_12 - t4_7_12 - t4_8_12 - t4_9_12 - t4_10_12 - t4_11_12 - t4_12_13 - t4_12_14 - t4_12_15 - t4_12_16 - t4_12_17 - t4_12_18 - t4_12_19 - t4_12_20 - t4_12_21 - t5_6_12 - t5_7_12 - t5_8_12 - t5_9_12 - t5_10_12 - t5_11_12 - t5_12_13 - t5_12_14 - t5_12_15 - t5_12_16 - t5_12_17 - t5_12_18 - t5_12_19 - t5_12_20 - t5_12_21 - t6_7_12 - t6_8_12 - t6_9_12 - t6_10_12 - t6_11_12 - t6_12_13 - t6_12_14 - t6_12_15 - t6_12_16 - t6_12_17 - t6_12_18 - t6_12_19 - t6_12_20 - t6_12_21 - t7_8_12 - t7_9_12 - t7_10_12 - t7_11_12 - t7_12_13 - t7_12_14 - t7_12_15 - t7_12_16 - t7_12_17 - t7_12_18 - t7_12_19 - t7_12_20 - t7_12_21 - t8_9_12 - t8_10_12 - t8_11_12 - t8_12_13 - t8_12_14 - t8_12_15 - t8_12_16 - t8_12_17 - t8_12_18 - t8_12_19 - t8_12_20 - t8_12_21 - t9_10_12 - t9_11_12 - t9_12_13 - t9_12_14 - t9_12_15 - t9_12_16 - t9_12_17 - t9_12_18 - t9_12_19 - t9_12_20 - t9_12_21 - t10_11_12 - t10_12_13 - t10_12_14 - t10_12_15 - t10_12_16 - t10_12_17 - t10_12_18 - t10_12_19 - t10_12_20 - t10_12_21 - t11_12_13 - t11_12_14 - t11_12_15 - t11_12_16 - t11_12_17 - t11_12_18 - t11_12_19 - t11_12_20 - t11_12_21 - t12_13_14 - t12_13_15 - t12_13_16 - t12_13_17 - t12_13_18 - t12_13_19 - t12_13_20 - t12_13_21 - t12_14_15 - t12_14_16 - t12_14_17 - t12_14_18 - t12_14_19 - t12_14_20 - t12_14_21 - t12_15_16 - t12_15_17 - t12_15_18 - t12_15_19 - t12_15_20 - t12_15_21 - t12_16_17 - t12_16_18 - t12_16_19 - t12_16_20 - t12_16_21 - t12_17_18 - t12_17_19 - t12_17_20 - t12_17_21 - t12_18_19 - t12_18_20 - t12_18_21 - t12_19_20 - t12_19_21 - t12_20_21 = 0
k3deg13: d13 - t0_1_13 - t0_2_13 - t0_3_13 - t0_4_13 - t0_5_13 - t0_6_13 - t0_7_13 - t0_8_13 - t0_9_13 - t0_10_13 - t0_11_13 - t0_12_13 - t0_13_14 - t0_13_15 - t0_13_16 - t0_13_17 - t0_13_18 - t0_13_19 - t0_13_20 - t0_13_21 - t1_2_13 - t1_3_13 - t1_4_13 - t1_5_13 - t1_6_13 - t1_7_13 - t1_8_13 - t1_9_13 - t1_10_13 - t1_11_13 - t1_12_13 - t1_13_14 - t1_13_15 - t1_13_16 - t1_13_17 - t1_13_18 - t1_13_19 - t1_13_20 - t1_13_21 - t2_3_13 - t2_4_13 - t2_5_13 - t2_6_13 - t2_7_13 - t2_8_13 - t2_9_13 - t2_10_13 - t2_11_13 - t2_12_13 - t2_13_14 - t2_13_15 - t2_13_16 - t2_13_17 - t2_13_18 - t2_13_19 - t2_13_20 - t2_13_21 - t3_4_13 - t3_5_13 - t3_6_13 - t3_7_13 - t3_8_13 - t3_9_13 - t3_10_13 - t3_11_13 - t3_12_13 - t3_13_14 - t3_13_15 - t3_13_16 - t3_13_17 - t3_13_18 - t3_13_19 - t3_13_20 - t3_13_21 - t4_5_13 - t4_6_13 - t4_7_13 - t4_8_13 - t4_9_13 - t4_10_13 - t4_11_13 - t4_12_13 - t4_13_14 - t4_13_15 - t4_13_16 - t4_13_17 - t4_13_18 - t4_13_19 - t4_13_20 - t4_13_21 - t5_6_13 - t5_7_13 - t5_8_13 - t5_9_13 - t5_10_13 - t5_11_13 - t5_12_13 - t5_13_14 - t5_13_15 - t5_13_16 - t5_13_17 - t5_13_18 - t5_13_19 - t5_13_20 - t5_13_21 - t6_7_13 - t6_8_13 - t6_9_13 - t6_10_13 - t6_11_13 - t6_12_13 - t6_13_14 - t6_13_15 - t6_13_16 - t6_13_17 - t6_13_18 - t6_13_19 - t6_13_20 - t6_13_21 - t7_8_13 - t7_9_13 - t7_10_13 - t7_11_13 - t7_12_13 - t7_13_14 - t7_13_15 - t7_13_16 - t7_13_17 - t7_13_18 - t7_13_19 - t7_13_20 - t7_13_21 - t8_9_13 - t8_10_13 - t8_11_13 - t8_12_13 - t8_13_14 - t8_13_15 - t8_13_16 - t8_13_17 - t8_13_18 - t8_13_19 - t8_13_20 - t8_13_21 - t9_10_13 - t9_11_13 - t9_12_13 - t9_13_14 - t9_13_15 - t9_13_16 - t9_13_17 - t9_13_18 - t9_13_19 - t9_13_20 - t9_13_21 - t10_11_13 - t10_12_13 - t10_13_14 - t10_13_15 - t10_13_16 - t10_13_17 - t10_13_18 - t10_13_19 - t10_13_20 - t10_13_21 - t11_12_13 - t11_13_14 - t11_13_15 - t11_13_16 - t11_13_17 - t11_13_18 - t11_13_19 - t11_13_20 - t11_13_21 - t12_13_14 - t12_13_15 - t12_13_16 - t12_13_17 - t12_13_18 - t12_13_19 - t12_13_20 - t12_13_21 - t13_14_15 - t13_14_16 - t13_14_17 - t13_14_18 - t13_14_19 - t13_14_20 - t13_14_21 - t13_15_16 - t13_15_17 - t13_15_18 - t13_15_19 - t13_15_20 - t13_15_21 - t13_16_17 - t13_16_18 - t13_16_19 - t13_16_20 - t13_16_21 - t13_17_18 - t13_17_19 - t13_17_20 - t13_17_21 - t13_18_19 - t13_18_20 - t13_18_21 - t13_19_20 - t13_19_21 - t13_20_21 = 0
k3deg14: d14 - t0_1_14 - t0_2_14 - t0_3_14 - t0_4_14 - t0_5_14 - t0_6_14 - t0_7_14 - t0_8_14 - t0_9_14 - t0_10_14 - t0_11_14 - t0_12_14 - t0_13_14 - t0_14_15 - t0_14_16 - t0_14_17 - t0_14_18 - t0_14_19 - t0_14_20 - t0_14_21 - t1_2_14 - t1_3_14 - t1_4_14 - t1_5_14 - t1_6_14 - t1_7_14 - t1_8_14 - t1_9_14 - t1_10_14 - t1_11_14 - t1_12_14 - t1_13_14 - t1_14_15 - t1_14_16 - t1_14_17 - t1_14_18 - t1_14_19 - t1_14_20 - t1_14_21 - t2_3_14 - t2_4_14 - t2_5_14 - t2_6_14 - t2_7_14 - t2_8_14 - t2_9_14 - t2_10_14 - t2_11_14 - t2_12_14 - t2_13_14 - t2_14_15 - t2_14_16 - t2_14_17 - t2_14_18 - t2_14_19 - t2_14_20 - t2_14_21 - t3_4_14 - t3_5_14 - t3_6_14 - t3_7_14 - t3_8_14 - t3_9_14 - t3_10_14 - t3_11_14 - t3_12_14 - t3_13_14 - t3_14_15 - t3_14_16 - t3_14_17 - t3_14_18 - t3_14_19 - t3_14_20 - t3_14_21 - t4_5_14 - t4_6_14 - t4_7_14 - t4_8_14 - t4_9_14 - t4_10_14 - t4_11_14 - t4_12_14 - t4_13_14 - t4_14_15 - t4_14_16 - t4_14_17 - t4_14_18 - t4_14_19 - t4_14_20 - t4_14_21 - t5_6_14 - t5_7_14 - t5_8_14 - t5_9_14 - t5_10_14 - t5_11_14 - t5_12_14 - t5_13_14 - t5_14_15 - t5_14_16 - t5_14_17 - t5_14_18 - t5_14_19 - t5_14_20 - t5_14_21 - t6_7_14 - t6_8_14 - t6_9_14 - t6_10_14 - t6_11_14 - t6_12_14 - t6_13_14 - t6_14_15 - t6_14_16 - t6_14_17 - t6_14_18 - t6_14_19 - t6_14_20 - t6_14_21 - t7_8_14 - t7_9_14 - t7_10_14 - t7_11_14 - t7_12_14 - t7_13_14 - t7_14_15 - t7_14_16 - t7_14_17 - t7_14_18 - t7_14_19 - t7_14_20 - t7_14_21 - t8_9_14 - t8_10_14 - t8_11_14 - t8_12_14 - t8_13_14 - t8_14_15 - t8_14_16 - t8_14_17 - t8_14_18 - t8_14_19 - t8_14_20 - t8_14_21 - t9_10_14 - t9_11_14 - t9_12_14 - t9_13_14 - t9_14_15 - t9_14_16 - t9_14_17 - t9_14_18 - t9_14_19 - t9_14_20 - t9_14_21 - t10_11_14 - t10_12_14 - t10_13_14 - t10_14_15 - t10_14_16 - t10_14_17 - t10_14_18 - t10_14_19 - t10_14_20 - t10_14_21 - t11_12_14 - t11_13_14 - t11_14_15 - t11_14_16 - t11_14_17 - t11_14_18 - t11_14_19 - t11_14_20 - t11_14_21 - t12_13_14 - t12_14_15 - t12_14_16 - t12_14_17 - t12_14_18 - t12_14_19 - t12_14_20 - t12_14_21 - t13_14_15 - t13_14_16 - t13_14_17 - t13_14_18 - t13_14_19 - t13_14_20 - t13_14_21 - t14_15_16 - t14_15_17 - t14_15_18 - t14_15_19 - t14_15_20 - t14_15_21 - t14_16_17 - t14_16_18 - t14_16_19 - t14_16_20 - t14_16_21 - t14_17_18 - t14_17_19 - t14_17_20 - t14_17_21 - t14_18_19 - t14_18_20 - t14_18_21 - t14_19_20 - t14_19_21 - t14_20_21 = 0
k3deg15: d15 - t0_1_15 - t0_2_15 - t0_3_15 - t0_4_15 - t0_5_15 - t0_6_15 - t0_7_15 - t0_8_15 - t0_9_15 - t0_10_15 - t0_11_15 - t0_12_15 - t0_13_15 - t0_14_15 - t0_15_16 - t0_15_17 - t0_15_18 - t0_15_19 - t0_15_20 - t0_15_21 - t1_2_15 - t1_3_15 - t1_4_15 - t1_5_15 - t1_6_15 - t1_7_15 - t1_8_15 - t1_9_15 - t1_10_15 - t1_11_15 - t1_12_15 - t1_13_15 - t1_14_15 - t1_15_16 - t1_15_17 - t1_15_18 - t1_15_19 - t1_15_20 - t1_15_21 - t2_3_15 - t2_4_15 - t2_5_15 - t2_6_15 - t2_7_15 - t2_8_15 - t2_9_15 - t2_10_15 - t2_11_15 - t2_12_15 - t2_13_15 - t2_14_15 - t2_15_16 - t2_15_17 - t2_15_18 - t2_15_19 - t2_15_20 - t2_15_21 - t3_4_15 - t3_5_15 - t3_6_15 - t3_7_15 - t3_8_15 - t3_9_15 - t3_10_15 - t3_11_15 - t3_12_15 - t3_13_15 - t3_14_15 - t3_15_16 - t3_15_17 - t3_15_18 - t3_15_19 - t3_15_20 - t3_15_21 - t4_5_15 - t4_6_15 - t4_7_15 - t4_8_15 - t4_9_15 - t4_10_15 - t4_11_15 - t4_12_15 - t4_13_15 - t4_14_15 - t4_15_16 - t4_15_17 - t4_15_18 - t4_15_19 - t4_15_20 - t4_15_21 - t5_6_15 - t5_7_15 - t5_8_15 - t5_9_15 - t5_10_15 - t5_11_15 - t5_12_15 - t5_13_15 - t5_14_15 - t5_15_16 - t5_15_17 - t5_15_18 - t5_15_19 - t5_15_20 - t5_15_21 - t6_7_15 - t6_8_15 - t6_9_15 - t6_10_15 - t6_11_15 - t6_12_15 - t6_13_15 - t6_14_15 - t6_15_16 - t6_15_17 - t6_15_18 - t6_15_19 - t6_15_20 - t6_15_21 - t7_8_15 - t7_9_15 - t7_10_15 - t7_11_15 - t7_12_15 - t7_13_15 - t7_14_15 - t7_15_16 - t7_15_17 - t7_15_18 - t7_15_19 - t7_15_20 - t7_15_21 - t8_9_15 - t8_10_15 - t8_11_15 - t8_12_15 - t8_13_15 - t8_14_15 - t8_15_16 - t8_15_17 - t8_15_18 - t8_15_19 - t8_15_20 - t8_15_21 - t9_10_15 - t9_11_15 - t9_12_15 - t9_13_15 - t9_14_15 - t9_15_16 - t9_15_17 - t9_15_18 - t9_15_19 - t9_15_20 - t9_15_21 - t10_11_15 - t10_12_15 - t10_13_15 - t10_14_15 - t10_15_16 - t10_15_17 - t10_15_18 - t10_15_19 - t10_15_20 - t10_15_21 - t11_12_15 - t11_13_15 - t11_14_15 - t11_15_16 - t11_15_17 - t11_15_18 - t11_15_19 - t11_15_20 - t11_15_21 - t12_13_15 - t12_14_15 - t12_15_16 - t12_15_17 - t12_15_18 - t12_15_19 - t12_15_20 - t12_15_21 - t13_14_15 - t13_15_16 - t13_15_17 - t13_15_18 - t13_15_19 - t13_15_20 - t13_15_21 - t14_15_16 - t14_15_17 - t14_15_18 - t14_15_19 - t14_15_20 - t14_15_21 - t15_16_17 - t15_16_18 - t15_16_19 - t15_16_20 - t15_16_21 - t15_17_18 - t15_17_19 - t15_17_20 - t15_17_21 - t15_18_19 - t15_18_20 - t15_18_21 - t15_19_20 - t15_19_21 - t15_20_21 = 0
k3deg16: d16 - t0_1_16 - t0_2_16 - t0_3_16 - t0_4_16 - t0_5_16 - t0_6_16 - t0_7_16 - t0_8_16 - t0_9_16 - t0_10_16 - t0_11_16 - t0_12_16 - t0_13_16 - t0_14_16 - t0_15_16 - t0_16_17 - t0_16_18 - t0_16_19 - t0_16_20 - t0_16_21 - t1_2_16 - t1_3_16 - t1_4_16 - t1_5_16 - t1_6_16 - t1_7_16 - t1_8_16 - t1_9_16 - t1_10_16 - t1_11_16 - t1_12_16 - t1_13_16 - t1_14_16 - t1_15_16 - t1_16_17 - t1_16_18 - t1_16_19 - t1_16_20 - t1_16_21 - t2_3_16 - t2_4_16 - t2_5_16 - t2_6_16 - t2_7_16 - t2_8_16 - t2_9_16 - t2_10_16 - t2_11_16 - t2_12_16 - t2_13_16 - t2_14_16 - t2_15_16 - t2_16_17 - t2_16_18 - t2_16_19 - t2_16_20 - t2_16_21 - t3_4_16 - t3_5_16 - t3_6_16 - t3_7_16 - t3_8_16 - t3_9_16 - t3_10_16 - t3_11_16 - t3_12_16 - t3_13_16 - t3_14_16 - t3_15_16 - t3_16_17 - t3_16_18 - t3_16_19 - t3_16_20 - t3_16_21 - t4_5_16 - t4_6_16 - t4_7_16 - t4_8_16 - t4_9_16 - t4_10_16 - t4_11_16 - t4_12_16 - t4_13_16 - t4_14_16 - t4_15_16 - t4_16_17 - t4_16_18 - t4_16_19 - t4_16_20 - t4_16_21 - t5_6_16 - t5_7_16 - t5_8_16 - t5_9_16 - t5_10_16 - t5_11_16 - t5_12_16 - t5_13_16 - t5_14_16 - t5_15_16 - t5_16_17 - t5_16_18 - t5_16_19 - t5_16_20 - t5_16_21 - t6_7_16 - t6_8_16 - t6_9_16 - t6_10_16 - t6_11_16 - t6_12_16 - t6_13_16 - t6_14_16 - t6_15_16 - t6_16_17 - t6_16_18 - t6_16_19 - t6_16_20 - t6_16_21 - t7_8_16 - t7_9_16 - t7_10_16 - t7_11_16 - t7_12_16 - t7_13_16 - t7_14_16 - t7_15_16 - t7_16_17 - t7_16_18 - t7_16_19 - t7_16_20 - t7_16_21 - t8_9_16 - t8_10_16 - t8_11_16 - t8_12_16 - t8_13_16 - t8_14_16 - t8_15_16 - t8_16_17 - t8_16_18 - t8_16_19 - t8_16_20 - t8_16_21 - t9_10_16 - t9_11_16 - t9_12_16 - t9_13_16 - t9_14_16 - t9_15_16 - t9_16_17 - t9_16_18 - t9_16_19 - t9_16_20 - t9_16_21 - t10_11_16 - t10_12_16 - t10_13_16 - t10_14_16 - t10_15_16 - t10_16_17 - t10_16_18 - t10_16_19 - t10_16_20 - t10_16_21 - t11_12_16 - t11_13_16 - t11_14_16 - t11_15_16 - t11_16_17 - t11_16_18 - t11_16_19 - t11_16_20 - t11_16_21 - t12_13_16 - t12_14_16 - t12_15_16 - t12_16_17 - t12_16_18 - t12_16_19 - t12_16_20 - t12_16_21 - t13_14_16 - t13_15_16 - t13_16_17 - t13_16_18 - t13_16_19 - t13_16_20 - t13_16_21 - t14_15_16 - t14_16_17 - t14_16_18 - t14_16_19 - t14_16_20 - t14_16_21 - t15_16_17 - t15_16_18 - t15_16_19 - t15_16_20 - t15_16_21 - t16_17_18 - t16_17_19 - t16_17_20 - t16_17_21 - t16_18_19 - t16_18_20 - t16_18_21 - t16_19_20 - t16_19_21 - t16_20_21 = 0
k3deg17: d17 - t0_1_17 - t0_2_17 - t0_3_17 - t0_4_17 - t0_5_17 - t0_6_17 - t0_7_17 - t0_8_17 - t0_9_17 - t0_10_17 - t0_11_17 - t0_12_17 - t0_13_17 - t0_14_17 - t0_15_17 - t0_16_17 - t0_17_18 - t0_17_19 - t0_17_20 - t0_17_21 - t1_2_17 - t1_3_17 - t1_4_17 - t1_5_17 - t1_6_17 - t1_7_17 - t1_8_17 - t1_9_17 - t1_10_17 - t1_11_17 - t1_12_17 - t1_13_17 - t1_14_17 - t1_15_17 - t1_16_17 - t1_17_18 - t1_17_19 - t1_17_20 - t1_17_21 - t2_3_17 - t2_4_17 - t2_5_17 - t2_6_17 - t2_7_17 - t2_8_17 - t2_9_17 - t2_10_17 - t2_11_17 - t2_12_17 - t2_13_17 - t2_14_17 - t2_15_17 - t2_16_17 - t2_17_18 - t2_17_19 - t2_17_20 - t2_17_21 - t3_4_17 - t3_5_17 - t3_6_17 - t3_7_17 - t3_8_17 - t3_9_17 - t3_10_17 - t3_11_17 - t3_12_17 - t3_13_17 - t3_14_17 - t3_15_17 - t3_16_17 - t3_17_18 - t3_17_19 - t3_17_20 - t3_17_21 - t4_5_17 - t4_6_17 - t4_7_17 - t4_8_17 - t4_9_17 - t4_10_17 - t4_11_17 - t4_12_17 - t4_13_17 - t4_14_17 - t4_15_17 - t4_16_17 - t4_17_18 - t4_17_19 - t4_17_20 - t4_17_21 - t5_6_17 - t5_7_17 - t5_8_17 - t5_9_17 - t5_10_17 - t5_11_17 - t5_12_17 - t5_13_17 - t5_14_17 - t5_15_17 - t5_16_17 - t5_17_18 - t5_17_19 - t5_17_20 - t5_17_21 - t6_7_17 - t6_8_17 - t6_9_17 - t6_10_17 - t6_11_17 - t6_12_17 - t6_13_17 - t6_14_17 - t6_15_17 - t6_16_17 - t6_17_18 - t6_17_19 - t6_17_20 - t6_17_21 - t7_8_17 - t7_9_17 - t7_10_17 - t7_11_17 - t7_12_17 - t7_13_17 - t7_14_17 - t7_15_17 - t7_16_17 - t7_17_18 - t7_17_19 - t7_17_20 - t7_17_21 - t8_9_17 - t8_10_17 - t8_11_17 - t8_12_17 - t8_13_17 - t8_14_17 - t8_15_17 - t8_16_17 - t8_17_18 - t8_17_19 - t8_17_20 - t8_17_21 - t9_10_17 - t9_11_17 - t9_12_17 - t9_13_17 - t9_14_17 - t9_15_17 - t9_16_17 - t9_17_18 - t9_17_19 - t9_17_20 - t9_17_21 - t10_11_17 - t10_12_17 - t10_13_17 - t10_14_17 - t10_15_17 - t10_16_17 - t10_17_18 - t10_17_19 - t10_17_20 - t10_17_21 - t11_12_17 - t11_13_17 - t11_14_17 - t11_15_17 - t11_16_17 - t11_17_18 - t11_17_19 - t11_17_20 - t11_17_21 - t12_13_17 - t12_14_17 - t12_15_17 - t12_16_17 - t12_17_18 - t12_17_19 - t12_17_20 - t12_17_21 - t13_14_17 - t13_15_17 - t13_16_17 - t13_17_18 - t13_17_19 - t13_17_20 - t13_17_21 - t14_15_17 - t14_16_17 - t14_17_18 - t14_17_19 - t14_17_20 - t14_17_21 - t15_16_17 - t15_17_18 - t15_17_19 - t15_17_20 - t15_17_21 - t16_17_18 - t16_17_19 - t16_17_20 - t16_17_21 - t17_18_19 - t17_18_20 - t17_18_21 - t17_19_20 - t17_19_21 - t17_20_21 = 0
k3deg18: d18 - t0_1_18 - t0_2_18 - t0_3_18 - t0_4_18 - t0_5_18 - t0_6_18 - t0_7_18 - t0_8_18 - t0_9_18 - t0_10_18 - t0_11_18 - t0_12_18 - t0_13_18 - t0_14_18 - t0_15_18 - t0_16_18 - t0_17_18 - t0_18_19 - t0_18_20 - t0_18_21 - t1_2_18 - t1_3_18 - t1_4_18 - t1_5_18 - t1_6_18 - t1_7_18 - t1_8_18 - t1_9_18 - t1_10_18 - t1_11_18 - t1_12_18 - t1_13_18 - t1_14_18 - t1_15_18 - t1_16_18 - t1_17_18 - t1_18_19 - t1_18_20 - t1_18_21 - t2_3_18 - t2_4_18 - t2_5_18 - t2_6_18 - t2_7_18 - t2_8_18 - t2_9_18 - t2_10_18 - t2_11_18 - t2_12_18 - t2_13_18 - t2_14_18 - t2_15_18 - t2_16_18 - t2_17_18 - t2_18_19 - t2_18_20 - t2_18_21 - t3_4_18 - t3_5_18 - t3_6_18 - t3_7_18 - t3_8_18 - t3_9_18 - t3_10_18 - t3_11_18 - t3_12_18 - t3_13_18 - t3_14_18 - t3_15_18 - t3_16_18 - t3_17_18 - t3_18_19 - t3_18_20 - t3_18_21 - t4_5_18 - t4_6_18 - t4_7_18 - t4_8_18 - t4_9_18 - t4_10_18 - t4_11_18 - t4_12_18 - t4_13_18 - t4_14_18 - t4_15_18 - t4_16_18 - t4_17_18 - t4_18_19 - t4_18_20 - t4_18_21 - t5_6_18 - t5_7_18 - t5_8_18 - t5_9_18 - t5_10_18 - t5_11_18 - t5_12_18 - t5_13_18 - t5_14_18 - t5_15_18 - t5_16_18 - t5_17_18 - t5_18_19 - t5_18_20 - t5_18_21 - t6_7_18 - t6_8_18 - t6_9_18 - t6_10_18 - t6_11_18 - t6_12_18 - t6_13_18 - t6_14_18 - t6_15_18 - t6_16_18 - t6_17_18 - t6_18_19 - t6_18_20 - t6_18_21 - t7_8_18 - t7_9_18 - t7_10_18 - t7_11_18 - t7_12_18 - t7_13_18 - t7_14_18 - t7_15_18 - t7_16_18 - t7_17_18 - t7_18_19 - t7_18_20 - t7_18_21 - t8_9_18 - t8_10_18 - t8_11_18 - t8_12_18 - t8_13_18 - t8_14_18 - t8_15_18 - t8_16_18 - t8_17_18 - t8_18_19 - t8_18_20 - t8_18_21 - t9_10_18 - t9_11_18 - t9_12_18 - t9_13_18 - t9_14_18 - t9_15_18 - t9_16_18 - t9_17_18 - t9_18_19 - t9_18_20 - t9_18_21 - t10_11_18 - t10_12_18 - t10_13_18 - t10_14_18 - t10_15_18 - t10_16_18 - t10_17_18 - t10_18_19 - t10_18_20 - t10_18_21 - t11_12_18 - t11_13_18 - t11_14_18 - t11_15_18 - t11_16_18 - t11_17_18 - t11_18_19 - t11_18_20 - t11_18_21 - t12_13_18 - t12_14_18 - t12_15_18 - t12_16_18 - t12_17_18 - t12_18_19 - t12_18_20 - t12_18_21 - t13_14_18 - t13_15_18 - t13_16_18 - t13_17_18 - t13_18_19 - t13_18_20 - t13_18_21 - t14_15_18 - t14_16_18 - t14_17_18 - t14_18_19 - t14_18_20 - t14_18_21 - t15_16_18 - t15_17_18 - t15_18_19 - t15_18_20 - t15_18_21 - t16_17_18 - t16_18_19 - t16_18_20 - t16_18_21 - t17_18_19 - t17_18_20 - t17_18_21 - t18_19_20 - t18_19_21 - t18_20_21 = 0
k3deg19: d19 - t0_1_19 - t0_2_19 - t0_3_19 - t0_4_19 - t0_5_19 - t0_6_19 - t0_7_19 - t0_8_19 - t0_9_19 - t0_10_19 - t0_11_19 - t0_12_19 - t0_13_19 - t0_14_19 - t0_15_19 - t0_16_19 - t0_17_19 - t0_18_19 - t0_19_20 - t0_19_21 - t1_2_19 - t1_3_19 - t1_4_19 - t1_5_19 - t1_6_19 - t1_7_19 - t1_8_19 - t1_9_19 - t1_10_19 - t1_11_19 - t1_12_19 - t1_13_19 - t1_14_19 - t1_15_19 - t1_16_19 - t1_17_19 - t1_18_19 - t1_19_20 - t1_19_21 - t2_3_19 - t2_4_19 - t2_5_19 - t2_6_19 - t2_7_19 - t2_8_19 - t2_9_19 - t2_10_19 - t2_11_19 - t2_12_19 - t2_13_19 - t2_14_19 - t2_15_19 - t2_16_19 - t2_17_19 - t2_18_19 - t2_19_20 - t2_19_21 - t3_4_19 - t3_5_19 - t3_6_19 - t3_7_19 - t3_8_19 - t3_9_19 - t3_10_19 - t3_11_19 - t3_12_19 - t3_13_19 - t3_14_19 - t3_15_19 - t3_16_19 - t3_17_19 - t3_18_19 - t3_19_20 - t3_19_21 - t4_5_19 - t4_6_19 - t4_7_19 - t4_8_19 - t4_9_19 - t4_10_19 - t4_11_19 - t4_12_19 - t4_13_19 - t4_14_19 - t4_15_19 - t4_16_19 - t4_17_19 - t4_18_19 - t4_19_20 - t4_19_21 - t5_6_19 - t5_7_19 - t5_8_19 - t5_9_19 - t5_10_19 - t5_11_19 - t5_12_19 - t5_13_19 - t5_14_19 - t5_15_19 - t5_16_19 - t5_17_19 - t5_18_19 - t5_19_20 - t5_19_21 - t6_7_19 - t6_8_19 - t6_9_19 - t6_10_19 - t6_11_19 - t6_12_19 - t6_13_19 - t6_14_19 - t6_15_19 - t6_16_19 - t6_17_19 - t6_18_19 - t6_19_20 - t6_19_21 - t7_8_19 - t7_9_19 - t7_10_19 - t7_11_19 - t7_12_19 - t7_13_19 - t7_14_19 - t7_15_19 - t7_16_19 - t7_17_19 - t7_18_19 - t7_19_20 - t7_19_21 - t8_9_19 - t8_10_19 - t8_11_19 - t8_12_19 - t8_13_19 - t8_14_19 - t8_15_19 - t8_16_19 - t8_17_19 - t8_18_19 - t8_19_20 - t8_19_21 - t9_10_19 - t9_11_19 - t9_12_19 - t9_13_19 - t9_14_19 - t9_15_19 - t9_16_19 - t9_17_19 - t9_18_19 - t9_19_20 - t9_19_21 - t10_11_19 - t10_12_19 - t10_13_19 - t10_14_19 - t10_15_19 - t10_16_19 - t10_17_19 - t10_18_19 - t10_19_20 - t10_19_21 - t11_12_19 - t11_13_19 - t11_14_19 - t11_15_19 - t11_16_19 - t11_17_19 - t11_18_19 - t11_19_20 - t11_19_21 - t12_13_19 - t12_14_19 - t12_15_19 - t12_16_19 - t12_17_19 - t12_18_19 - t12_19_20 - t12_19_21 - t13_14_19 - t13_15_19 - t13_16_19 - t13_17_19 - t13_18_19 - t13_19_20 - t13_19_21 - t14_15_19 - t14_16_19 - t14_17_19 - t14_18_19 - t14_19_20 - t14_19_21 - t15_16_19 - t15_17_19 - t15_18_19 - t15_19_20 - t15_19_21 - t16_17_19 - t16_18_19 - t16_19_20 - t16_19_21 - t17_18_19 - t17_19_20 - t17_19_21 - t18_19_20 - t18_19_21 - t19_20_21 = 0
k3deg20: d20 - t0_1_20 - t0_2_20 - t0_3_20 - t0_4_20 - t0_5_20 - t0_6_20 - t0_7_20 - t0_8_20 - t0_9_20 - t0_10_20 - t0_11_20 - t0_12_20 - t0_13_20 - t0_14_20 - t0_15_20 - t0_16_20 - t0_17_20 - t0_18_20 - t0_19_20 - t0_20_21 - t1_2_20 - t1_3_20 - t1_4_20 - t1_5_20 - t1_6_20 - t1_7_20 - t1_8_20 - t1_9_20 - t1_10_20 - t1_11_20 - t1_12_20 - t1_13_20 - t1_14_20 - t1_15_20 - t1_16_20 - t1_17_20 - t1_18_20 - t1_19_20 - t1_20_21 - t2_3_20 - t2_4_20 - t2_5_20 - t2_6_20 - t2_7_20 - t2_8_20 - t2_9_20 - t2_10_20 - t2_11_20 - t2_12_20 - t2_13_20 - t2_14_20 - t2_15_20 - t2_16_20 - t2_17_20 - t2_18_20 - t2_19_20 - t2_20_21 - t3_4_20 - t3_5_20 - t3_6_20 - t3_7_20 - t3_8_20 - t3_9_20 - t3_10_20 - t3_11_20 - t3_12_20 - t3_13_20 - t3_14_20 - t3_15_20 - t3_16_20 - t3_17_20 - t3_18_20 - t3_19_20 - t3_20_21 - t4_5_20 - t4_6_20 - t4_7_20 - t4_8_20 - t4_9_20 - t4_10_20 - t4_11_20 - t4_12_20 - t4_13_20 - t4_14_20 - t4_15_20 - t4_16_20 - t4_17_20 - t4_18_20 - t4_19_20 - t4_20_21 - t5_6_20 - t5_7_20 - t5_8_20 - t5_9_20 - t5_10_20 - t5_11_20 - t5_12_20 - t5_13_20 - t5_14_20 - t5_15_20 - t5_16_20 - t5_17_20 - t5_18_20 - t5_19_20 - t5_20_21 - t6_7_20 - t6_8_20 - t6_9_20 - t6_10_20 - t6_11_20 - t6_12_20 - t6_13_20 - t6_14_20 - t6_15_20 - t6_16_20 - t6_17_20 - t6_18_20 - t6_19_20 - t6_20_21 - t7_8_20 - t7_9_20 - t7_10_20 - t7_11_20 - t7_12_20 - t7_13_20 - t7_14_20 - t7_15_20 - t7_16_20 - t7_17_20 - t7_18_20 - t7_19_20 - t7_20_21 - t8_9_20 - t8_10_20 - t8_11_20 - t8_12_20 - t8_13_20 - t8_14_20 - t8_15_20 - t8_16_20 - t8_17_20 - t8_18_20 - t8_19_20 - t8_20_21 - t9_10_20 - t9_11_20 - t9_12_20 - t9_13_20 - t9_14_20 - t9_15_20 - t9_16_20 - t9_17_20 - t9_18_20 - t9_19_20 - t9_20_21 - t10_11_20 - t10_12_20 - t10_13_20 - t10_14_20 - t10_15_20 - t10_16_20 - t10_17_20 - t10_18_20 - t10_19_20 - t10_20_21 - t11_12_20 - t11_13_20 - t11_14_20 - t11_15_20 - t11_16_20 - t11_17_20 - t11_18_20 - t11_19_20 - t11_20_21 - t12_13_20 - t12_14_20 - t12_15_20 - t12_16_20 - t12_17_20 - t12_18_20 - t12_19_20 - t12_20_21 - t13_14_20 - t13_15_20 - t13_16_20 - t13_17_20 - t13_18_20 - t13_19_20 - t13_20_21 - t14_15_20 - t14_16_20 - t14_17_20 - t14_18_20 - t14_19_20 - t14_20_21 - t15_16_20 - t15_17_20 - t15_18_20 - t15_19_20 - t15_20_21 - t16_17_20 - t16_18_20 - t16_19_20 - t16_20_21 - t17_18_20 - t17_19_20 - t17_20_21 - t18_19_20 - t18_20_21 - t19_20_21 = 0
k3deg21: d21 - t0_1_21 - t0_2_21 - t0_3_21 - t0_4_21 - t0_5_21 - t0_6_21 - t0_7_21 - t0_8_21 - t0_9_21 - t0_10_21 - t0_11_21 - t0_12_21 - t0_13_21 - t0_14_21 - t0_15_21 - t0_16_21 - t0_17_21 - t0_18_21 - t0_19_21 - t0_20_21 - t1_2_21 - t1_3_21 - t1_4_21 - t1_5_21 - t1_6_21 - t1_7_21 - t1_8_21 - t1_9_21 - t1_10_21 - t1_11_21 - t1_12_21 - t1_13_21 - t1_14_21 - t1_15_21 - t1_16_21 - t1_17_21 - t1_18_21 - t1_19_21 - t1_20_21 - t2_3_21 - t2_4_21 - t2_5_21 - t2_6_21 - t2_7_21 - t2_8_21 - t2_9_21 - t2_10_21 - t2_11_21 - t2_12_21 - t2_13_21 - t2_14_21 - t2_15_21 - t2_16_21 - t2_17_21 - t2_18_21 - t2_19_21 - t2_20_21 - t3_4_21 - t3_5_21 - t3_6_21 - t3_7_21 - t3_8_21 - t3_9_21 - t3_10_21 - t3_11_21 - t3_12_21 - t3_13_21 - t3_14_21 - t3_15_21 - t3_16_21 - t3_17_21 - t3_18_21 - t3_19_21 - t3_20_21 - t4_5_21 - t4_6_21 - t4_7_21 - t4_8_21 - t4_9_21 - t4_10_21 - t4_11_21 - t4_12_21 - t4_13_21 - t4_14_21 - t4_15_21 - t4_16_21 - t4_17_21 - t4_18_21 - t4_19_21 - t4_20_21 - t5_6_21 - t5_7_21 - t5_8_21 - t5_9_21 - t5_10_21 - t5_11_21 - t5_12_21 - t5_13_21 - t5_14_21 - t5_15_21 - t5_16_21 - t5_17_21 - t5_18_21 - t5_19_21 - t5_20_21 - t6_7_21 - t6_8_21 - t6_9_21 - t6_10_21 - t6_11_21 - t6_12_21 - t6_13_21 - t6_14_21 - t6_15_21 - t6_16_21 - t6_17_21 - t6_18_21 - t6_19_21 - t6_20_21 - t7_8_21 - t7_9_21 - t7_10_21 - t7_11_21 - t7_12_21 - t7_13_21 - t7_14_21 - t7_15_21 - t7_16_21 - t7_17_21 - t7_18_21 - t7_19_21 - t7_20_21 - t8_9_21 - t8_10_21 - t8_11_21 - t8_12_21 - t8_13_21 - t8_14_21 - t8_15_21 - t8_16_21 - t8_17_21 - t8_18_21 - t8_19_21 - t8_20_21 - t9_10_21 - t9_11_21 - t9_12_21 - t9_13_21 - t9_14_21 - t9_15_21 - t9_16_21 - t9_17_21 - t9_18_21 - t9_19_21 - t9_20_21 - t10_11_21 - t10_12_21 - t10_13_21 - t10_14_21 - t10_15_21 - t10_16_21 - t10_17_21 - t10_18_21 - t10_19_21 - t10_20_21 - t11_12_21 - t11_13_21 - t11_14_21 - t11_15_21 - t11_16_21 - t11_17_21 - t11_18_21 - t11_19_21 - t11_20_21 - t12_13_21 - t12_14_21 - t12_15_21 - t12_16_21 - t12_17_21 - t12_18_21 - t12_19_21 - t12_20_21 - t13_14_21 - t13_15_21 - t13_16_21 - t13_17_21 - t13_18_21 - t13_19_21 - t13_20_21 - t14_15_21 - t14_16_21 - t14_17_21 - t14_18_21 - t14_19_21 - t14_20_21 - t15_16_21 - t15_17_21 - t15_18_21 - t15_19_21 - t15_20_21 - t16_17_21 - t16_18_21 - t16_19_21 - t16_20_21 - t17_18_21 - t17_19_21 - t17_20_21 - t18_19_21 - t18_20_21 - t19_20_21 = 0

ord0: d0 - d1 <= -1
ord1: d1 - d2 <= -1
ord2: d2 - d3 <= -1
ord3: d3 - d4 <= -1
ord4: d4 - d5 <= -1
ord5: d5 - d6 <= -1
ord6: d6 - d7 <= -1
ord7: d7 - d8 <= -1
ord8: d8 - d9 <= -1
ord9: d9 - d10 <= -1
ord10: d10 - d11 <= -1
ord11: d11 - d12 <= -1
ord12: d12 - d13 <= -1
ord13: d13 - d14 <= -1
ord14: d14 - d15 <= -1
ord15: d15 - d16 <= -1
ord16: d16 - d17 <= -1
ord17: d17 - d18 <= -1
ord18: d18 - d19 <= -1
ord19: d19 - d20 <= -1
ord20: d20 - d21 <= -1
sum_k3: d0 + d1 + d2 + d3 + d4 + d5 + d6 + d7 + d8 + d9 + d10 + d11 + d12 + d13 + d14 + d15 + d16 + d17 + d18 + d19 + d20 + d21 - 3 T = 0

Bounds
0 <= d0 <= 1
1 <= d1 <= 2
2 <= d2 <= 3
3 <= d3 <= 4
4 <= d4 <= 5
5 <= d5 <= 6
6 <= d6 <= 7
7 <= d7 <= 8
8 <= d8 <= 9
9 <= d9 <= 10
10 <= d10 <= 11
11 <= d11 <= 12
12 <= d12 <= 13
13 <= d13 <= 14
14 <= d14 <= 15
15 <= d15 <= 16
16 <= d16 <= 17
17 <= d17 <= 18
18 <= d18 <= 19
19 <= d19 <= 20
20 <= d20 <= 21
21 <= d21 <= 22
tbounds: 77 <= T <= 84

Binary
 x0_1  x0_2  x0_3  x0_4  x0_5  x0_6  x0_7  x0_8  x0_9  x0_10  x0_11  x0_12  x0_13  x0_14  x0_15  x0_16  x0_17  x0_18  x0_19  x0_20  x0_21 
 x1_2  x1_3  x1_4  x1_5  x1_6  x1_7  x1_8  x1_9  x1_10  x1_11  x1_12  x1_13  x1_14  x1_15  x1_16  x1_17  x1_18  x1_19  x1_20  x1_21 
 x2_3  x2_4  x2_5  x2_6  x2_7  x2_8  x2_9  x2_10  x2_11  x2_12  x2_13  x2_14  x2_15  x2_16  x2_17  x2_18  x2_19  x2_20  x2_21 
 x3_4  x3_5  x3_6  x3_7  x3_8  x3_9  x3_10  x3_11  x3_12  x3_13  x3_14  x3_15  x3_16  x3_17  x3_18  x3_19  x3_20  x3_21 
 x4_5  x4_6  x4_7  x4_8  x4_9  x4_10  x4_11  x4_12  x4_13  x4_14  x4_15  x4_16  x4_17  x4_18  x4_19  x4_20  x4_21 
 x5_6  x5_7  x5_8  x5_9  x5_10  x5_11  x5_12  x5_13  x5_14  x5_15  x5_16  x5_17  x5_18  x5_19  x5_20  x5_21 
 x6_7  x6_8  x6_9  x6_10  x6_11  x6_12  x6_13  x6_14  x6_15  x6_16  x6_17  x6_18  x6_19  x6_20  x6_21 
 x7_8  x7_9  x7_10  x7_11  x7_12  x7_13  x7_14  x7_15  x7_16  x7_17  x7_18  x7_19  x7_20  x7_21 
 x8_9  x8_10  x8_11  x8_12  x8_13  x8_14  x8_15  x8_16  x8_17  x8_18  x8_19  x8_20  x8_21 
 x9_10  x9_11  x9_12  x9_13  x9_14  x9_15  x9_16  x9_17  x9_18  x9_19  x9_20  x9_21 
 x10_11  x10_12  x10_13  x10_14  x10_15  x10_16  x10_17  x10_18  x10_19  x10_20  x10_21 
 x11_12  x11_13  x11_14  x11_15  x11_16  x11_17  x11_18  x11_19  x11_20  x11_21 
 x12_13  x12_14  x12_15  x12_16  x12_17  x12_18  x12_19  x12_20  x12_21 
 x13_14  x13_15  x13_16  x13_17  x13_18  x13_19  x13_20  x13_21 
 x14_15  x14_16  x14_17  x14_18  x14_19  x14_20  x14_21 
 x15_16  x15_17  x15_18  x15_19  x15_20  x15_21 
 x16_17  x16_18  x16_19  x16_20  x16_21 
 x17_18  x17_19  x17_20  x17_21 
 x18_19  x18_20  x18_21 
 x19_20  x19_21 
 x20_21 
 t0_1_2
 t0_1_3
 t0_1_4
 t0_1_5
 t0_1_6
 t0_1_7
 t0_1_8
 t0_1_9
 t0_1_10
 t0_1_11
 t0_1_12
 t0_1_13
 t0_1_14
 t0_1_15
 t0_1_16
 t0_1_17
 t0_1_18
 t0_1_19
 t0_1_20
 t0_1_21
 t0_2_3
 t0_2_4
 t0_2_5
 t0_2_6
 t0_2_7
 t0_2_8
 t0_2_9
 t0_2_10
 t0_2_11
 t0_2_12
 t0_2_13
 t0_2_14
 t0_2_15
 t0_2_16
 t0_2_17
 t0_2_18
 t0_2_19
 t0_2_20
 t0_2_21
 t0_3_4
 t0_3_5
 t0_3_6
 t0_3_7
 t0_3_8
 t0_3_9
 t0_3_10
 t0_3_11
 t0_3_12
 t0_3_13
 t0_3_14
 t0_3_15
 t0_3_16
 t0_3_17
 t0_3_18
 t0_3_19
 t0_3_20
 t0_3_21
 t0_4_5
 t0_4_6
 t0_4_7
 t0_4_8
 t0_4_9
 t0_4_10
 t0_4_11
 t0_4_12
 t0_4_13
 t0_4_14
 t0_4_15
 t0_4_16
 t0_4_17
 t0_4_18
 t0_4_19
 t0_4_20
 t0_4_21
 t0_5_6
 t0_5_7
 t0_5_8
 t0_5_9
 t0_5_10
 t0_5_11
 t0_5_12
 t0_5_13
 t0_5_14
 t0_5_15
 t0_5_16
 t0_5_17
 t0_5_18
 t0_5_19
 t0_5_20
 t0_5_21
 t0_6_7
 t0_6_8
 t0_6_9
 t0_6_10
 t0_6_11
 t0_6_12
 t0_6_13
 t0_6_14
 t0_6_15
 t0_6_16
 t0_6_17
 t0_6_18
 t0_6_19
 t0_6_20
 t0_6_21
 t0_7_8
 t0_7_9
 t0_7_10
 t0_7_11
 t0_7_12
 t0_7_13
 t0_7_14
 t0_7_15
 t0_7_16
 t0_7_17
 t0_7_18
 t0_7_19
 t0_7_20
 t0_7_21
 t0_8_9
 t0_8_10
 t0_8_11
 t0_8_12
 t0_8_13
 t0_8_14
 t0_8_15
 t0_8_16
 t0_8_17
 t0_8_18
 t0_8_19
 t0_8_20
 t0_8_21
 t0_9_10
 t0_9_11
 t0_9_12
 t0_9_13
 t0_9_14
 t0_9_15
 t0_9_16
 t0_9_17
 t0_9_18
 t0_9_19
 t0_9_20
 t0_9_21
 t0_10_11
 t0_10_12
 t0_10_13
 t0_10_14
 t0_10_15
 t0_10_16
 t0_10_17
 t0_10_18
 t0_10_19
 t0_10_20
 t0_10_21
 t0_11_12
 t0_11_13
 t0_11_14
 t0_11_15
 t0_11_16
 t0_11_17
 t0_11_18
 t0_11_19
 t0_11_20
 t0_11_21
 t0_12_13
 t0_12_14
 t0_12_15
 t0_12_16
 t0_12_17
 t0_12_18
 t0_12_19
 t0_12_20
 t0_12_21
 t0_13_14
 t0_13_15
 t0_13_16
 t0_13_17
 t0_13_18
 t0_13_19
 t0_13_20
 t0_13_21
 t0_14_15
 t0_14_16
 t0_14_17
 t0_14_18
 t0_14_19
 t0_14_20
 t0_14_21
 t0_15_16
 t0_15_17
 t0_15_18
 t0_15_19
 t0_15_20
 t0_15_21
 t0_16_17
 t0_16_18
 t0_16_19
 t0_16_20
 t0_16_21
 t0_17_18
 t0_17_19
 t0_17_20
 t0_17_21
 t0_18_19
 t0_18_20
 t0_18_21
 t0_19_20
 t0_19_21
 t0_20_21
 t1_2_3
 t1_2_4
 t1_2_5
 t1_2_6
 t1_2_7
 t1_2_8
 t1_2_9
 t1_2_10
 t1_2_11
 t1_2_12
 t1_2_13
 t1_2_14
 t1_2_15
 t1_2_16
 t1_2_17
 t1_2_18
 t1_2_19
 t1_2_20
 t1_2_21
 t1_3_4
 t1_3_5
 t1_3_6
 t1_3_7
 t1_3_8
 t1_3_9
 t1_3_10
 t1_3_11
 t1_3_12
 t1_3_13
 t1_3_14
 t1_3_15
 t1_3_16
 t1_3_17
 t1_3_18
 t1_3_19
 t1_3_20
 t1_3_21
 t1_4_5
 t1_4_6
 t1_4_7
 t1_4_8
 t1_4_9
 t1_4_10
 t1_4_11
 t1_4_12
 t1_4_13
 t1_4_14
 t1_4_15
 t1_4_16
 t1_4_17
 t1_4_18
 t1_4_19
 t1_4_20
 t1_4_21
 t1_5_6
 t1_5_7
 t1_5_8
 t1_5_9
 t1_5_10
 t1_5_11
 t1_5_12
 t1_5_13
 t1_5_14
 t1_5_15
 t1_5_16
 t1_5_17
 t1_5_18
 t1_5_19
 t1_5_20
 t1_5_21
 t1_6_7
 t1_6_8
 t1_6_9
 t1_6_10
 t1_6_11
 t1_6_12
 t1_6_13
 t1_6_14
 t1_6_15
 t1_6_16
 t1_6_17
 t1_6_18
 t1_6_19
 t1_6_20
 t1_6_21
 t1_7_8
 t1_7_9
 t1_7_10
 t1_7_11
 t1_7_12
 t1_7_13
 t1_7_14
 t1_7_15
 t1_7_16
 t1_7_17
 t1_7_18
 t1_7_19
 t1_7_20
 t1_7_21
 t1_8_9
 t1_8_10
 t1_8_11
 t1_8_12
 t1_8_13
 t1_8_14
 t1_8_15
 t1_8_16
 t1_8_17
 t1_8_18
 t1_8_19
 t1_8_20
 t1_8_21
 t1_9_10
 t1_9_11
 t1_9_12
 t1_9_13
 t1_9_14
 t1_9_15
 t1_9_16
 t1_9_17
 t1_9_18
 t1_9_19
 t1_9_20
 t1_9_21
 t1_10_11
 t1_10_12
 t1_10_13
 t1_10_14
 t1_10_15
 t1_10_16
 t1_10_17
 t1_10_18
 t1_10_19
 t1_10_20
 t1_10_21
 t1_11_12
 t1_11_13
 t1_11_14
 t1_11_15
 t1_11_16
 t1_11_17
 t1_11_18
 t1_11_19
 t1_11_20
 t1_11_21
 t1_12_13
 t1_12_14
 t1_12_15
 t1_12_16
 t1_12_17
 t1_12_18
 t1_12_19
 t1_12_20
 t1_12_21
 t1_13_14
 t1_13_15
 t1_13_16
 t1_13_17
 t1_13_18
 t1_13_19
 t1_13_20
 t1_13_21
 t1_14_15
 t1_14_16
 t1_14_17
 t1_14_18
 t1_14_19
 t1_14_20
 t1_14_21
 t1_15_16
 t1_15_17
 t1_15_18
 t1_15_19
 t1_15_20
 t1_15_21
 t1_16_17
 t1_16_18
 t1_16_19
 t1_16_20
 t1_16_21
 t1_17_18
 t1_17_19
 t1_17_20
 t1_17_21
 t1_18_19
 t1_18_20
 t1_18_21
 t1_19_20
 t1_19_21
 t1_20_21
 t2_3_4
 t2_3_5
 t2_3_6
 t2_3_7
 t2_3_8
 t2_3_9
 t2_3_10
 t2_3_11
 t2_3_12
 t2_3_13
 t2_3_14
 t2_3_15
 t2_3_16
 t2_3_17
 t2_3_18
 t2_3_19
 t2_3_20
 t2_3_21
 t2_4_5
 t2_4_6
 t2_4_7
 t2_4_8
 t2_4_9
 t2_4_10
 t2_4_11
 t2_4_12
 t2_4_13
 t2_4_14
 t2_4_15
 t2_4_16
 t2_4_17
 t2_4_18
 t2_4_19
 t2_4_20
 t2_4_21
 t2_5_6
 t2_5_7
 t2_5_8
 t2_5_9
 t2_5_10
 t2_5_11
 t2_5_12
 t2_5_13
 t2_5_14
 t2_5_15
 t2_5_16
 t2_5_17
 t2_5_18
 t2_5_19
 t2_5_20
 t2_5_21
 t2_6_7
 t2_6_8
 t2_6_9
 t2_6_10
 t2_6_11
 t2_6_12
 t2_6_13
 t2_6_14
 t2_6_15
 t2_6_16
 t2_6_17
 t2_6_18
 t2_6_19
 t2_6_20
 t2_6_21
 t2_7_8
 t2_7_9
 t2_7_10
 t2_7_11
 t2_7_12
 t2_7_13
 t2_7_14
 t2_7_15
 t2_7_16
 t2_7_17
 t2_7_18
 t2_7_19
 t2_7_20
 t2_7_21
 t2_8_9
 t2_8_10
 t2_8_11
 t2_8_12
 t2_8_13
 t2_8_14
 t2_8_15
 t2_8_16
 t2_8_17
 t2_8_18
 t2_8_19
 t2_8_20
 t2_8_21
 t2_9_10
 t2_9_11
 t2_9_12
 t2_9_13
 t2_9_14
 t2_9_15
 t2_9_16
 t2_9_17
 t2_9_18
 t2_9_19
 t2_9_20
 t2_9_21
 t2_10_11
 t2_10_12
 t2_10_13
 t2_10_14
 t2_10_15
 t2_10_16
 t2_10_17
 t2_10_18
 t2_10_19
 t2_10_20
 t2_10_21
 t2_11_12
 t2_11_13
 t2_11_14
 t2_11_15
 t2_11_16
 t2_11_17
 t2_11_18
 t2_11_19
 t2_11_20
 t2_11_21
 t2_12_13
 t2_12_14
 t2_12_15
 t2_12_16
 t2_12_17
 t2_12_18
 t2_12_19
 t2_12_20
 t2_12_21
 t2_13_14
 t2_13_15
 t2_13_16
 t2_13_17
 t2_13_18
 t2_13_19
 t2_13_20
 t2_13_21
 t2_14_15
 t2_14_16
 t2_14_17
 t2_14_18
 t2_14_19
 t2_14_20
 t2_14_21
 t2_15_16
 t2_15_17
 t2_15_18
 t2_15_19
 t2_15_20
 t2_15_21
 t2_16_17
 t2_16_18
 t2_16_19
 t2_16_20
 t2_16_21
 t2_17_18
 t2_17_19
 t2_17_20
 t2_17_21
 t2_18_19
 t2_18_20
 t2_18_21
 t2_19_20
 t2_19_21
 t2_20_21
 t3_4_5
 t3_4_6
 t3_4_7
 t3_4_8
 t3_4_9
 t3_4_10
 t3_4_11
 t3_4_12
 t3_4_13
 t3_4_14
 t3_4_15
 t3_4_16
 t3_4_17
 t3_4_18
 t3_4_19
 t3_4_20
 t3_4_21
 t3_5_6
 t3_5_7
 t3_5_8
 t3_5_9
 t3_5_10
 t3_5_11
 t3_5_12
 t3_5_13
 t3_5_14
 t3_5_15
 t3_5_16
 t3_5_17
 t3_5_18
 t3_5_19
 t3_5_20
 t3_5_21
 t3_6_7
 t3_6_8
 t3_6_9
 t3_6_10
 t3_6_11
 t3_6_12
 t3_6_13
 t3_6_14
 t3_6_15
 t3_6_16
 t3_6_17
 t3_6_18
 t3_6_19
 t3_6_20
 t3_6_21
 t3_7_8
 t3_7_9
 t3_7_10
 t3_7_11
 t3_7_12
 t3_7_13
 t3_7_14
 t3_7_15
 t3_7_16
 t3_7_17
 t3_7_18
 t3_7_19
 t3_7_20
 t3_7_21
 t3_8_9
 t3_8_10
 t3_8_11
 t3_8_12
 t3_8_13
 t3_8_14
 t3_8_15
 t3_8_16
 t3_8_17
 t3_8_18
 t3_8_19
 t3_8_20
 t3_8_21
 t3_9_10
 t3_9_11
 t3_9_12
 t3_9_13
 t3_9_14
 t3_9_15
 t3_9_16
 t3_9_17
 t3_9_18
 t3_9_19
 t3_9_20
 t3_9_21
 t3_10_11
 t3_10_12
 t3_10_13
 t3_10_14
 t3_10_15
 t3_10_16
 t3_10_17
 t3_10_18
 t3_10_19
 t3_10_20
 t3_10_21
 t3_11_12
 t3_11_13
 t3_11_14
 t3_11_15
 t3_11_16
 t3_11_17
 t3_11_18
 t3_11_19
 t3_11_20
 t3_11_21
 t3_12_13
 t3_12_14
 t3_12_15
 t3_12_16
 t3_12_17
 t3_12_18
 t3_12_19
 t3_12_20
 t3_12_21
 t3_13_14
 t3_13_15
 t3_13_16
 t3_13_17
 t3_13_18
 t3_13_19
 t3_13_20
 t3_13_21
 t3_14_15
 t3_14_16
 t3_14_17
 t3_14_18
 t3_14_19
 t3_14_20
 t3_14_21
 t3_15_16
 t3_15_17
 t3_15_18
 t3_15_19
 t3_15_20
 t3_15_21
 t3_16_17
 t3_16_18
 t3_16_19
 t3_16_20
 t3_16_21
 t3_17_18
 t3_17_19
 t3_17_20
 t3_17_21
 t3_18_19
 t3_18_20
 t3_18_21
 t3_19_20
 t3_19_21
 t3_20_21
 t4_5_6
 t4_5_7
 t4_5_8
 t4_5_9
 t4_5_10
 t4_5_11
 t4_5_12
 t4_5_13
 t4_5_14
 t4_5_15
 t4_5_16
 t4_5_17
 t4_5_18
 t4_5_19
 t4_5_20
 t4_5_21
 t4_6_7
 t4_6_8
 t4_6_9
 t4_6_10
 t4_6_11
 t4_6_12
 t4_6_13
 t4_6_14
 t4_6_15
 t4_6_16
 t4_6_17
 t4_6_18
 t4_6_19
 t4_6_20
 t4_6_21
 t4_7_8
 t4_7_9
 t4_7_10
 t4_7_11
 t4_7_12
 t4_7_13
 t4_7_14
 t4_7_15
 t4_7_16
 t4_7_17
 t4_7_18
 t4_7_19
 t4_7_20
 t4_7_21
 t4_8_9
 t4_8_10
 t4_8_11
 t4_8_12
 t4_8_13
 t4_8_14
 t4_8_15
 t4_8_16
 t4_8_17
 t4_8_18
 t4_8_19
 t4_8_20
 t4_8_21
 t4_9_10
 t4_9_11
 t4_9_12
 t4_9_13
 t4_9_14
 t4_9_15
 t4_9_16
 t4_9_17
 t4_9_18
 t4_9_19
 t4_9_20
 t4_9_21
 t4_10_11
 t4_10_12
 t4_10_13
 t4_10_14
 t4_10_15
 t4_10_16
 t4_10_17
 t4_10_18
 t4_10_19
 t4_10_20
 t4_10_21
 t4_11_12
 t4_11_13
 t4_11_14
 t4_11_15
 t4_11_16
 t4_11_17
 t4_11_18
 t4_11_19
 t4_11_20
 t4_11_21
 t4_12_13
 t4_12_14
 t4_12_15
 t4_12_16
 t4_12_17
 t4_12_18
 t4_12_19
 t4_12_20
 t4_12_21
 t4_13_14
 t4_13_15
 t4_13_16
 t4_13_17
 t4_13_18
 t4_13_19
 t4_13_20
 t4_13_21
 t4_14_15
 t4_14_16
 t4_14_17
 t4_14_18
 t4_14_19
 t4_14_20
 t4_14_21
 t4_15_16
 t4_15_17
 t4_15_18
 t4_15_19
 t4_15_20
 t4_15_21
 t4_16_17
 t4_16_18
 t4_16_19
 t4_16_20
 t4_16_21
 t4_17_18
 t4_17_19
 t4_17_20
 t4_17_21
 t4_18_19
 t4_18_20
 t4_18_21
 t4_19_20
 t4_19_21
 t4_20_21
 t5_6_7
 t5_6_8
 t5_6_9
 t5_6_10
 t5_6_11
 t5_6_12
 t5_6_13
 t5_6_14
 t5_6_15
 t5_6_16
 t5_6_17
 t5_6_18
 t5_6_19
 t5_6_20
 t5_6_21
 t5_7_8
 t5_7_9
 t5_7_10
 t5_7_11
 t5_7_12
 t5_7_13
 t5_7_14
 t5_7_15
 t5_7_16
 t5_7_17
 t5_7_18
 t5_7_19
 t5_7_20
 t5_7_21
 t5_8_9
 t5_8_10
 t5_8_11
 t5_8_12
 t5_8_13
 t5_8_14
 t5_8_15
 t5_8_16
 t5_8_17
 t5_8_18
 t5_8_19
 t5_8_20
 t5_8_21
 t5_9_10
 t5_9_11
 t5_9_12
 t5_9_13
 t5_9_14
 t5_9_15
 t5_9_16
 t5_9_17
 t5_9_18
 t5_9_19
 t5_9_20
 t5_9_21
 t5_10_11
 t5_10_12
 t5_10_13
 t5_10_14
 t5_10_15
 t5_10_16
 t5_10_17
 t5_10_18
 t5_10_19
 t5_10_20
 t5_10_21
 t5_11_12
 t5_11_13
 t5_11_14
 t5_11_15
 t5_11_16
 t5_11_17
 t5_11_18
 t5_11_19
 t5_11_20
 t5_11_21
 t5_12_13
 t5_12_14
 t5_12_15
 t5_12_16
 t5_12_17
 t5_12_18
 t5_12_19
 t5_12_20
 t5_12_21
 t5_13_14
 t5_13_15
 t5_13_16
 t5_13_17
 t5_13_18
 t5_13_19
 t5_13_20
 t5_13_21
 t5_14_15
 t5_14_16
 t5_14_17
 t5_14_18
 t5_14_19
 t5_14_20
 t5_14_21
 t5_15_16
 t5_15_17
 t5_15_18
 t5_15_19
 t5_15_20
 t5_15_21
 t5_16_17
 t5_16_18
 t5_16_19
 t5_16_20
 t5_16_21
 t5_17_18
 t5_17_19
 t5_17_20
 t5_17_21
 t5_18_19
 t5_18_20
 t5_18_21
 t5_19_20
 t5_19_21
 t5_20_21
 t6_7_8
 t6_7_9
 t6_7_10
 t6_7_11
 t6_7_12
 t6_7_13
 t6_7_14
 t6_7_15
 t6_7_16
 t6_7_17
 t6_7_18
 t6_7_19
 t6_7_20
 t6_7_21
 t6_8_9
 t6_8_10
 t6_8_11
 t6_8_12
 t6_8_13
 t6_8_14
 t6_8_15
 t6_8_16
 t6_8_17
 t6_8_18
 t6_8_19
 t6_8_20
 t6_8_21
 t6_9_10
 t6_9_11
 t6_9_12
 t6_9_13
 t6_9_14
 t6_9_15
 t6_9_16
 t6_9_17
 t6_9_18
 t6_9_19
 t6_9_20
 t6_9_21
 t6_10_11
 t6_10_12
 t6_10_13
 t6_10_14
 t6_10_15
 t6_10_16
 t6_10_17
 t6_10_18
 t6_10_19
 t6_10_20
 t6_10_21
 t6_11_12
 t6_11_13
 t6_11_14
 t6_11_15
 t6_11_16
 t6_11_17
 t6_11_18
 t6_11_19
 t6_11_20
 t6_11_21
 t6_12_13
 t6_12_14
 t6_12_15
 t6_12_16
 t6_12_17
 t6_12_18
 t6_12_19
 t6_12_20
 t6_12_21
 t6_13_14
 t6_13_15
 t6_13_16
 t6_13_17
 t6_13_18
 t6_13_19
 t6_13_20
 t6_13_21
 t6_14_15
 t6_14_16
 t6_14_17
 t6_14_18
 t6_14_19
 t6_14_20
 t6_14_21
 t6_15_16
 t6_15_17
 t6_15_18
 t6_15_19
 t6_15_20
 t6_15_21
 t6_16_17
 t6_16_18
 t6_16_19
 t6_16_20
 t6_16_21
 t6_17_18
 t6_17_19
 t6_17_20
 t6_17_21
 t6_18_19
 t6_18_20
 t6_18_21
 t6_19_20
 t6_19_21
 t6_20_21
 t7_8_9
 t7_8_10
 t7_8_11
 t7_8_12
 t7_8_13
 t7_8_14
 t7_8_15
 t7_8_16
 t7_8_17
 t7_8_18
 t7_8_19
 t7_8_20
 t7_8_21
 t7_9_10
 t7_9_11
 t7_9_12
 t7_9_13
 t7_9_14
 t7_9_15
 t7_9_16
 t7_9_17
 t7_9_18
 t7_9_19
 t7_9_20
 t7_9_21
 t7_10_11
 t7_10_12
 t7_10_13
 t7_10_14
 t7_10_15
 t7_10_16
 t7_10_17
 t7_10_18
 t7_10_19
 t7_10_20
 t7_10_21
 t7_11_12
 t7_11_13
 t7_11_14
 t7_11_15
 t7_11_16
 t7_11_17
 t7_11_18
 t7_11_19
 t7_11_20
 t7_11_21
 t7_12_13
 t7_12_14
 t7_12_15
 t7_12_16
 t7_12_17
 t7_12_18
 t7_12_19
 t7_12_20
 t7_12_21
 t7_13_14
 t7_13_15
 t7_13_16
 t7_13_17
 t7_13_18
 t7_13_19
 t7_13_20
 t7_13_21
 t7_14_15
 t7_14_16
 t7_14_17
 t7_14_18
 t7_14_19
 t7_14_20
 t7_14_21
 t7_15_16
 t7_15_17
 t7_15_18
 t7_15_19
 t7_15_20
 t7_15_21
 t7_16_17
 t7_16_18
 t7_16_19
 t7_16_20
 t7_16_21
 t7_17_18
 t7_17_19
 t7_17_20
 t7_17_21
 t7_18_19
 t7_18_20
 t7_18_21
 t7_19_20
 t7_19_21
 t7_20_21
 t8_9_10
 t8_9_11
 t8_9_12
 t8_9_13
 t8_9_14
 t8_9_15
 t8_9_16
 t8_9_17
 t8_9_18
 t8_9_19
 t8_9_20
 t8_9_21
 t8_10_11
 t8_10_12
 t8_10_13
 t8_10_14
 t8_10_15
 t8_10_16
 t8_10_17
 t8_10_18
 t8_10_19
 t8_10_20
 t8_10_21
 t8_11_12
 t8_11_13
 t8_11_14
 t8_11_15
 t8_11_16
 t8_11_17
 t8_11_18
 t8_11_19
 t8_11_20
 t8_11_21
 t8_12_13
 t8_12_14
 t8_12_15
 t8_12_16
 t8_12_17
 t8_12_18
 t8_12_19
 t8_12_20
 t8_12_21
 t8_13_14
 t8_13_15
 t8_13_16
 t8_13_17
 t8_13_18
 t8_13_19
 t8_13_20
 t8_13_21
 t8_14_15
 t8_14_16
 t8_14_17
 t8_14_18
 t8_14_19
 t8_14_20
 t8_14_21
 t8_15_16
 t8_15_17
 t8_15_18
 t8_15_19
 t8_15_20
 t8_15_21
 t8_16_17
 t8_16_18
 t8_16_19
 t8_16_20
 t8_16_21
 t8_17_18
 t8_17_19
 t8_17_20
 t8_17_21
 t8_18_19
 t8_18_20
 t8_18_21
 t8_19_20
 t8_19_21
 t8_20_21
 t9_10_11
 t9_10_12
 t9_10_13
 t9_10_14
 t9_10_15
 t9_10_16
 t9_10_17
 t9_10_18
 t9_10_19
 t9_10_20
 t9_10_21
 t9_11_12
 t9_11_13
 t9_11_14
 t9_11_15
 t9_11_16
 t9_11_17
 t9_11_18
 t9_11_19
 t9_11_20
 t9_11_21
 t9_12_13
 t9_12_14
 t9_12_15
 t9_12_16
 t9_12_17
 t9_12_18
 t9_12_19
 t9_12_20
 t9_12_21
 t9_13_14
 t9_13_15
 t9_13_16
 t9_13_17
 t9_13_18
 t9_13_19
 t9_13_20
 t9_13_21
 t9_14_15
 t9_14_16
 t9_14_17
 t9_14_18
 t9_14_19
 t9_14_20
 t9_14_21
 t9_15_16
 t9_15_17
 t9_15_18
 t9_15_19
 t9_15_20
 t9_15_21
 t9_16_17
 t9_16_18
 t9_16_19
 t9_16_20
 t9_16_21
 t9_17_18
 t9_17_19
 t9_17_20
 t9_17_21
 t9_18_19
 t9_18_20
 t9_18_21
 t9_19_20
 t9_19_21
 t9_20_21
 t10_11_12
 t10_11_13
 t10_11_14
 t10_11_15
 t10_11_16
 t10_11_17
 t10_11_18
 t10_11_19
 t10_11_20
 t10_11_21
 t10_12_13
 t10_12_14
 t10_12_15
 t10_12_16
 t10_12_17
 t10_12_18
 t10_12_19
 t10_12_20
 t10_12_21
 t10_13_14
 t10_13_15
 t10_13_16
 t10_13_17
 t10_13_18
 t10_13_19
 t10_13_20
 t10_13_21
 t10_14_15
 t10_14_16
 t10_14_17
 t10_14_18
 t10_14_19
 t10_14_20
 t10_14_21
 t10_15_16
 t10_15_17
 t10_15_18
 t10_15_19
 t10_15_20
 t10_15_21
 t10_16_17
 t10_16_18
 t10_16_19
 t10_16_20
 t10_16_21
 t10_17_18
 t10_17_19
 t10_17_20
 t10_17_21
 t10_18_19
 t10_18_20
 t10_18_21
 t10_19_20
 t10_19_21
 t10_20_21
 t11_12_13
 t11_12_14
 t11_12_15
 t11_12_16
 t11_12_17
 t11_12_18
 t11_12_19
 t11_12_20
 t11_12_21
 t11_13_14
 t11_13_15
 t11_13_16
 t11_13_17
 t11_13_18
 t11_13_19
 t11_13_20
 t11_13_21
 t11_14_15
 t11_14_16
 t11_14_17
 t11_14_18
 t11_14_19
 t11_14_20
 t11_14_21
 t11_15_16
 t11_15_17
 t11_15_18
 t11_15_19
 t11_15_20
 t11_15_21
 t11_16_17
 t11_16_18
 t11_16_19
 t11_16_20
 t11_16_21
 t11_17_18
 t11_17_19
 t11_17_20
 t11_17_21
 t11_18_19
 t11_18_20
 t11_18_21
 t11_19_20
 t11_19_21
 t11_20_21
 t12_13_14
 t12_13_15
 t12_13_16
 t12_13_17
 t12_13_18
 t12_13_19
 t12_13_20
 t12_13_21
 t12_14_15
 t12_14_16
 t12_14_17
 t12_14_18
 t12_14_19
 t12_14_20
 t12_14_21
 t12_15_16
 t12_15_17
 t12_15_18
 t12_15_19
 t12_15_20
 t12_15_21
 t12_16_17
 t12_16_18
 t12_16_19
 t12_16_20
 t12_16_21
 t12_17_18
 t12_17_19
 t12_17_20
 t12_17_21
 t12_18_19
 t12_18_20
 t12_18_21
 t12_19_20
 t12_19_21
 t12_20_21
 t13_14_15
 t13_14_16
 t13_14_17
 t13_14_18
 t13_14_19
 t13_14_20
 t13_14_21
 t13_15_16
 t13_15_17
 t13_15_18
 t13_15_19
 t13_15_20
 t13_15_21
 t13_16_17
 t13_16_18
 t13_16_19
 t13_16_20
 t13_16_21
 t13_17_18
 t13_17_19
 t13_17_20
 t13_17_21
 t13_18_19
 t13_18_20
 t13_18_21
 t13_19_20
 t13_19_21
 t13_20_21
 t14_15_16
 t14_15_17
 t14_15_18
 t14_15_19
 t14_15_20
 t14_15_21
 t14_16_17
 t14_16_18
 t14_16_19
 t14_16_20
 t14_16_21
 t14_17_18
 t14_17_19
 t14_17_20
 t14_17_21
 t14_18_19
 t14_18_20
 t14_18_21
 t14_19_20
 t14_19_21
 t14_20_21
 t15_16_17
 t15_16_18
 t15_16_19
 t15_16_20
 t15_16_21
 t15_17_18
 t15_17_19
 t15_17_20
 t15_17_21
 t15_18_19
 t15_18_20
 t15_18_21
 t15_19_20
 t15_19_21
 t15_20_21
 t16_17_18
 t16_17_19
 t16_17_20
 t16_17_21
 t16_18_19
 t16_18_20
 t16_18_21
 t16_19_20
 t16_19_21
 t16_20_21
 t17_18_19
 t17_18_20
 t17_18_21
 t17_19_20
 t17_19_21
 t17_20_21
 t18_19_20
 t18_19_21
 t18_20_21
 t19_20_21


General
 d0
 d1
 d2
 d3
 d4
 d5
 d6
 d7
 d8
 d9
 d10
 d11
 d12
 d13
 d14
 d15
 d16
 d17
 d18
 d19
 d20
 d21
 T

End
