Minimize
 obj: 0

Subject To

tri1_0_1_2: t0_1_2 - x0_1 <= 0
tri2_0_1_2: t0_1_2 - x0_2 <= 0
tri3_0_1_2: t0_1_2 - x1_2 <= 0
tri4_0_1_2: t0_1_2 - x0_1 - x0_2 - x1_2 >= -2
tri1_0_1_3: t0_1_3 - x0_1 <= 0
tri2_0_1_3: t0_1_3 - x0_3 <= 0
tri3_0_1_3: t0_1_3 - x1_3 <= 0
tri4_0_1_3: t0_1_3 - x0_1 - x0_3 - x1_3 >= -2
tri1_0_1_4: t0_1_4 - x0_1 <= 0
tri2_0_1_4: t0_1_4 - x0_4 <= 0
tri3_0_1_4: t0_1_4 - x1_4 <= 0
tri4_0_1_4: t0_1_4 - x0_1 - x0_4 - x1_4 >= -2
tri1_0_1_5: t0_1_5 - x0_1 <= 0
tri2_0_1_5: t0_1_5 - x0_5 <= 0
tri3_0_1_5: t0_1_5 - x1_5 <= 0
tri4_0_1_5: t0_1_5 - x0_1 - x0_5 - x1_5 >= -2
tri1_0_1_6: t0_1_6 - x0_1 <= 0
tri2_0_1_6: t0_1_6 - x0_6 <= 0
tri3_0_1_6: t0_1_6 - x1_6 <= 0
tri4_0_1_6: t0_1_6 - x0_1 - x0_6 - x1_6 >= -2
tri1_0_2_3: t0_2_3 - x0_2 <= 0
tri2_0_2_3: t0_2_3 - x0_3 <= 0
tri3_0_2_3: t0_2_3 - x2_3 <= 0
tri4_0_2_3: t0_2_3 - x0_2 - x0_3 - x2_3 >= -2
tri1_0_2_4: t0_2_4 - x0_2 <= 0
tri2_0_2_4: t0_2_4 - x0_4 <= 0
tri3_0_2_4: t0_2_4 - x2_4 <= 0
tri4_0_2_4: t0_2_4 - x0_2 - x0_4 - x2_4 >= -2
tri1_0_2_5: t0_2_5 - x0_2 <= 0
tri2_0_2_5: t0_2_5 - x0_5 <= 0
tri3_0_2_5: t0_2_5 - x2_5 <= 0
tri4_0_2_5: t0_2_5 - x0_2 - x0_5 - x2_5 >= -2
tri1_0_2_6: t0_2_6 - x0_2 <= 0
tri2_0_2_6: t0_2_6 - x0_6 <= 0
tri3_0_2_6: t0_2_6 - x2_6 <= 0
tri4_0_2_6: t0_2_6 - x0_2 - x0_6 - x2_6 >= -2
tri1_0_3_4: t0_3_4 - x0_3 <= 0
tri2_0_3_4: t0_3_4 - x0_4 <= 0
tri3_0_3_4: t0_3_4 - x3_4 <= 0
tri4_0_3_4: t0_3_4 - x0_3 - x0_4 - x3_4 >= -2
tri1_0_3_5: t0_3_5 - x0_3 <= 0
tri2_0_3_5: t0_3_5 - x0_5 <= 0
tri3_0_3_5: t0_3_5 - x3_5 <= 0
tri4_0_3_5: t0_3_5 - x0_3 - x0_5 - x3_5 >= -2
tri1_0_3_6: t0_3_6 - x0_3 <= 0
tri2_0_3_6: t0_3_6 - x0_6 <= 0
tri3_0_3_6: t0_3_6 - x3_6 <= 0
tri4_0_3_6: t0_3_6 - x0_3 - x0_6 - x3_6 >= -2
tri1_0_4_5: t0_4_5 - x0_4 <= 0
tri2_0_4_5: t0_4_5 - x0_5 <= 0
tri3_0_4_5: t0_4_5 - x4_5 <= 0
tri4_0_4_5: t0_4_5 - x0_4 - x0_5 - x4_5 >= -2
tri1_0_4_6: t0_4_6 - x0_4 <= 0
tri2_0_4_6: t0_4_6 - x0_6 <= 0
tri3_0_4_6: t0_4_6 - x4_6 <= 0
tri4_0_4_6: t0_4_6 - x0_4 - x0_6 - x4_6 >= -2
tri1_0_5_6: t0_5_6 - x0_5 <= 0
tri2_0_5_6: t0_5_6 - x0_6 <= 0
tri3_0_5_6: t0_5_6 - x5_6 <= 0
tri4_0_5_6: t0_5_6 - x0_5 - x0_6 - x5_6 >= -2
tri1_1_2_3: t1_2_3 - x1_2 <= 0
tri2_1_2_3: t1_2_3 - x1_3 <= 0
tri3_1_2_3: t1_2_3 - x2_3 <= 0
tri4_1_2_3: t1_2_3 - x1_2 - x1_3 - x2_3 >= -2
tri1_1_2_4: t1_2_4 - x1_2 <= 0
tri2_1_2_4: t1_2_4 - x1_4 <= 0
tri3_1_2_4: t1_2_4 - x2_4 <= 0
tri4_1_2_4: t1_2_4 - x1_2 - x1_4 - x2_4 >= -2
tri1_1_2_5: t1_2_5 - x1_2 <= 0
tri2_1_2_5: t1_2_5 - x1_5 <= 0
tri3_1_2_5: t1_2_5 - x2_5 <= 0
tri4_1_2_5: t1_2_5 - x1_2 - x1_5 - x2_5 >= -2
tri1_1_2_6: t1_2_6 - x1_2 <= 0
tri2_1_2_6: t1_2_6 - x1_6 <= 0
tri3_1_2_6: t1_2_6 - x2_6 <= 0
tri4_1_2_6: t1_2_6 - x1_2 - x1_6 - x2_6 >= -2
tri1_1_3_4: t1_3_4 - x1_3 <= 0
tri2_1_3_4: t1_3_4 - x1_4 <= 0
tri3_1_3_4: t1_3_4 - x3_4 <= 0
tri4_1_3_4: t1_3_4 - x1_3 - x1_4 - x3_4 >= -2
tri1_1_3_5: t1_3_5 - x1_3 <= 0
tri2_1_3_5: t1_3_5 - x1_5 <= 0
tri3_1_3_5: t1_3_5 - x3_5 <= 0
tri4_1_3_5: t1_3_5 - x1_3 - x1_5 - x3_5 >= -2
tri1_1_3_6: t1_3_6 - x1_3 <= 0
tri2_1_3_6: t1_3_6 - x1_6 <= 0
tri3_1_3_6: t1_3_6 - x3_6 <= 0
tri4_1_3_6: t1_3_6 - x1_3 - x1_6 - x3_6 >= -2
tri1_1_4_5: t1_4_5 - x1_4 <= 0
tri2_1_4_5: t1_4_5 - x1_5 <= 0
tri3_1_4_5: t1_4_5 - x4_5 <= 0
tri4_1_4_5: t1_4_5 - x1_4 - x1_5 - x4_5 >= -2
tri1_1_4_6: t1_4_6 - x1_4 <= 0
tri2_1_4_6: t1_4_6 - x1_6 <= 0
tri3_1_4_6: t1_4_6 - x4_6 <= 0
tri4_1_4_6: t1_4_6 - x1_4 - x1_6 - x4_6 >= -2
tri1_1_5_6: t1_5_6 - x1_5 <= 0
tri2_1_5_6: t1_5_6 - x1_6 <= 0
tri3_1_5_6: t1_5_6 - x5_6 <= 0
tri4_1_5_6: t1_5_6 - x1_5 - x1_6 - x5_6 >= -2
tri1_2_3_4: t2_3_4 - x2_3 <= 0
tri2_2_3_4: t2_3_4 - x2_4 <= 0
tri3_2_3_4: t2_3_4 - x3_4 <= 0
tri4_2_3_4: t2_3_4 - x2_3 - x2_4 - x3_4 >= -2
tri1_2_3_5: t2_3_5 - x2_3 <= 0
tri2_2_3_5: t2_3_5 - x2_5 <= 0
tri3_2_3_5: t2_3_5 - x3_5 <= 0
tri4_2_3_5: t2_3_5 - x2_3 - x2_5 - x3_5 >= -2
tri1_2_3_6: t2_3_6 - x2_3 <= 0
tri2_2_3_6: t2_3_6 - x2_6 <= 0
tri3_2_3_6: t2_3_6 - x3_6 <= 0
tri4_2_3_6: t2_3_6 - x2_3 - x2_6 - x3_6 >= -2
tri1_2_4_5: t2_4_5 - x2_4 <= 0
tri2_2_4_5: t2_4_5 - x2_5 <= 0
tri3_2_4_5: t2_4_5 - x4_5 <= 0
tri4_2_4_5: t2_4_5 - x2_4 - x2_5 - x4_5 >= -2
tri1_2_4_6: t2_4_6 - x2_4 <= 0
tri2_2_4_6: t2_4_6 - x2_6 <= 0
tri3_2_4_6: t2_4_6 - x4_6 <= 0
tri4_2_4_6: t2_4_6 - x2_4 - x2_6 - x4_6 >= -2
tri1_2_5_6: t2_5_6 - x2_5 <= 0
tri2_2_5_6: t2_5_6 - x2_6 <= 0
tri3_2_5_6: t2_5_6 - x5_6 <= 0
tri4_2_5_6: t2_5_6 - x2_5 - x2_6 - x5_6 >= -2
tri1_3_4_5: t3_4_5 - x3_4 <= 0
tri2_3_4_5: t3_4_5 - x3_5 <= 0
tri3_3_4_5: t3_4_5 - x4_5 <= 0
tri4_3_4_5: t3_4_5 - x3_4 - x3_5 - x4_5 >= -2
tri1_3_4_6: t3_4_6 - x3_4 <= 0
tri2_3_4_6: t3_4_6 - x3_6 <= 0
tri3_3_4_6: t3_4_6 - x4_6 <= 0
tri4_3_4_6: t3_4_6 - x3_4 - x3_6 - x4_6 >= -2
tri1_3_5_6: t3_5_6 - x3_5 <= 0
tri2_3_5_6: t3_5_6 - x3_6 <= 0
tri3_3_5_6: t3_5_6 - x5_6 <= 0
tri4_3_5_6: t3_5_6 - x3_5 - x3_6 - x5_6 >= -2
tri1_4_5_6: t4_5_6 - x4_5 <= 0
tri2_4_5_6: t4_5_6 - x4_6 <= 0
tri3_4_5_6: t4_5_6 - x5_6 <= 0
tri4_4_5_6: t4_5_6 - x4_5 - x4_6 - x5_6 >= -2
k3deg0: d0 - t0_1_2 - t0_1_3 - t0_1_4 - t0_1_5 - t0_1_6 - t0_2_3 - t0_2_4 - t0_2_5 - t0_2_6 - t0_3_4 - t0_3_5 - t0_3_6 - t0_4_5 - t0_4_6 - t0_5_6 = 0
k3deg1: d1 - t0_1_2 - t0_1_3 - t0_1_4 - t0_1_5 - t0_1_6 - t1_2_3 - t1_2_4 - t1_2_5 - t1_2_6 - t1_3_4 - t1_3_5 - t1_3_6 - t1_4_5 - t1_4_6 - t1_5_6 = 0
k3deg2: d2 - t0_1_2 - t0_2_3 - t0_2_4 - t0_2_5 - t0_2_6 - t1_2_3 - t1_2_4 - t1_2_5 - t1_2_6 - t2_3_4 - t2_3_5 - t2_3_6 - t2_4_5 - t2_4_6 - t2_5_6 = 0
k3deg3: d3 - t0_1_3 - t0_2_3 - t0_3_4 - t0_3_5 - t0_3_6 - t1_2_3 - t1_3_4 - t1_3_5 - t1_3_6 - t2_3_4 - t2_3_5 - t2_3_6 - t3_4_5 - t3_4_6 - t3_5_6 = 0
k3deg4: d4 - t0_1_4 - t0_2_4 - t0_3_4 - t0_4_5 - t0_4_6 - t1_2_4 - t1_3_4 - t1_4_5 - t1_4_6 - t2_3_4 - t2_4_5 - t2_4_6 - t3_4_5 - t3_4_6 - t4_5_6 = 0
k3deg5: d5 - t0_1_5 - t0_2_5 - t0_3_5 - t0_4_5 - t0_5_6 - t1_2_5 - t1_3_5 - t1_4_5 - t1_5_6 - t2_3_5 - t2_4_5 - t2_5_6 - t3_4_5 - t3_5_6 - t4_5_6 = 0
k3deg6: d6 - t0_1_6 - t0_2_6 - t0_3_6 - t0_4_6 - t0_5_6 - t1_2_6 - t1_3_6 - t1_4_6 - t1_5_6 - t2_3_6 - t2_4_6 - t2_5_6 - t3_4_6 - t3_5_6 - t4_5_6 = 0

ord0: d0 - d1 <= -1
ord1: d1 - d2 <= -1
ord2: d2 - d3 <= -1
ord3: d3 - d4 <= -1
ord4: d4 - d5 <= -1
ord5: d5 - d6 <= -1
ord6: d6 - d7 <= -1


Binary
 x0_1  x0_2  x0_3  x0_4  x0_5  x0_6 
 x1_2  x1_3  x1_4  x1_5  x1_6 
 x2_3  x2_4  x2_5  x2_6 
 x3_4  x3_5  x3_6 
 x4_5  x4_6 
 x5_6 
 t0_1_2
 t0_1_3
 t0_1_4
 t0_1_5
 t0_1_6
 t0_2_3
 t0_2_4
 t0_2_5
 t0_2_6
 t0_3_4
 t0_3_5
 t0_3_6
 t0_4_5
 t0_4_6
 t0_5_6
 t1_2_3
 t1_2_4
 t1_2_5
 t1_2_6
 t1_3_4
 t1_3_5
 t1_3_6
 t1_4_5
 t1_4_6
 t1_5_6
 t2_3_4
 t2_3_5
 t2_3_6
 t2_4_5
 t2_4_6
 t2_5_6
 t3_4_5
 t3_4_6
 t3_5_6
 t4_5_6


General
 d0
 d1
 d2
 d3
 d4
 d5
 d6

End
