Minimize
 obj: 0

Subject To

deg0: x0_1 + x0_2 + x0_3 + x0_4 + x0_5 + x0_6 + x0_7 + x0_8 + x0_9 + x0_10 + x0_11 + x0_12 + x0_13 + x0_14 + x0_15 + x0_16 = 8
deg1: x0_1 + x1_2 + x1_3 + x1_4 + x1_5 + x1_6 + x1_7 + x1_8 + x1_9 + x1_10 + x1_11 + x1_12 + x1_13 + x1_14 + x1_15 + x1_16 = 8
deg2: x0_2 + x1_2 + x2_3 + x2_4 + x2_5 + x2_6 + x2_7 + x2_8 + x2_9 + x2_10 + x2_11 + x2_12 + x2_13 + x2_14 + x2_15 + x2_16 = 8
deg3: x0_3 + x1_3 + x2_3 + x3_4 + x3_5 + x3_6 + x3_7 + x3_8 + x3_9 + x3_10 + x3_11 + x3_12 + x3_13 + x3_14 + x3_15 + x3_16 = 8
deg4: x0_4 + x1_4 + x2_4 + x3_4 + x4_5 + x4_6 + x4_7 + x4_8 + x4_9 + x4_10 + x4_11 + x4_12 + x4_13 + x4_14 + x4_15 + x4_16 = 8
deg5: x0_5 + x1_5 + x2_5 + x3_5 + x4_5 + x5_6 + x5_7 + x5_8 + x5_9 + x5_10 + x5_11 + x5_12 + x5_13 + x5_14 + x5_15 + x5_16 = 8
deg6: x0_6 + x1_6 + x2_6 + x3_6 + x4_6 + x5_6 + x6_7 + x6_8 + x6_9 + x6_10 + x6_11 + x6_12 + x6_13 + x6_14 + x6_15 + x6_16 = 8
deg7: x0_7 + x1_7 + x2_7 + x3_7 + x4_7 + x5_7 + x6_7 + x7_8 + x7_9 + x7_10 + x7_11 + x7_12 + x7_13 + x7_14 + x7_15 + x7_16 = 8
deg8: x0_8 + x1_8 + x2_8 + x3_8 + x4_8 + x5_8 + x6_8 + x7_8 + x8_9 + x8_10 + x8_11 + x8_12 + x8_13 + x8_14 + x8_15 + x8_16 = 8
deg9: x0_9 + x1_9 + x2_9 + x3_9 + x4_9 + x5_9 + x6_9 + x7_9 + x8_9 + x9_10 + x9_11 + x9_12 + x9_13 + x9_14 + x9_15 + x9_16 = 8
deg10: x0_10 + x1_10 + x2_10 + x3_10 + x4_10 + x5_10 + x6_10 + x7_10 + x8_10 + x9_10 + x10_11 + x10_12 + x10_13 + x10_14 + x10_15 + x10_16 = 8
deg11: x0_11 + x1_11 + x2_11 + x3_11 + x4_11 + x5_11 + x6_11 + x7_11 + x8_11 + x9_11 + x10_11 + x11_12 + x11_13 + x11_14 + x11_15 + x11_16 = 8
deg12: x0_12 + x1_12 + x2_12 + x3_12 + x4_12 + x5_12 + x6_12 + x7_12 + x8_12 + x9_12 + x10_12 + x11_12 + x12_13 + x12_14 + x12_15 + x12_16 = 8
deg13: x0_13 + x1_13 + x2_13 + x3_13 + x4_13 + x5_13 + x6_13 + x7_13 + x8_13 + x9_13 + x10_13 + x11_13 + x12_13 + x13_14 + x13_15 + x13_16 = 8
deg14: x0_14 + x1_14 + x2_14 + x3_14 + x4_14 + x5_14 + x6_14 + x7_14 + x8_14 + x9_14 + x10_14 + x11_14 + x12_14 + x13_14 + x14_15 + x14_16 = 8
deg15: x0_15 + x1_15 + x2_15 + x3_15 + x4_15 + x5_15 + x6_15 + x7_15 + x8_15 + x9_15 + x10_15 + x11_15 + x12_15 + x13_15 + x14_15 + x15_16 = 8
deg16: x0_16 + x1_16 + x2_16 + x3_16 + x4_16 + x5_16 + x6_16 + x7_16 + x8_16 + x9_16 + x10_16 + x11_16 + x12_16 + x13_16 + x14_16 + x15_16 = 8
tri1_0_1_2: t0_1_2 - x0_1 <= 0
tri2_0_1_2: t0_1_2 - x0_2 <= 0
tri3_0_1_2: t0_1_2 - x1_2 <= 0
tri4_0_1_2: t0_1_2 - x0_1 - x0_2 - x1_2 >= -2
tri1_0_1_3: t0_1_3 - x0_1 <= 0
tri2_0_1_3: t0_1_3 - x0_3 <= 0
tri3_0_1_3: t0_1_3 - x1_3 <= 0
tri4_0_1_3: t0_1_3 - x0_1 - x0_3 - x1_3 >= -2
tri1_0_1_4: t0_1_4 - x0_1 <= 0
tri2_0_1_4: t0_1_4 - x0_4 <= 0
tri3_0_1_4: t0_1_4 - x1_4 <= 0
tri4_0_1_4: t0_1_4 - x0_1 - x0_4 - x1_4 >= -2
tri1_0_1_5: t0_1_5 - x0_1 <= 0
tri2_0_1_5: t0_1_5 - x0_5 <= 0
tri3_0_1_5: t0_1_5 - x1_5 <= 0
tri4_0_1_5: t0_1_5 - x0_1 - x0_5 - x1_5 >= -2
tri1_0_1_6: t0_1_6 - x0_1 <= 0
tri2_0_1_6: t0_1_6 - x0_6 <= 0
tri3_0_1_6: t0_1_6 - x1_6 <= 0
tri4_0_1_6: t0_1_6 - x0_1 - x0_6 - x1_6 >= -2
tri1_0_1_7: t0_1_7 - x0_1 <= 0
tri2_0_1_7: t0_1_7 - x0_7 <= 0
tri3_0_1_7: t0_1_7 - x1_7 <= 0
tri4_0_1_7: t0_1_7 - x0_1 - x0_7 - x1_7 >= -2
tri1_0_1_8: t0_1_8 - x0_1 <= 0
tri2_0_1_8: t0_1_8 - x0_8 <= 0
tri3_0_1_8: t0_1_8 - x1_8 <= 0
tri4_0_1_8: t0_1_8 - x0_1 - x0_8 - x1_8 >= -2
tri1_0_1_9: t0_1_9 - x0_1 <= 0
tri2_0_1_9: t0_1_9 - x0_9 <= 0
tri3_0_1_9: t0_1_9 - x1_9 <= 0
tri4_0_1_9: t0_1_9 - x0_1 - x0_9 - x1_9 >= -2
tri1_0_1_10: t0_1_10 - x0_1 <= 0
tri2_0_1_10: t0_1_10 - x0_10 <= 0
tri3_0_1_10: t0_1_10 - x1_10 <= 0
tri4_0_1_10: t0_1_10 - x0_1 - x0_10 - x1_10 >= -2
tri1_0_1_11: t0_1_11 - x0_1 <= 0
tri2_0_1_11: t0_1_11 - x0_11 <= 0
tri3_0_1_11: t0_1_11 - x1_11 <= 0
tri4_0_1_11: t0_1_11 - x0_1 - x0_11 - x1_11 >= -2
tri1_0_1_12: t0_1_12 - x0_1 <= 0
tri2_0_1_12: t0_1_12 - x0_12 <= 0
tri3_0_1_12: t0_1_12 - x1_12 <= 0
tri4_0_1_12: t0_1_12 - x0_1 - x0_12 - x1_12 >= -2
tri1_0_1_13: t0_1_13 - x0_1 <= 0
tri2_0_1_13: t0_1_13 - x0_13 <= 0
tri3_0_1_13: t0_1_13 - x1_13 <= 0
tri4_0_1_13: t0_1_13 - x0_1 - x0_13 - x1_13 >= -2
tri1_0_1_14: t0_1_14 - x0_1 <= 0
tri2_0_1_14: t0_1_14 - x0_14 <= 0
tri3_0_1_14: t0_1_14 - x1_14 <= 0
tri4_0_1_14: t0_1_14 - x0_1 - x0_14 - x1_14 >= -2
tri1_0_1_15: t0_1_15 - x0_1 <= 0
tri2_0_1_15: t0_1_15 - x0_15 <= 0
tri3_0_1_15: t0_1_15 - x1_15 <= 0
tri4_0_1_15: t0_1_15 - x0_1 - x0_15 - x1_15 >= -2
tri1_0_1_16: t0_1_16 - x0_1 <= 0
tri2_0_1_16: t0_1_16 - x0_16 <= 0
tri3_0_1_16: t0_1_16 - x1_16 <= 0
tri4_0_1_16: t0_1_16 - x0_1 - x0_16 - x1_16 >= -2
tri1_0_2_3: t0_2_3 - x0_2 <= 0
tri2_0_2_3: t0_2_3 - x0_3 <= 0
tri3_0_2_3: t0_2_3 - x2_3 <= 0
tri4_0_2_3: t0_2_3 - x0_2 - x0_3 - x2_3 >= -2
tri1_0_2_4: t0_2_4 - x0_2 <= 0
tri2_0_2_4: t0_2_4 - x0_4 <= 0
tri3_0_2_4: t0_2_4 - x2_4 <= 0
tri4_0_2_4: t0_2_4 - x0_2 - x0_4 - x2_4 >= -2
tri1_0_2_5: t0_2_5 - x0_2 <= 0
tri2_0_2_5: t0_2_5 - x0_5 <= 0
tri3_0_2_5: t0_2_5 - x2_5 <= 0
tri4_0_2_5: t0_2_5 - x0_2 - x0_5 - x2_5 >= -2
tri1_0_2_6: t0_2_6 - x0_2 <= 0
tri2_0_2_6: t0_2_6 - x0_6 <= 0
tri3_0_2_6: t0_2_6 - x2_6 <= 0
tri4_0_2_6: t0_2_6 - x0_2 - x0_6 - x2_6 >= -2
tri1_0_2_7: t0_2_7 - x0_2 <= 0
tri2_0_2_7: t0_2_7 - x0_7 <= 0
tri3_0_2_7: t0_2_7 - x2_7 <= 0
tri4_0_2_7: t0_2_7 - x0_2 - x0_7 - x2_7 >= -2
tri1_0_2_8: t0_2_8 - x0_2 <= 0
tri2_0_2_8: t0_2_8 - x0_8 <= 0
tri3_0_2_8: t0_2_8 - x2_8 <= 0
tri4_0_2_8: t0_2_8 - x0_2 - x0_8 - x2_8 >= -2
tri1_0_2_9: t0_2_9 - x0_2 <= 0
tri2_0_2_9: t0_2_9 - x0_9 <= 0
tri3_0_2_9: t0_2_9 - x2_9 <= 0
tri4_0_2_9: t0_2_9 - x0_2 - x0_9 - x2_9 >= -2
tri1_0_2_10: t0_2_10 - x0_2 <= 0
tri2_0_2_10: t0_2_10 - x0_10 <= 0
tri3_0_2_10: t0_2_10 - x2_10 <= 0
tri4_0_2_10: t0_2_10 - x0_2 - x0_10 - x2_10 >= -2
tri1_0_2_11: t0_2_11 - x0_2 <= 0
tri2_0_2_11: t0_2_11 - x0_11 <= 0
tri3_0_2_11: t0_2_11 - x2_11 <= 0
tri4_0_2_11: t0_2_11 - x0_2 - x0_11 - x2_11 >= -2
tri1_0_2_12: t0_2_12 - x0_2 <= 0
tri2_0_2_12: t0_2_12 - x0_12 <= 0
tri3_0_2_12: t0_2_12 - x2_12 <= 0
tri4_0_2_12: t0_2_12 - x0_2 - x0_12 - x2_12 >= -2
tri1_0_2_13: t0_2_13 - x0_2 <= 0
tri2_0_2_13: t0_2_13 - x0_13 <= 0
tri3_0_2_13: t0_2_13 - x2_13 <= 0
tri4_0_2_13: t0_2_13 - x0_2 - x0_13 - x2_13 >= -2
tri1_0_2_14: t0_2_14 - x0_2 <= 0
tri2_0_2_14: t0_2_14 - x0_14 <= 0
tri3_0_2_14: t0_2_14 - x2_14 <= 0
tri4_0_2_14: t0_2_14 - x0_2 - x0_14 - x2_14 >= -2
tri1_0_2_15: t0_2_15 - x0_2 <= 0
tri2_0_2_15: t0_2_15 - x0_15 <= 0
tri3_0_2_15: t0_2_15 - x2_15 <= 0
tri4_0_2_15: t0_2_15 - x0_2 - x0_15 - x2_15 >= -2
tri1_0_2_16: t0_2_16 - x0_2 <= 0
tri2_0_2_16: t0_2_16 - x0_16 <= 0
tri3_0_2_16: t0_2_16 - x2_16 <= 0
tri4_0_2_16: t0_2_16 - x0_2 - x0_16 - x2_16 >= -2
tri1_0_3_4: t0_3_4 - x0_3 <= 0
tri2_0_3_4: t0_3_4 - x0_4 <= 0
tri3_0_3_4: t0_3_4 - x3_4 <= 0
tri4_0_3_4: t0_3_4 - x0_3 - x0_4 - x3_4 >= -2
tri1_0_3_5: t0_3_5 - x0_3 <= 0
tri2_0_3_5: t0_3_5 - x0_5 <= 0
tri3_0_3_5: t0_3_5 - x3_5 <= 0
tri4_0_3_5: t0_3_5 - x0_3 - x0_5 - x3_5 >= -2
tri1_0_3_6: t0_3_6 - x0_3 <= 0
tri2_0_3_6: t0_3_6 - x0_6 <= 0
tri3_0_3_6: t0_3_6 - x3_6 <= 0
tri4_0_3_6: t0_3_6 - x0_3 - x0_6 - x3_6 >= -2
tri1_0_3_7: t0_3_7 - x0_3 <= 0
tri2_0_3_7: t0_3_7 - x0_7 <= 0
tri3_0_3_7: t0_3_7 - x3_7 <= 0
tri4_0_3_7: t0_3_7 - x0_3 - x0_7 - x3_7 >= -2
tri1_0_3_8: t0_3_8 - x0_3 <= 0
tri2_0_3_8: t0_3_8 - x0_8 <= 0
tri3_0_3_8: t0_3_8 - x3_8 <= 0
tri4_0_3_8: t0_3_8 - x0_3 - x0_8 - x3_8 >= -2
tri1_0_3_9: t0_3_9 - x0_3 <= 0
tri2_0_3_9: t0_3_9 - x0_9 <= 0
tri3_0_3_9: t0_3_9 - x3_9 <= 0
tri4_0_3_9: t0_3_9 - x0_3 - x0_9 - x3_9 >= -2
tri1_0_3_10: t0_3_10 - x0_3 <= 0
tri2_0_3_10: t0_3_10 - x0_10 <= 0
tri3_0_3_10: t0_3_10 - x3_10 <= 0
tri4_0_3_10: t0_3_10 - x0_3 - x0_10 - x3_10 >= -2
tri1_0_3_11: t0_3_11 - x0_3 <= 0
tri2_0_3_11: t0_3_11 - x0_11 <= 0
tri3_0_3_11: t0_3_11 - x3_11 <= 0
tri4_0_3_11: t0_3_11 - x0_3 - x0_11 - x3_11 >= -2
tri1_0_3_12: t0_3_12 - x0_3 <= 0
tri2_0_3_12: t0_3_12 - x0_12 <= 0
tri3_0_3_12: t0_3_12 - x3_12 <= 0
tri4_0_3_12: t0_3_12 - x0_3 - x0_12 - x3_12 >= -2
tri1_0_3_13: t0_3_13 - x0_3 <= 0
tri2_0_3_13: t0_3_13 - x0_13 <= 0
tri3_0_3_13: t0_3_13 - x3_13 <= 0
tri4_0_3_13: t0_3_13 - x0_3 - x0_13 - x3_13 >= -2
tri1_0_3_14: t0_3_14 - x0_3 <= 0
tri2_0_3_14: t0_3_14 - x0_14 <= 0
tri3_0_3_14: t0_3_14 - x3_14 <= 0
tri4_0_3_14: t0_3_14 - x0_3 - x0_14 - x3_14 >= -2
tri1_0_3_15: t0_3_15 - x0_3 <= 0
tri2_0_3_15: t0_3_15 - x0_15 <= 0
tri3_0_3_15: t0_3_15 - x3_15 <= 0
tri4_0_3_15: t0_3_15 - x0_3 - x0_15 - x3_15 >= -2
tri1_0_3_16: t0_3_16 - x0_3 <= 0
tri2_0_3_16: t0_3_16 - x0_16 <= 0
tri3_0_3_16: t0_3_16 - x3_16 <= 0
tri4_0_3_16: t0_3_16 - x0_3 - x0_16 - x3_16 >= -2
tri1_0_4_5: t0_4_5 - x0_4 <= 0
tri2_0_4_5: t0_4_5 - x0_5 <= 0
tri3_0_4_5: t0_4_5 - x4_5 <= 0
tri4_0_4_5: t0_4_5 - x0_4 - x0_5 - x4_5 >= -2
tri1_0_4_6: t0_4_6 - x0_4 <= 0
tri2_0_4_6: t0_4_6 - x0_6 <= 0
tri3_0_4_6: t0_4_6 - x4_6 <= 0
tri4_0_4_6: t0_4_6 - x0_4 - x0_6 - x4_6 >= -2
tri1_0_4_7: t0_4_7 - x0_4 <= 0
tri2_0_4_7: t0_4_7 - x0_7 <= 0
tri3_0_4_7: t0_4_7 - x4_7 <= 0
tri4_0_4_7: t0_4_7 - x0_4 - x0_7 - x4_7 >= -2
tri1_0_4_8: t0_4_8 - x0_4 <= 0
tri2_0_4_8: t0_4_8 - x0_8 <= 0
tri3_0_4_8: t0_4_8 - x4_8 <= 0
tri4_0_4_8: t0_4_8 - x0_4 - x0_8 - x4_8 >= -2
tri1_0_4_9: t0_4_9 - x0_4 <= 0
tri2_0_4_9: t0_4_9 - x0_9 <= 0
tri3_0_4_9: t0_4_9 - x4_9 <= 0
tri4_0_4_9: t0_4_9 - x0_4 - x0_9 - x4_9 >= -2
tri1_0_4_10: t0_4_10 - x0_4 <= 0
tri2_0_4_10: t0_4_10 - x0_10 <= 0
tri3_0_4_10: t0_4_10 - x4_10 <= 0
tri4_0_4_10: t0_4_10 - x0_4 - x0_10 - x4_10 >= -2
tri1_0_4_11: t0_4_11 - x0_4 <= 0
tri2_0_4_11: t0_4_11 - x0_11 <= 0
tri3_0_4_11: t0_4_11 - x4_11 <= 0
tri4_0_4_11: t0_4_11 - x0_4 - x0_11 - x4_11 >= -2
tri1_0_4_12: t0_4_12 - x0_4 <= 0
tri2_0_4_12: t0_4_12 - x0_12 <= 0
tri3_0_4_12: t0_4_12 - x4_12 <= 0
tri4_0_4_12: t0_4_12 - x0_4 - x0_12 - x4_12 >= -2
tri1_0_4_13: t0_4_13 - x0_4 <= 0
tri2_0_4_13: t0_4_13 - x0_13 <= 0
tri3_0_4_13: t0_4_13 - x4_13 <= 0
tri4_0_4_13: t0_4_13 - x0_4 - x0_13 - x4_13 >= -2
tri1_0_4_14: t0_4_14 - x0_4 <= 0
tri2_0_4_14: t0_4_14 - x0_14 <= 0
tri3_0_4_14: t0_4_14 - x4_14 <= 0
tri4_0_4_14: t0_4_14 - x0_4 - x0_14 - x4_14 >= -2
tri1_0_4_15: t0_4_15 - x0_4 <= 0
tri2_0_4_15: t0_4_15 - x0_15 <= 0
tri3_0_4_15: t0_4_15 - x4_15 <= 0
tri4_0_4_15: t0_4_15 - x0_4 - x0_15 - x4_15 >= -2
tri1_0_4_16: t0_4_16 - x0_4 <= 0
tri2_0_4_16: t0_4_16 - x0_16 <= 0
tri3_0_4_16: t0_4_16 - x4_16 <= 0
tri4_0_4_16: t0_4_16 - x0_4 - x0_16 - x4_16 >= -2
tri1_0_5_6: t0_5_6 - x0_5 <= 0
tri2_0_5_6: t0_5_6 - x0_6 <= 0
tri3_0_5_6: t0_5_6 - x5_6 <= 0
tri4_0_5_6: t0_5_6 - x0_5 - x0_6 - x5_6 >= -2
tri1_0_5_7: t0_5_7 - x0_5 <= 0
tri2_0_5_7: t0_5_7 - x0_7 <= 0
tri3_0_5_7: t0_5_7 - x5_7 <= 0
tri4_0_5_7: t0_5_7 - x0_5 - x0_7 - x5_7 >= -2
tri1_0_5_8: t0_5_8 - x0_5 <= 0
tri2_0_5_8: t0_5_8 - x0_8 <= 0
tri3_0_5_8: t0_5_8 - x5_8 <= 0
tri4_0_5_8: t0_5_8 - x0_5 - x0_8 - x5_8 >= -2
tri1_0_5_9: t0_5_9 - x0_5 <= 0
tri2_0_5_9: t0_5_9 - x0_9 <= 0
tri3_0_5_9: t0_5_9 - x5_9 <= 0
tri4_0_5_9: t0_5_9 - x0_5 - x0_9 - x5_9 >= -2
tri1_0_5_10: t0_5_10 - x0_5 <= 0
tri2_0_5_10: t0_5_10 - x0_10 <= 0
tri3_0_5_10: t0_5_10 - x5_10 <= 0
tri4_0_5_10: t0_5_10 - x0_5 - x0_10 - x5_10 >= -2
tri1_0_5_11: t0_5_11 - x0_5 <= 0
tri2_0_5_11: t0_5_11 - x0_11 <= 0
tri3_0_5_11: t0_5_11 - x5_11 <= 0
tri4_0_5_11: t0_5_11 - x0_5 - x0_11 - x5_11 >= -2
tri1_0_5_12: t0_5_12 - x0_5 <= 0
tri2_0_5_12: t0_5_12 - x0_12 <= 0
tri3_0_5_12: t0_5_12 - x5_12 <= 0
tri4_0_5_12: t0_5_12 - x0_5 - x0_12 - x5_12 >= -2
tri1_0_5_13: t0_5_13 - x0_5 <= 0
tri2_0_5_13: t0_5_13 - x0_13 <= 0
tri3_0_5_13: t0_5_13 - x5_13 <= 0
tri4_0_5_13: t0_5_13 - x0_5 - x0_13 - x5_13 >= -2
tri1_0_5_14: t0_5_14 - x0_5 <= 0
tri2_0_5_14: t0_5_14 - x0_14 <= 0
tri3_0_5_14: t0_5_14 - x5_14 <= 0
tri4_0_5_14: t0_5_14 - x0_5 - x0_14 - x5_14 >= -2
tri1_0_5_15: t0_5_15 - x0_5 <= 0
tri2_0_5_15: t0_5_15 - x0_15 <= 0
tri3_0_5_15: t0_5_15 - x5_15 <= 0
tri4_0_5_15: t0_5_15 - x0_5 - x0_15 - x5_15 >= -2
tri1_0_5_16: t0_5_16 - x0_5 <= 0
tri2_0_5_16: t0_5_16 - x0_16 <= 0
tri3_0_5_16: t0_5_16 - x5_16 <= 0
tri4_0_5_16: t0_5_16 - x0_5 - x0_16 - x5_16 >= -2
tri1_0_6_7: t0_6_7 - x0_6 <= 0
tri2_0_6_7: t0_6_7 - x0_7 <= 0
tri3_0_6_7: t0_6_7 - x6_7 <= 0
tri4_0_6_7: t0_6_7 - x0_6 - x0_7 - x6_7 >= -2
tri1_0_6_8: t0_6_8 - x0_6 <= 0
tri2_0_6_8: t0_6_8 - x0_8 <= 0
tri3_0_6_8: t0_6_8 - x6_8 <= 0
tri4_0_6_8: t0_6_8 - x0_6 - x0_8 - x6_8 >= -2
tri1_0_6_9: t0_6_9 - x0_6 <= 0
tri2_0_6_9: t0_6_9 - x0_9 <= 0
tri3_0_6_9: t0_6_9 - x6_9 <= 0
tri4_0_6_9: t0_6_9 - x0_6 - x0_9 - x6_9 >= -2
tri1_0_6_10: t0_6_10 - x0_6 <= 0
tri2_0_6_10: t0_6_10 - x0_10 <= 0
tri3_0_6_10: t0_6_10 - x6_10 <= 0
tri4_0_6_10: t0_6_10 - x0_6 - x0_10 - x6_10 >= -2
tri1_0_6_11: t0_6_11 - x0_6 <= 0
tri2_0_6_11: t0_6_11 - x0_11 <= 0
tri3_0_6_11: t0_6_11 - x6_11 <= 0
tri4_0_6_11: t0_6_11 - x0_6 - x0_11 - x6_11 >= -2
tri1_0_6_12: t0_6_12 - x0_6 <= 0
tri2_0_6_12: t0_6_12 - x0_12 <= 0
tri3_0_6_12: t0_6_12 - x6_12 <= 0
tri4_0_6_12: t0_6_12 - x0_6 - x0_12 - x6_12 >= -2
tri1_0_6_13: t0_6_13 - x0_6 <= 0
tri2_0_6_13: t0_6_13 - x0_13 <= 0
tri3_0_6_13: t0_6_13 - x6_13 <= 0
tri4_0_6_13: t0_6_13 - x0_6 - x0_13 - x6_13 >= -2
tri1_0_6_14: t0_6_14 - x0_6 <= 0
tri2_0_6_14: t0_6_14 - x0_14 <= 0
tri3_0_6_14: t0_6_14 - x6_14 <= 0
tri4_0_6_14: t0_6_14 - x0_6 - x0_14 - x6_14 >= -2
tri1_0_6_15: t0_6_15 - x0_6 <= 0
tri2_0_6_15: t0_6_15 - x0_15 <= 0
tri3_0_6_15: t0_6_15 - x6_15 <= 0
tri4_0_6_15: t0_6_15 - x0_6 - x0_15 - x6_15 >= -2
tri1_0_6_16: t0_6_16 - x0_6 <= 0
tri2_0_6_16: t0_6_16 - x0_16 <= 0
tri3_0_6_16: t0_6_16 - x6_16 <= 0
tri4_0_6_16: t0_6_16 - x0_6 - x0_16 - x6_16 >= -2
tri1_0_7_8: t0_7_8 - x0_7 <= 0
tri2_0_7_8: t0_7_8 - x0_8 <= 0
tri3_0_7_8: t0_7_8 - x7_8 <= 0
tri4_0_7_8: t0_7_8 - x0_7 - x0_8 - x7_8 >= -2
tri1_0_7_9: t0_7_9 - x0_7 <= 0
tri2_0_7_9: t0_7_9 - x0_9 <= 0
tri3_0_7_9: t0_7_9 - x7_9 <= 0
tri4_0_7_9: t0_7_9 - x0_7 - x0_9 - x7_9 >= -2
tri1_0_7_10: t0_7_10 - x0_7 <= 0
tri2_0_7_10: t0_7_10 - x0_10 <= 0
tri3_0_7_10: t0_7_10 - x7_10 <= 0
tri4_0_7_10: t0_7_10 - x0_7 - x0_10 - x7_10 >= -2
tri1_0_7_11: t0_7_11 - x0_7 <= 0
tri2_0_7_11: t0_7_11 - x0_11 <= 0
tri3_0_7_11: t0_7_11 - x7_11 <= 0
tri4_0_7_11: t0_7_11 - x0_7 - x0_11 - x7_11 >= -2
tri1_0_7_12: t0_7_12 - x0_7 <= 0
tri2_0_7_12: t0_7_12 - x0_12 <= 0
tri3_0_7_12: t0_7_12 - x7_12 <= 0
tri4_0_7_12: t0_7_12 - x0_7 - x0_12 - x7_12 >= -2
tri1_0_7_13: t0_7_13 - x0_7 <= 0
tri2_0_7_13: t0_7_13 - x0_13 <= 0
tri3_0_7_13: t0_7_13 - x7_13 <= 0
tri4_0_7_13: t0_7_13 - x0_7 - x0_13 - x7_13 >= -2
tri1_0_7_14: t0_7_14 - x0_7 <= 0
tri2_0_7_14: t0_7_14 - x0_14 <= 0
tri3_0_7_14: t0_7_14 - x7_14 <= 0
tri4_0_7_14: t0_7_14 - x0_7 - x0_14 - x7_14 >= -2
tri1_0_7_15: t0_7_15 - x0_7 <= 0
tri2_0_7_15: t0_7_15 - x0_15 <= 0
tri3_0_7_15: t0_7_15 - x7_15 <= 0
tri4_0_7_15: t0_7_15 - x0_7 - x0_15 - x7_15 >= -2
tri1_0_7_16: t0_7_16 - x0_7 <= 0
tri2_0_7_16: t0_7_16 - x0_16 <= 0
tri3_0_7_16: t0_7_16 - x7_16 <= 0
tri4_0_7_16: t0_7_16 - x0_7 - x0_16 - x7_16 >= -2
tri1_0_8_9: t0_8_9 - x0_8 <= 0
tri2_0_8_9: t0_8_9 - x0_9 <= 0
tri3_0_8_9: t0_8_9 - x8_9 <= 0
tri4_0_8_9: t0_8_9 - x0_8 - x0_9 - x8_9 >= -2
tri1_0_8_10: t0_8_10 - x0_8 <= 0
tri2_0_8_10: t0_8_10 - x0_10 <= 0
tri3_0_8_10: t0_8_10 - x8_10 <= 0
tri4_0_8_10: t0_8_10 - x0_8 - x0_10 - x8_10 >= -2
tri1_0_8_11: t0_8_11 - x0_8 <= 0
tri2_0_8_11: t0_8_11 - x0_11 <= 0
tri3_0_8_11: t0_8_11 - x8_11 <= 0
tri4_0_8_11: t0_8_11 - x0_8 - x0_11 - x8_11 >= -2
tri1_0_8_12: t0_8_12 - x0_8 <= 0
tri2_0_8_12: t0_8_12 - x0_12 <= 0
tri3_0_8_12: t0_8_12 - x8_12 <= 0
tri4_0_8_12: t0_8_12 - x0_8 - x0_12 - x8_12 >= -2
tri1_0_8_13: t0_8_13 - x0_8 <= 0
tri2_0_8_13: t0_8_13 - x0_13 <= 0
tri3_0_8_13: t0_8_13 - x8_13 <= 0
tri4_0_8_13: t0_8_13 - x0_8 - x0_13 - x8_13 >= -2
tri1_0_8_14: t0_8_14 - x0_8 <= 0
tri2_0_8_14: t0_8_14 - x0_14 <= 0
tri3_0_8_14: t0_8_14 - x8_14 <= 0
tri4_0_8_14: t0_8_14 - x0_8 - x0_14 - x8_14 >= -2
tri1_0_8_15: t0_8_15 - x0_8 <= 0
tri2_0_8_15: t0_8_15 - x0_15 <= 0
tri3_0_8_15: t0_8_15 - x8_15 <= 0
tri4_0_8_15: t0_8_15 - x0_8 - x0_15 - x8_15 >= -2
tri1_0_8_16: t0_8_16 - x0_8 <= 0
tri2_0_8_16: t0_8_16 - x0_16 <= 0
tri3_0_8_16: t0_8_16 - x8_16 <= 0
tri4_0_8_16: t0_8_16 - x0_8 - x0_16 - x8_16 >= -2
tri1_0_9_10: t0_9_10 - x0_9 <= 0
tri2_0_9_10: t0_9_10 - x0_10 <= 0
tri3_0_9_10: t0_9_10 - x9_10 <= 0
tri4_0_9_10: t0_9_10 - x0_9 - x0_10 - x9_10 >= -2
tri1_0_9_11: t0_9_11 - x0_9 <= 0
tri2_0_9_11: t0_9_11 - x0_11 <= 0
tri3_0_9_11: t0_9_11 - x9_11 <= 0
tri4_0_9_11: t0_9_11 - x0_9 - x0_11 - x9_11 >= -2
tri1_0_9_12: t0_9_12 - x0_9 <= 0
tri2_0_9_12: t0_9_12 - x0_12 <= 0
tri3_0_9_12: t0_9_12 - x9_12 <= 0
tri4_0_9_12: t0_9_12 - x0_9 - x0_12 - x9_12 >= -2
tri1_0_9_13: t0_9_13 - x0_9 <= 0
tri2_0_9_13: t0_9_13 - x0_13 <= 0
tri3_0_9_13: t0_9_13 - x9_13 <= 0
tri4_0_9_13: t0_9_13 - x0_9 - x0_13 - x9_13 >= -2
tri1_0_9_14: t0_9_14 - x0_9 <= 0
tri2_0_9_14: t0_9_14 - x0_14 <= 0
tri3_0_9_14: t0_9_14 - x9_14 <= 0
tri4_0_9_14: t0_9_14 - x0_9 - x0_14 - x9_14 >= -2
tri1_0_9_15: t0_9_15 - x0_9 <= 0
tri2_0_9_15: t0_9_15 - x0_15 <= 0
tri3_0_9_15: t0_9_15 - x9_15 <= 0
tri4_0_9_15: t0_9_15 - x0_9 - x0_15 - x9_15 >= -2
tri1_0_9_16: t0_9_16 - x0_9 <= 0
tri2_0_9_16: t0_9_16 - x0_16 <= 0
tri3_0_9_16: t0_9_16 - x9_16 <= 0
tri4_0_9_16: t0_9_16 - x0_9 - x0_16 - x9_16 >= -2
tri1_0_10_11: t0_10_11 - x0_10 <= 0
tri2_0_10_11: t0_10_11 - x0_11 <= 0
tri3_0_10_11: t0_10_11 - x10_11 <= 0
tri4_0_10_11: t0_10_11 - x0_10 - x0_11 - x10_11 >= -2
tri1_0_10_12: t0_10_12 - x0_10 <= 0
tri2_0_10_12: t0_10_12 - x0_12 <= 0
tri3_0_10_12: t0_10_12 - x10_12 <= 0
tri4_0_10_12: t0_10_12 - x0_10 - x0_12 - x10_12 >= -2
tri1_0_10_13: t0_10_13 - x0_10 <= 0
tri2_0_10_13: t0_10_13 - x0_13 <= 0
tri3_0_10_13: t0_10_13 - x10_13 <= 0
tri4_0_10_13: t0_10_13 - x0_10 - x0_13 - x10_13 >= -2
tri1_0_10_14: t0_10_14 - x0_10 <= 0
tri2_0_10_14: t0_10_14 - x0_14 <= 0
tri3_0_10_14: t0_10_14 - x10_14 <= 0
tri4_0_10_14: t0_10_14 - x0_10 - x0_14 - x10_14 >= -2
tri1_0_10_15: t0_10_15 - x0_10 <= 0
tri2_0_10_15: t0_10_15 - x0_15 <= 0
tri3_0_10_15: t0_10_15 - x10_15 <= 0
tri4_0_10_15: t0_10_15 - x0_10 - x0_15 - x10_15 >= -2
tri1_0_10_16: t0_10_16 - x0_10 <= 0
tri2_0_10_16: t0_10_16 - x0_16 <= 0
tri3_0_10_16: t0_10_16 - x10_16 <= 0
tri4_0_10_16: t0_10_16 - x0_10 - x0_16 - x10_16 >= -2
tri1_0_11_12: t0_11_12 - x0_11 <= 0
tri2_0_11_12: t0_11_12 - x0_12 <= 0
tri3_0_11_12: t0_11_12 - x11_12 <= 0
tri4_0_11_12: t0_11_12 - x0_11 - x0_12 - x11_12 >= -2
tri1_0_11_13: t0_11_13 - x0_11 <= 0
tri2_0_11_13: t0_11_13 - x0_13 <= 0
tri3_0_11_13: t0_11_13 - x11_13 <= 0
tri4_0_11_13: t0_11_13 - x0_11 - x0_13 - x11_13 >= -2
tri1_0_11_14: t0_11_14 - x0_11 <= 0
tri2_0_11_14: t0_11_14 - x0_14 <= 0
tri3_0_11_14: t0_11_14 - x11_14 <= 0
tri4_0_11_14: t0_11_14 - x0_11 - x0_14 - x11_14 >= -2
tri1_0_11_15: t0_11_15 - x0_11 <= 0
tri2_0_11_15: t0_11_15 - x0_15 <= 0
tri3_0_11_15: t0_11_15 - x11_15 <= 0
tri4_0_11_15: t0_11_15 - x0_11 - x0_15 - x11_15 >= -2
tri1_0_11_16: t0_11_16 - x0_11 <= 0
tri2_0_11_16: t0_11_16 - x0_16 <= 0
tri3_0_11_16: t0_11_16 - x11_16 <= 0
tri4_0_11_16: t0_11_16 - x0_11 - x0_16 - x11_16 >= -2
tri1_0_12_13: t0_12_13 - x0_12 <= 0
tri2_0_12_13: t0_12_13 - x0_13 <= 0
tri3_0_12_13: t0_12_13 - x12_13 <= 0
tri4_0_12_13: t0_12_13 - x0_12 - x0_13 - x12_13 >= -2
tri1_0_12_14: t0_12_14 - x0_12 <= 0
tri2_0_12_14: t0_12_14 - x0_14 <= 0
tri3_0_12_14: t0_12_14 - x12_14 <= 0
tri4_0_12_14: t0_12_14 - x0_12 - x0_14 - x12_14 >= -2
tri1_0_12_15: t0_12_15 - x0_12 <= 0
tri2_0_12_15: t0_12_15 - x0_15 <= 0
tri3_0_12_15: t0_12_15 - x12_15 <= 0
tri4_0_12_15: t0_12_15 - x0_12 - x0_15 - x12_15 >= -2
tri1_0_12_16: t0_12_16 - x0_12 <= 0
tri2_0_12_16: t0_12_16 - x0_16 <= 0
tri3_0_12_16: t0_12_16 - x12_16 <= 0
tri4_0_12_16: t0_12_16 - x0_12 - x0_16 - x12_16 >= -2
tri1_0_13_14: t0_13_14 - x0_13 <= 0
tri2_0_13_14: t0_13_14 - x0_14 <= 0
tri3_0_13_14: t0_13_14 - x13_14 <= 0
tri4_0_13_14: t0_13_14 - x0_13 - x0_14 - x13_14 >= -2
tri1_0_13_15: t0_13_15 - x0_13 <= 0
tri2_0_13_15: t0_13_15 - x0_15 <= 0
tri3_0_13_15: t0_13_15 - x13_15 <= 0
tri4_0_13_15: t0_13_15 - x0_13 - x0_15 - x13_15 >= -2
tri1_0_13_16: t0_13_16 - x0_13 <= 0
tri2_0_13_16: t0_13_16 - x0_16 <= 0
tri3_0_13_16: t0_13_16 - x13_16 <= 0
tri4_0_13_16: t0_13_16 - x0_13 - x0_16 - x13_16 >= -2
tri1_0_14_15: t0_14_15 - x0_14 <= 0
tri2_0_14_15: t0_14_15 - x0_15 <= 0
tri3_0_14_15: t0_14_15 - x14_15 <= 0
tri4_0_14_15: t0_14_15 - x0_14 - x0_15 - x14_15 >= -2
tri1_0_14_16: t0_14_16 - x0_14 <= 0
tri2_0_14_16: t0_14_16 - x0_16 <= 0
tri3_0_14_16: t0_14_16 - x14_16 <= 0
tri4_0_14_16: t0_14_16 - x0_14 - x0_16 - x14_16 >= -2
tri1_0_15_16: t0_15_16 - x0_15 <= 0
tri2_0_15_16: t0_15_16 - x0_16 <= 0
tri3_0_15_16: t0_15_16 - x15_16 <= 0
tri4_0_15_16: t0_15_16 - x0_15 - x0_16 - x15_16 >= -2
tri1_1_2_3: t1_2_3 - x1_2 <= 0
tri2_1_2_3: t1_2_3 - x1_3 <= 0
tri3_1_2_3: t1_2_3 - x2_3 <= 0
tri4_1_2_3: t1_2_3 - x1_2 - x1_3 - x2_3 >= -2
tri1_1_2_4: t1_2_4 - x1_2 <= 0
tri2_1_2_4: t1_2_4 - x1_4 <= 0
tri3_1_2_4: t1_2_4 - x2_4 <= 0
tri4_1_2_4: t1_2_4 - x1_2 - x1_4 - x2_4 >= -2
tri1_1_2_5: t1_2_5 - x1_2 <= 0
tri2_1_2_5: t1_2_5 - x1_5 <= 0
tri3_1_2_5: t1_2_5 - x2_5 <= 0
tri4_1_2_5: t1_2_5 - x1_2 - x1_5 - x2_5 >= -2
tri1_1_2_6: t1_2_6 - x1_2 <= 0
tri2_1_2_6: t1_2_6 - x1_6 <= 0
tri3_1_2_6: t1_2_6 - x2_6 <= 0
tri4_1_2_6: t1_2_6 - x1_2 - x1_6 - x2_6 >= -2
tri1_1_2_7: t1_2_7 - x1_2 <= 0
tri2_1_2_7: t1_2_7 - x1_7 <= 0
tri3_1_2_7: t1_2_7 - x2_7 <= 0
tri4_1_2_7: t1_2_7 - x1_2 - x1_7 - x2_7 >= -2
tri1_1_2_8: t1_2_8 - x1_2 <= 0
tri2_1_2_8: t1_2_8 - x1_8 <= 0
tri3_1_2_8: t1_2_8 - x2_8 <= 0
tri4_1_2_8: t1_2_8 - x1_2 - x1_8 - x2_8 >= -2
tri1_1_2_9: t1_2_9 - x1_2 <= 0
tri2_1_2_9: t1_2_9 - x1_9 <= 0
tri3_1_2_9: t1_2_9 - x2_9 <= 0
tri4_1_2_9: t1_2_9 - x1_2 - x1_9 - x2_9 >= -2
tri1_1_2_10: t1_2_10 - x1_2 <= 0
tri2_1_2_10: t1_2_10 - x1_10 <= 0
tri3_1_2_10: t1_2_10 - x2_10 <= 0
tri4_1_2_10: t1_2_10 - x1_2 - x1_10 - x2_10 >= -2
tri1_1_2_11: t1_2_11 - x1_2 <= 0
tri2_1_2_11: t1_2_11 - x1_11 <= 0
tri3_1_2_11: t1_2_11 - x2_11 <= 0
tri4_1_2_11: t1_2_11 - x1_2 - x1_11 - x2_11 >= -2
tri1_1_2_12: t1_2_12 - x1_2 <= 0
tri2_1_2_12: t1_2_12 - x1_12 <= 0
tri3_1_2_12: t1_2_12 - x2_12 <= 0
tri4_1_2_12: t1_2_12 - x1_2 - x1_12 - x2_12 >= -2
tri1_1_2_13: t1_2_13 - x1_2 <= 0
tri2_1_2_13: t1_2_13 - x1_13 <= 0
tri3_1_2_13: t1_2_13 - x2_13 <= 0
tri4_1_2_13: t1_2_13 - x1_2 - x1_13 - x2_13 >= -2
tri1_1_2_14: t1_2_14 - x1_2 <= 0
tri2_1_2_14: t1_2_14 - x1_14 <= 0
tri3_1_2_14: t1_2_14 - x2_14 <= 0
tri4_1_2_14: t1_2_14 - x1_2 - x1_14 - x2_14 >= -2
tri1_1_2_15: t1_2_15 - x1_2 <= 0
tri2_1_2_15: t1_2_15 - x1_15 <= 0
tri3_1_2_15: t1_2_15 - x2_15 <= 0
tri4_1_2_15: t1_2_15 - x1_2 - x1_15 - x2_15 >= -2
tri1_1_2_16: t1_2_16 - x1_2 <= 0
tri2_1_2_16: t1_2_16 - x1_16 <= 0
tri3_1_2_16: t1_2_16 - x2_16 <= 0
tri4_1_2_16: t1_2_16 - x1_2 - x1_16 - x2_16 >= -2
tri1_1_3_4: t1_3_4 - x1_3 <= 0
tri2_1_3_4: t1_3_4 - x1_4 <= 0
tri3_1_3_4: t1_3_4 - x3_4 <= 0
tri4_1_3_4: t1_3_4 - x1_3 - x1_4 - x3_4 >= -2
tri1_1_3_5: t1_3_5 - x1_3 <= 0
tri2_1_3_5: t1_3_5 - x1_5 <= 0
tri3_1_3_5: t1_3_5 - x3_5 <= 0
tri4_1_3_5: t1_3_5 - x1_3 - x1_5 - x3_5 >= -2
tri1_1_3_6: t1_3_6 - x1_3 <= 0
tri2_1_3_6: t1_3_6 - x1_6 <= 0
tri3_1_3_6: t1_3_6 - x3_6 <= 0
tri4_1_3_6: t1_3_6 - x1_3 - x1_6 - x3_6 >= -2
tri1_1_3_7: t1_3_7 - x1_3 <= 0
tri2_1_3_7: t1_3_7 - x1_7 <= 0
tri3_1_3_7: t1_3_7 - x3_7 <= 0
tri4_1_3_7: t1_3_7 - x1_3 - x1_7 - x3_7 >= -2
tri1_1_3_8: t1_3_8 - x1_3 <= 0
tri2_1_3_8: t1_3_8 - x1_8 <= 0
tri3_1_3_8: t1_3_8 - x3_8 <= 0
tri4_1_3_8: t1_3_8 - x1_3 - x1_8 - x3_8 >= -2
tri1_1_3_9: t1_3_9 - x1_3 <= 0
tri2_1_3_9: t1_3_9 - x1_9 <= 0
tri3_1_3_9: t1_3_9 - x3_9 <= 0
tri4_1_3_9: t1_3_9 - x1_3 - x1_9 - x3_9 >= -2
tri1_1_3_10: t1_3_10 - x1_3 <= 0
tri2_1_3_10: t1_3_10 - x1_10 <= 0
tri3_1_3_10: t1_3_10 - x3_10 <= 0
tri4_1_3_10: t1_3_10 - x1_3 - x1_10 - x3_10 >= -2
tri1_1_3_11: t1_3_11 - x1_3 <= 0
tri2_1_3_11: t1_3_11 - x1_11 <= 0
tri3_1_3_11: t1_3_11 - x3_11 <= 0
tri4_1_3_11: t1_3_11 - x1_3 - x1_11 - x3_11 >= -2
tri1_1_3_12: t1_3_12 - x1_3 <= 0
tri2_1_3_12: t1_3_12 - x1_12 <= 0
tri3_1_3_12: t1_3_12 - x3_12 <= 0
tri4_1_3_12: t1_3_12 - x1_3 - x1_12 - x3_12 >= -2
tri1_1_3_13: t1_3_13 - x1_3 <= 0
tri2_1_3_13: t1_3_13 - x1_13 <= 0
tri3_1_3_13: t1_3_13 - x3_13 <= 0
tri4_1_3_13: t1_3_13 - x1_3 - x1_13 - x3_13 >= -2
tri1_1_3_14: t1_3_14 - x1_3 <= 0
tri2_1_3_14: t1_3_14 - x1_14 <= 0
tri3_1_3_14: t1_3_14 - x3_14 <= 0
tri4_1_3_14: t1_3_14 - x1_3 - x1_14 - x3_14 >= -2
tri1_1_3_15: t1_3_15 - x1_3 <= 0
tri2_1_3_15: t1_3_15 - x1_15 <= 0
tri3_1_3_15: t1_3_15 - x3_15 <= 0
tri4_1_3_15: t1_3_15 - x1_3 - x1_15 - x3_15 >= -2
tri1_1_3_16: t1_3_16 - x1_3 <= 0
tri2_1_3_16: t1_3_16 - x1_16 <= 0
tri3_1_3_16: t1_3_16 - x3_16 <= 0
tri4_1_3_16: t1_3_16 - x1_3 - x1_16 - x3_16 >= -2
tri1_1_4_5: t1_4_5 - x1_4 <= 0
tri2_1_4_5: t1_4_5 - x1_5 <= 0
tri3_1_4_5: t1_4_5 - x4_5 <= 0
tri4_1_4_5: t1_4_5 - x1_4 - x1_5 - x4_5 >= -2
tri1_1_4_6: t1_4_6 - x1_4 <= 0
tri2_1_4_6: t1_4_6 - x1_6 <= 0
tri3_1_4_6: t1_4_6 - x4_6 <= 0
tri4_1_4_6: t1_4_6 - x1_4 - x1_6 - x4_6 >= -2
tri1_1_4_7: t1_4_7 - x1_4 <= 0
tri2_1_4_7: t1_4_7 - x1_7 <= 0
tri3_1_4_7: t1_4_7 - x4_7 <= 0
tri4_1_4_7: t1_4_7 - x1_4 - x1_7 - x4_7 >= -2
tri1_1_4_8: t1_4_8 - x1_4 <= 0
tri2_1_4_8: t1_4_8 - x1_8 <= 0
tri3_1_4_8: t1_4_8 - x4_8 <= 0
tri4_1_4_8: t1_4_8 - x1_4 - x1_8 - x4_8 >= -2
tri1_1_4_9: t1_4_9 - x1_4 <= 0
tri2_1_4_9: t1_4_9 - x1_9 <= 0
tri3_1_4_9: t1_4_9 - x4_9 <= 0
tri4_1_4_9: t1_4_9 - x1_4 - x1_9 - x4_9 >= -2
tri1_1_4_10: t1_4_10 - x1_4 <= 0
tri2_1_4_10: t1_4_10 - x1_10 <= 0
tri3_1_4_10: t1_4_10 - x4_10 <= 0
tri4_1_4_10: t1_4_10 - x1_4 - x1_10 - x4_10 >= -2
tri1_1_4_11: t1_4_11 - x1_4 <= 0
tri2_1_4_11: t1_4_11 - x1_11 <= 0
tri3_1_4_11: t1_4_11 - x4_11 <= 0
tri4_1_4_11: t1_4_11 - x1_4 - x1_11 - x4_11 >= -2
tri1_1_4_12: t1_4_12 - x1_4 <= 0
tri2_1_4_12: t1_4_12 - x1_12 <= 0
tri3_1_4_12: t1_4_12 - x4_12 <= 0
tri4_1_4_12: t1_4_12 - x1_4 - x1_12 - x4_12 >= -2
tri1_1_4_13: t1_4_13 - x1_4 <= 0
tri2_1_4_13: t1_4_13 - x1_13 <= 0
tri3_1_4_13: t1_4_13 - x4_13 <= 0
tri4_1_4_13: t1_4_13 - x1_4 - x1_13 - x4_13 >= -2
tri1_1_4_14: t1_4_14 - x1_4 <= 0
tri2_1_4_14: t1_4_14 - x1_14 <= 0
tri3_1_4_14: t1_4_14 - x4_14 <= 0
tri4_1_4_14: t1_4_14 - x1_4 - x1_14 - x4_14 >= -2
tri1_1_4_15: t1_4_15 - x1_4 <= 0
tri2_1_4_15: t1_4_15 - x1_15 <= 0
tri3_1_4_15: t1_4_15 - x4_15 <= 0
tri4_1_4_15: t1_4_15 - x1_4 - x1_15 - x4_15 >= -2
tri1_1_4_16: t1_4_16 - x1_4 <= 0
tri2_1_4_16: t1_4_16 - x1_16 <= 0
tri3_1_4_16: t1_4_16 - x4_16 <= 0
tri4_1_4_16: t1_4_16 - x1_4 - x1_16 - x4_16 >= -2
tri1_1_5_6: t1_5_6 - x1_5 <= 0
tri2_1_5_6: t1_5_6 - x1_6 <= 0
tri3_1_5_6: t1_5_6 - x5_6 <= 0
tri4_1_5_6: t1_5_6 - x1_5 - x1_6 - x5_6 >= -2
tri1_1_5_7: t1_5_7 - x1_5 <= 0
tri2_1_5_7: t1_5_7 - x1_7 <= 0
tri3_1_5_7: t1_5_7 - x5_7 <= 0
tri4_1_5_7: t1_5_7 - x1_5 - x1_7 - x5_7 >= -2
tri1_1_5_8: t1_5_8 - x1_5 <= 0
tri2_1_5_8: t1_5_8 - x1_8 <= 0
tri3_1_5_8: t1_5_8 - x5_8 <= 0
tri4_1_5_8: t1_5_8 - x1_5 - x1_8 - x5_8 >= -2
tri1_1_5_9: t1_5_9 - x1_5 <= 0
tri2_1_5_9: t1_5_9 - x1_9 <= 0
tri3_1_5_9: t1_5_9 - x5_9 <= 0
tri4_1_5_9: t1_5_9 - x1_5 - x1_9 - x5_9 >= -2
tri1_1_5_10: t1_5_10 - x1_5 <= 0
tri2_1_5_10: t1_5_10 - x1_10 <= 0
tri3_1_5_10: t1_5_10 - x5_10 <= 0
tri4_1_5_10: t1_5_10 - x1_5 - x1_10 - x5_10 >= -2
tri1_1_5_11: t1_5_11 - x1_5 <= 0
tri2_1_5_11: t1_5_11 - x1_11 <= 0
tri3_1_5_11: t1_5_11 - x5_11 <= 0
tri4_1_5_11: t1_5_11 - x1_5 - x1_11 - x5_11 >= -2
tri1_1_5_12: t1_5_12 - x1_5 <= 0
tri2_1_5_12: t1_5_12 - x1_12 <= 0
tri3_1_5_12: t1_5_12 - x5_12 <= 0
tri4_1_5_12: t1_5_12 - x1_5 - x1_12 - x5_12 >= -2
tri1_1_5_13: t1_5_13 - x1_5 <= 0
tri2_1_5_13: t1_5_13 - x1_13 <= 0
tri3_1_5_13: t1_5_13 - x5_13 <= 0
tri4_1_5_13: t1_5_13 - x1_5 - x1_13 - x5_13 >= -2
tri1_1_5_14: t1_5_14 - x1_5 <= 0
tri2_1_5_14: t1_5_14 - x1_14 <= 0
tri3_1_5_14: t1_5_14 - x5_14 <= 0
tri4_1_5_14: t1_5_14 - x1_5 - x1_14 - x5_14 >= -2
tri1_1_5_15: t1_5_15 - x1_5 <= 0
tri2_1_5_15: t1_5_15 - x1_15 <= 0
tri3_1_5_15: t1_5_15 - x5_15 <= 0
tri4_1_5_15: t1_5_15 - x1_5 - x1_15 - x5_15 >= -2
tri1_1_5_16: t1_5_16 - x1_5 <= 0
tri2_1_5_16: t1_5_16 - x1_16 <= 0
tri3_1_5_16: t1_5_16 - x5_16 <= 0
tri4_1_5_16: t1_5_16 - x1_5 - x1_16 - x5_16 >= -2
tri1_1_6_7: t1_6_7 - x1_6 <= 0
tri2_1_6_7: t1_6_7 - x1_7 <= 0
tri3_1_6_7: t1_6_7 - x6_7 <= 0
tri4_1_6_7: t1_6_7 - x1_6 - x1_7 - x6_7 >= -2
tri1_1_6_8: t1_6_8 - x1_6 <= 0
tri2_1_6_8: t1_6_8 - x1_8 <= 0
tri3_1_6_8: t1_6_8 - x6_8 <= 0
tri4_1_6_8: t1_6_8 - x1_6 - x1_8 - x6_8 >= -2
tri1_1_6_9: t1_6_9 - x1_6 <= 0
tri2_1_6_9: t1_6_9 - x1_9 <= 0
tri3_1_6_9: t1_6_9 - x6_9 <= 0
tri4_1_6_9: t1_6_9 - x1_6 - x1_9 - x6_9 >= -2
tri1_1_6_10: t1_6_10 - x1_6 <= 0
tri2_1_6_10: t1_6_10 - x1_10 <= 0
tri3_1_6_10: t1_6_10 - x6_10 <= 0
tri4_1_6_10: t1_6_10 - x1_6 - x1_10 - x6_10 >= -2
tri1_1_6_11: t1_6_11 - x1_6 <= 0
tri2_1_6_11: t1_6_11 - x1_11 <= 0
tri3_1_6_11: t1_6_11 - x6_11 <= 0
tri4_1_6_11: t1_6_11 - x1_6 - x1_11 - x6_11 >= -2
tri1_1_6_12: t1_6_12 - x1_6 <= 0
tri2_1_6_12: t1_6_12 - x1_12 <= 0
tri3_1_6_12: t1_6_12 - x6_12 <= 0
tri4_1_6_12: t1_6_12 - x1_6 - x1_12 - x6_12 >= -2
tri1_1_6_13: t1_6_13 - x1_6 <= 0
tri2_1_6_13: t1_6_13 - x1_13 <= 0
tri3_1_6_13: t1_6_13 - x6_13 <= 0
tri4_1_6_13: t1_6_13 - x1_6 - x1_13 - x6_13 >= -2
tri1_1_6_14: t1_6_14 - x1_6 <= 0
tri2_1_6_14: t1_6_14 - x1_14 <= 0
tri3_1_6_14: t1_6_14 - x6_14 <= 0
tri4_1_6_14: t1_6_14 - x1_6 - x1_14 - x6_14 >= -2
tri1_1_6_15: t1_6_15 - x1_6 <= 0
tri2_1_6_15: t1_6_15 - x1_15 <= 0
tri3_1_6_15: t1_6_15 - x6_15 <= 0
tri4_1_6_15: t1_6_15 - x1_6 - x1_15 - x6_15 >= -2
tri1_1_6_16: t1_6_16 - x1_6 <= 0
tri2_1_6_16: t1_6_16 - x1_16 <= 0
tri3_1_6_16: t1_6_16 - x6_16 <= 0
tri4_1_6_16: t1_6_16 - x1_6 - x1_16 - x6_16 >= -2
tri1_1_7_8: t1_7_8 - x1_7 <= 0
tri2_1_7_8: t1_7_8 - x1_8 <= 0
tri3_1_7_8: t1_7_8 - x7_8 <= 0
tri4_1_7_8: t1_7_8 - x1_7 - x1_8 - x7_8 >= -2
tri1_1_7_9: t1_7_9 - x1_7 <= 0
tri2_1_7_9: t1_7_9 - x1_9 <= 0
tri3_1_7_9: t1_7_9 - x7_9 <= 0
tri4_1_7_9: t1_7_9 - x1_7 - x1_9 - x7_9 >= -2
tri1_1_7_10: t1_7_10 - x1_7 <= 0
tri2_1_7_10: t1_7_10 - x1_10 <= 0
tri3_1_7_10: t1_7_10 - x7_10 <= 0
tri4_1_7_10: t1_7_10 - x1_7 - x1_10 - x7_10 >= -2
tri1_1_7_11: t1_7_11 - x1_7 <= 0
tri2_1_7_11: t1_7_11 - x1_11 <= 0
tri3_1_7_11: t1_7_11 - x7_11 <= 0
tri4_1_7_11: t1_7_11 - x1_7 - x1_11 - x7_11 >= -2
tri1_1_7_12: t1_7_12 - x1_7 <= 0
tri2_1_7_12: t1_7_12 - x1_12 <= 0
tri3_1_7_12: t1_7_12 - x7_12 <= 0
tri4_1_7_12: t1_7_12 - x1_7 - x1_12 - x7_12 >= -2
tri1_1_7_13: t1_7_13 - x1_7 <= 0
tri2_1_7_13: t1_7_13 - x1_13 <= 0
tri3_1_7_13: t1_7_13 - x7_13 <= 0
tri4_1_7_13: t1_7_13 - x1_7 - x1_13 - x7_13 >= -2
tri1_1_7_14: t1_7_14 - x1_7 <= 0
tri2_1_7_14: t1_7_14 - x1_14 <= 0
tri3_1_7_14: t1_7_14 - x7_14 <= 0
tri4_1_7_14: t1_7_14 - x1_7 - x1_14 - x7_14 >= -2
tri1_1_7_15: t1_7_15 - x1_7 <= 0
tri2_1_7_15: t1_7_15 - x1_15 <= 0
tri3_1_7_15: t1_7_15 - x7_15 <= 0
tri4_1_7_15: t1_7_15 - x1_7 - x1_15 - x7_15 >= -2
tri1_1_7_16: t1_7_16 - x1_7 <= 0
tri2_1_7_16: t1_7_16 - x1_16 <= 0
tri3_1_7_16: t1_7_16 - x7_16 <= 0
tri4_1_7_16: t1_7_16 - x1_7 - x1_16 - x7_16 >= -2
tri1_1_8_9: t1_8_9 - x1_8 <= 0
tri2_1_8_9: t1_8_9 - x1_9 <= 0
tri3_1_8_9: t1_8_9 - x8_9 <= 0
tri4_1_8_9: t1_8_9 - x1_8 - x1_9 - x8_9 >= -2
tri1_1_8_10: t1_8_10 - x1_8 <= 0
tri2_1_8_10: t1_8_10 - x1_10 <= 0
tri3_1_8_10: t1_8_10 - x8_10 <= 0
tri4_1_8_10: t1_8_10 - x1_8 - x1_10 - x8_10 >= -2
tri1_1_8_11: t1_8_11 - x1_8 <= 0
tri2_1_8_11: t1_8_11 - x1_11 <= 0
tri3_1_8_11: t1_8_11 - x8_11 <= 0
tri4_1_8_11: t1_8_11 - x1_8 - x1_11 - x8_11 >= -2
tri1_1_8_12: t1_8_12 - x1_8 <= 0
tri2_1_8_12: t1_8_12 - x1_12 <= 0
tri3_1_8_12: t1_8_12 - x8_12 <= 0
tri4_1_8_12: t1_8_12 - x1_8 - x1_12 - x8_12 >= -2
tri1_1_8_13: t1_8_13 - x1_8 <= 0
tri2_1_8_13: t1_8_13 - x1_13 <= 0
tri3_1_8_13: t1_8_13 - x8_13 <= 0
tri4_1_8_13: t1_8_13 - x1_8 - x1_13 - x8_13 >= -2
tri1_1_8_14: t1_8_14 - x1_8 <= 0
tri2_1_8_14: t1_8_14 - x1_14 <= 0
tri3_1_8_14: t1_8_14 - x8_14 <= 0
tri4_1_8_14: t1_8_14 - x1_8 - x1_14 - x8_14 >= -2
tri1_1_8_15: t1_8_15 - x1_8 <= 0
tri2_1_8_15: t1_8_15 - x1_15 <= 0
tri3_1_8_15: t1_8_15 - x8_15 <= 0
tri4_1_8_15: t1_8_15 - x1_8 - x1_15 - x8_15 >= -2
tri1_1_8_16: t1_8_16 - x1_8 <= 0
tri2_1_8_16: t1_8_16 - x1_16 <= 0
tri3_1_8_16: t1_8_16 - x8_16 <= 0
tri4_1_8_16: t1_8_16 - x1_8 - x1_16 - x8_16 >= -2
tri1_1_9_10: t1_9_10 - x1_9 <= 0
tri2_1_9_10: t1_9_10 - x1_10 <= 0
tri3_1_9_10: t1_9_10 - x9_10 <= 0
tri4_1_9_10: t1_9_10 - x1_9 - x1_10 - x9_10 >= -2
tri1_1_9_11: t1_9_11 - x1_9 <= 0
tri2_1_9_11: t1_9_11 - x1_11 <= 0
tri3_1_9_11: t1_9_11 - x9_11 <= 0
tri4_1_9_11: t1_9_11 - x1_9 - x1_11 - x9_11 >= -2
tri1_1_9_12: t1_9_12 - x1_9 <= 0
tri2_1_9_12: t1_9_12 - x1_12 <= 0
tri3_1_9_12: t1_9_12 - x9_12 <= 0
tri4_1_9_12: t1_9_12 - x1_9 - x1_12 - x9_12 >= -2
tri1_1_9_13: t1_9_13 - x1_9 <= 0
tri2_1_9_13: t1_9_13 - x1_13 <= 0
tri3_1_9_13: t1_9_13 - x9_13 <= 0
tri4_1_9_13: t1_9_13 - x1_9 - x1_13 - x9_13 >= -2
tri1_1_9_14: t1_9_14 - x1_9 <= 0
tri2_1_9_14: t1_9_14 - x1_14 <= 0
tri3_1_9_14: t1_9_14 - x9_14 <= 0
tri4_1_9_14: t1_9_14 - x1_9 - x1_14 - x9_14 >= -2
tri1_1_9_15: t1_9_15 - x1_9 <= 0
tri2_1_9_15: t1_9_15 - x1_15 <= 0
tri3_1_9_15: t1_9_15 - x9_15 <= 0
tri4_1_9_15: t1_9_15 - x1_9 - x1_15 - x9_15 >= -2
tri1_1_9_16: t1_9_16 - x1_9 <= 0
tri2_1_9_16: t1_9_16 - x1_16 <= 0
tri3_1_9_16: t1_9_16 - x9_16 <= 0
tri4_1_9_16: t1_9_16 - x1_9 - x1_16 - x9_16 >= -2
tri1_1_10_11: t1_10_11 - x1_10 <= 0
tri2_1_10_11: t1_10_11 - x1_11 <= 0
tri3_1_10_11: t1_10_11 - x10_11 <= 0
tri4_1_10_11: t1_10_11 - x1_10 - x1_11 - x10_11 >= -2
tri1_1_10_12: t1_10_12 - x1_10 <= 0
tri2_1_10_12: t1_10_12 - x1_12 <= 0
tri3_1_10_12: t1_10_12 - x10_12 <= 0
tri4_1_10_12: t1_10_12 - x1_10 - x1_12 - x10_12 >= -2
tri1_1_10_13: t1_10_13 - x1_10 <= 0
tri2_1_10_13: t1_10_13 - x1_13 <= 0
tri3_1_10_13: t1_10_13 - x10_13 <= 0
tri4_1_10_13: t1_10_13 - x1_10 - x1_13 - x10_13 >= -2
tri1_1_10_14: t1_10_14 - x1_10 <= 0
tri2_1_10_14: t1_10_14 - x1_14 <= 0
tri3_1_10_14: t1_10_14 - x10_14 <= 0
tri4_1_10_14: t1_10_14 - x1_10 - x1_14 - x10_14 >= -2
tri1_1_10_15: t1_10_15 - x1_10 <= 0
tri2_1_10_15: t1_10_15 - x1_15 <= 0
tri3_1_10_15: t1_10_15 - x10_15 <= 0
tri4_1_10_15: t1_10_15 - x1_10 - x1_15 - x10_15 >= -2
tri1_1_10_16: t1_10_16 - x1_10 <= 0
tri2_1_10_16: t1_10_16 - x1_16 <= 0
tri3_1_10_16: t1_10_16 - x10_16 <= 0
tri4_1_10_16: t1_10_16 - x1_10 - x1_16 - x10_16 >= -2
tri1_1_11_12: t1_11_12 - x1_11 <= 0
tri2_1_11_12: t1_11_12 - x1_12 <= 0
tri3_1_11_12: t1_11_12 - x11_12 <= 0
tri4_1_11_12: t1_11_12 - x1_11 - x1_12 - x11_12 >= -2
tri1_1_11_13: t1_11_13 - x1_11 <= 0
tri2_1_11_13: t1_11_13 - x1_13 <= 0
tri3_1_11_13: t1_11_13 - x11_13 <= 0
tri4_1_11_13: t1_11_13 - x1_11 - x1_13 - x11_13 >= -2
tri1_1_11_14: t1_11_14 - x1_11 <= 0
tri2_1_11_14: t1_11_14 - x1_14 <= 0
tri3_1_11_14: t1_11_14 - x11_14 <= 0
tri4_1_11_14: t1_11_14 - x1_11 - x1_14 - x11_14 >= -2
tri1_1_11_15: t1_11_15 - x1_11 <= 0
tri2_1_11_15: t1_11_15 - x1_15 <= 0
tri3_1_11_15: t1_11_15 - x11_15 <= 0
tri4_1_11_15: t1_11_15 - x1_11 - x1_15 - x11_15 >= -2
tri1_1_11_16: t1_11_16 - x1_11 <= 0
tri2_1_11_16: t1_11_16 - x1_16 <= 0
tri3_1_11_16: t1_11_16 - x11_16 <= 0
tri4_1_11_16: t1_11_16 - x1_11 - x1_16 - x11_16 >= -2
tri1_1_12_13: t1_12_13 - x1_12 <= 0
tri2_1_12_13: t1_12_13 - x1_13 <= 0
tri3_1_12_13: t1_12_13 - x12_13 <= 0
tri4_1_12_13: t1_12_13 - x1_12 - x1_13 - x12_13 >= -2
tri1_1_12_14: t1_12_14 - x1_12 <= 0
tri2_1_12_14: t1_12_14 - x1_14 <= 0
tri3_1_12_14: t1_12_14 - x12_14 <= 0
tri4_1_12_14: t1_12_14 - x1_12 - x1_14 - x12_14 >= -2
tri1_1_12_15: t1_12_15 - x1_12 <= 0
tri2_1_12_15: t1_12_15 - x1_15 <= 0
tri3_1_12_15: t1_12_15 - x12_15 <= 0
tri4_1_12_15: t1_12_15 - x1_12 - x1_15 - x12_15 >= -2
tri1_1_12_16: t1_12_16 - x1_12 <= 0
tri2_1_12_16: t1_12_16 - x1_16 <= 0
tri3_1_12_16: t1_12_16 - x12_16 <= 0
tri4_1_12_16: t1_12_16 - x1_12 - x1_16 - x12_16 >= -2
tri1_1_13_14: t1_13_14 - x1_13 <= 0
tri2_1_13_14: t1_13_14 - x1_14 <= 0
tri3_1_13_14: t1_13_14 - x13_14 <= 0
tri4_1_13_14: t1_13_14 - x1_13 - x1_14 - x13_14 >= -2
tri1_1_13_15: t1_13_15 - x1_13 <= 0
tri2_1_13_15: t1_13_15 - x1_15 <= 0
tri3_1_13_15: t1_13_15 - x13_15 <= 0
tri4_1_13_15: t1_13_15 - x1_13 - x1_15 - x13_15 >= -2
tri1_1_13_16: t1_13_16 - x1_13 <= 0
tri2_1_13_16: t1_13_16 - x1_16 <= 0
tri3_1_13_16: t1_13_16 - x13_16 <= 0
tri4_1_13_16: t1_13_16 - x1_13 - x1_16 - x13_16 >= -2
tri1_1_14_15: t1_14_15 - x1_14 <= 0
tri2_1_14_15: t1_14_15 - x1_15 <= 0
tri3_1_14_15: t1_14_15 - x14_15 <= 0
tri4_1_14_15: t1_14_15 - x1_14 - x1_15 - x14_15 >= -2
tri1_1_14_16: t1_14_16 - x1_14 <= 0
tri2_1_14_16: t1_14_16 - x1_16 <= 0
tri3_1_14_16: t1_14_16 - x14_16 <= 0
tri4_1_14_16: t1_14_16 - x1_14 - x1_16 - x14_16 >= -2
tri1_1_15_16: t1_15_16 - x1_15 <= 0
tri2_1_15_16: t1_15_16 - x1_16 <= 0
tri3_1_15_16: t1_15_16 - x15_16 <= 0
tri4_1_15_16: t1_15_16 - x1_15 - x1_16 - x15_16 >= -2
tri1_2_3_4: t2_3_4 - x2_3 <= 0
tri2_2_3_4: t2_3_4 - x2_4 <= 0
tri3_2_3_4: t2_3_4 - x3_4 <= 0
tri4_2_3_4: t2_3_4 - x2_3 - x2_4 - x3_4 >= -2
tri1_2_3_5: t2_3_5 - x2_3 <= 0
tri2_2_3_5: t2_3_5 - x2_5 <= 0
tri3_2_3_5: t2_3_5 - x3_5 <= 0
tri4_2_3_5: t2_3_5 - x2_3 - x2_5 - x3_5 >= -2
tri1_2_3_6: t2_3_6 - x2_3 <= 0
tri2_2_3_6: t2_3_6 - x2_6 <= 0
tri3_2_3_6: t2_3_6 - x3_6 <= 0
tri4_2_3_6: t2_3_6 - x2_3 - x2_6 - x3_6 >= -2
tri1_2_3_7: t2_3_7 - x2_3 <= 0
tri2_2_3_7: t2_3_7 - x2_7 <= 0
tri3_2_3_7: t2_3_7 - x3_7 <= 0
tri4_2_3_7: t2_3_7 - x2_3 - x2_7 - x3_7 >= -2
tri1_2_3_8: t2_3_8 - x2_3 <= 0
tri2_2_3_8: t2_3_8 - x2_8 <= 0
tri3_2_3_8: t2_3_8 - x3_8 <= 0
tri4_2_3_8: t2_3_8 - x2_3 - x2_8 - x3_8 >= -2
tri1_2_3_9: t2_3_9 - x2_3 <= 0
tri2_2_3_9: t2_3_9 - x2_9 <= 0
tri3_2_3_9: t2_3_9 - x3_9 <= 0
tri4_2_3_9: t2_3_9 - x2_3 - x2_9 - x3_9 >= -2
tri1_2_3_10: t2_3_10 - x2_3 <= 0
tri2_2_3_10: t2_3_10 - x2_10 <= 0
tri3_2_3_10: t2_3_10 - x3_10 <= 0
tri4_2_3_10: t2_3_10 - x2_3 - x2_10 - x3_10 >= -2
tri1_2_3_11: t2_3_11 - x2_3 <= 0
tri2_2_3_11: t2_3_11 - x2_11 <= 0
tri3_2_3_11: t2_3_11 - x3_11 <= 0
tri4_2_3_11: t2_3_11 - x2_3 - x2_11 - x3_11 >= -2
tri1_2_3_12: t2_3_12 - x2_3 <= 0
tri2_2_3_12: t2_3_12 - x2_12 <= 0
tri3_2_3_12: t2_3_12 - x3_12 <= 0
tri4_2_3_12: t2_3_12 - x2_3 - x2_12 - x3_12 >= -2
tri1_2_3_13: t2_3_13 - x2_3 <= 0
tri2_2_3_13: t2_3_13 - x2_13 <= 0
tri3_2_3_13: t2_3_13 - x3_13 <= 0
tri4_2_3_13: t2_3_13 - x2_3 - x2_13 - x3_13 >= -2
tri1_2_3_14: t2_3_14 - x2_3 <= 0
tri2_2_3_14: t2_3_14 - x2_14 <= 0
tri3_2_3_14: t2_3_14 - x3_14 <= 0
tri4_2_3_14: t2_3_14 - x2_3 - x2_14 - x3_14 >= -2
tri1_2_3_15: t2_3_15 - x2_3 <= 0
tri2_2_3_15: t2_3_15 - x2_15 <= 0
tri3_2_3_15: t2_3_15 - x3_15 <= 0
tri4_2_3_15: t2_3_15 - x2_3 - x2_15 - x3_15 >= -2
tri1_2_3_16: t2_3_16 - x2_3 <= 0
tri2_2_3_16: t2_3_16 - x2_16 <= 0
tri3_2_3_16: t2_3_16 - x3_16 <= 0
tri4_2_3_16: t2_3_16 - x2_3 - x2_16 - x3_16 >= -2
tri1_2_4_5: t2_4_5 - x2_4 <= 0
tri2_2_4_5: t2_4_5 - x2_5 <= 0
tri3_2_4_5: t2_4_5 - x4_5 <= 0
tri4_2_4_5: t2_4_5 - x2_4 - x2_5 - x4_5 >= -2
tri1_2_4_6: t2_4_6 - x2_4 <= 0
tri2_2_4_6: t2_4_6 - x2_6 <= 0
tri3_2_4_6: t2_4_6 - x4_6 <= 0
tri4_2_4_6: t2_4_6 - x2_4 - x2_6 - x4_6 >= -2
tri1_2_4_7: t2_4_7 - x2_4 <= 0
tri2_2_4_7: t2_4_7 - x2_7 <= 0
tri3_2_4_7: t2_4_7 - x4_7 <= 0
tri4_2_4_7: t2_4_7 - x2_4 - x2_7 - x4_7 >= -2
tri1_2_4_8: t2_4_8 - x2_4 <= 0
tri2_2_4_8: t2_4_8 - x2_8 <= 0
tri3_2_4_8: t2_4_8 - x4_8 <= 0
tri4_2_4_8: t2_4_8 - x2_4 - x2_8 - x4_8 >= -2
tri1_2_4_9: t2_4_9 - x2_4 <= 0
tri2_2_4_9: t2_4_9 - x2_9 <= 0
tri3_2_4_9: t2_4_9 - x4_9 <= 0
tri4_2_4_9: t2_4_9 - x2_4 - x2_9 - x4_9 >= -2
tri1_2_4_10: t2_4_10 - x2_4 <= 0
tri2_2_4_10: t2_4_10 - x2_10 <= 0
tri3_2_4_10: t2_4_10 - x4_10 <= 0
tri4_2_4_10: t2_4_10 - x2_4 - x2_10 - x4_10 >= -2
tri1_2_4_11: t2_4_11 - x2_4 <= 0
tri2_2_4_11: t2_4_11 - x2_11 <= 0
tri3_2_4_11: t2_4_11 - x4_11 <= 0
tri4_2_4_11: t2_4_11 - x2_4 - x2_11 - x4_11 >= -2
tri1_2_4_12: t2_4_12 - x2_4 <= 0
tri2_2_4_12: t2_4_12 - x2_12 <= 0
tri3_2_4_12: t2_4_12 - x4_12 <= 0
tri4_2_4_12: t2_4_12 - x2_4 - x2_12 - x4_12 >= -2
tri1_2_4_13: t2_4_13 - x2_4 <= 0
tri2_2_4_13: t2_4_13 - x2_13 <= 0
tri3_2_4_13: t2_4_13 - x4_13 <= 0
tri4_2_4_13: t2_4_13 - x2_4 - x2_13 - x4_13 >= -2
tri1_2_4_14: t2_4_14 - x2_4 <= 0
tri2_2_4_14: t2_4_14 - x2_14 <= 0
tri3_2_4_14: t2_4_14 - x4_14 <= 0
tri4_2_4_14: t2_4_14 - x2_4 - x2_14 - x4_14 >= -2
tri1_2_4_15: t2_4_15 - x2_4 <= 0
tri2_2_4_15: t2_4_15 - x2_15 <= 0
tri3_2_4_15: t2_4_15 - x4_15 <= 0
tri4_2_4_15: t2_4_15 - x2_4 - x2_15 - x4_15 >= -2
tri1_2_4_16: t2_4_16 - x2_4 <= 0
tri2_2_4_16: t2_4_16 - x2_16 <= 0
tri3_2_4_16: t2_4_16 - x4_16 <= 0
tri4_2_4_16: t2_4_16 - x2_4 - x2_16 - x4_16 >= -2
tri1_2_5_6: t2_5_6 - x2_5 <= 0
tri2_2_5_6: t2_5_6 - x2_6 <= 0
tri3_2_5_6: t2_5_6 - x5_6 <= 0
tri4_2_5_6: t2_5_6 - x2_5 - x2_6 - x5_6 >= -2
tri1_2_5_7: t2_5_7 - x2_5 <= 0
tri2_2_5_7: t2_5_7 - x2_7 <= 0
tri3_2_5_7: t2_5_7 - x5_7 <= 0
tri4_2_5_7: t2_5_7 - x2_5 - x2_7 - x5_7 >= -2
tri1_2_5_8: t2_5_8 - x2_5 <= 0
tri2_2_5_8: t2_5_8 - x2_8 <= 0
tri3_2_5_8: t2_5_8 - x5_8 <= 0
tri4_2_5_8: t2_5_8 - x2_5 - x2_8 - x5_8 >= -2
tri1_2_5_9: t2_5_9 - x2_5 <= 0
tri2_2_5_9: t2_5_9 - x2_9 <= 0
tri3_2_5_9: t2_5_9 - x5_9 <= 0
tri4_2_5_9: t2_5_9 - x2_5 - x2_9 - x5_9 >= -2
tri1_2_5_10: t2_5_10 - x2_5 <= 0
tri2_2_5_10: t2_5_10 - x2_10 <= 0
tri3_2_5_10: t2_5_10 - x5_10 <= 0
tri4_2_5_10: t2_5_10 - x2_5 - x2_10 - x5_10 >= -2
tri1_2_5_11: t2_5_11 - x2_5 <= 0
tri2_2_5_11: t2_5_11 - x2_11 <= 0
tri3_2_5_11: t2_5_11 - x5_11 <= 0
tri4_2_5_11: t2_5_11 - x2_5 - x2_11 - x5_11 >= -2
tri1_2_5_12: t2_5_12 - x2_5 <= 0
tri2_2_5_12: t2_5_12 - x2_12 <= 0
tri3_2_5_12: t2_5_12 - x5_12 <= 0
tri4_2_5_12: t2_5_12 - x2_5 - x2_12 - x5_12 >= -2
tri1_2_5_13: t2_5_13 - x2_5 <= 0
tri2_2_5_13: t2_5_13 - x2_13 <= 0
tri3_2_5_13: t2_5_13 - x5_13 <= 0
tri4_2_5_13: t2_5_13 - x2_5 - x2_13 - x5_13 >= -2
tri1_2_5_14: t2_5_14 - x2_5 <= 0
tri2_2_5_14: t2_5_14 - x2_14 <= 0
tri3_2_5_14: t2_5_14 - x5_14 <= 0
tri4_2_5_14: t2_5_14 - x2_5 - x2_14 - x5_14 >= -2
tri1_2_5_15: t2_5_15 - x2_5 <= 0
tri2_2_5_15: t2_5_15 - x2_15 <= 0
tri3_2_5_15: t2_5_15 - x5_15 <= 0
tri4_2_5_15: t2_5_15 - x2_5 - x2_15 - x5_15 >= -2
tri1_2_5_16: t2_5_16 - x2_5 <= 0
tri2_2_5_16: t2_5_16 - x2_16 <= 0
tri3_2_5_16: t2_5_16 - x5_16 <= 0
tri4_2_5_16: t2_5_16 - x2_5 - x2_16 - x5_16 >= -2
tri1_2_6_7: t2_6_7 - x2_6 <= 0
tri2_2_6_7: t2_6_7 - x2_7 <= 0
tri3_2_6_7: t2_6_7 - x6_7 <= 0
tri4_2_6_7: t2_6_7 - x2_6 - x2_7 - x6_7 >= -2
tri1_2_6_8: t2_6_8 - x2_6 <= 0
tri2_2_6_8: t2_6_8 - x2_8 <= 0
tri3_2_6_8: t2_6_8 - x6_8 <= 0
tri4_2_6_8: t2_6_8 - x2_6 - x2_8 - x6_8 >= -2
tri1_2_6_9: t2_6_9 - x2_6 <= 0
tri2_2_6_9: t2_6_9 - x2_9 <= 0
tri3_2_6_9: t2_6_9 - x6_9 <= 0
tri4_2_6_9: t2_6_9 - x2_6 - x2_9 - x6_9 >= -2
tri1_2_6_10: t2_6_10 - x2_6 <= 0
tri2_2_6_10: t2_6_10 - x2_10 <= 0
tri3_2_6_10: t2_6_10 - x6_10 <= 0
tri4_2_6_10: t2_6_10 - x2_6 - x2_10 - x6_10 >= -2
tri1_2_6_11: t2_6_11 - x2_6 <= 0
tri2_2_6_11: t2_6_11 - x2_11 <= 0
tri3_2_6_11: t2_6_11 - x6_11 <= 0
tri4_2_6_11: t2_6_11 - x2_6 - x2_11 - x6_11 >= -2
tri1_2_6_12: t2_6_12 - x2_6 <= 0
tri2_2_6_12: t2_6_12 - x2_12 <= 0
tri3_2_6_12: t2_6_12 - x6_12 <= 0
tri4_2_6_12: t2_6_12 - x2_6 - x2_12 - x6_12 >= -2
tri1_2_6_13: t2_6_13 - x2_6 <= 0
tri2_2_6_13: t2_6_13 - x2_13 <= 0
tri3_2_6_13: t2_6_13 - x6_13 <= 0
tri4_2_6_13: t2_6_13 - x2_6 - x2_13 - x6_13 >= -2
tri1_2_6_14: t2_6_14 - x2_6 <= 0
tri2_2_6_14: t2_6_14 - x2_14 <= 0
tri3_2_6_14: t2_6_14 - x6_14 <= 0
tri4_2_6_14: t2_6_14 - x2_6 - x2_14 - x6_14 >= -2
tri1_2_6_15: t2_6_15 - x2_6 <= 0
tri2_2_6_15: t2_6_15 - x2_15 <= 0
tri3_2_6_15: t2_6_15 - x6_15 <= 0
tri4_2_6_15: t2_6_15 - x2_6 - x2_15 - x6_15 >= -2
tri1_2_6_16: t2_6_16 - x2_6 <= 0
tri2_2_6_16: t2_6_16 - x2_16 <= 0
tri3_2_6_16: t2_6_16 - x6_16 <= 0
tri4_2_6_16: t2_6_16 - x2_6 - x2_16 - x6_16 >= -2
tri1_2_7_8: t2_7_8 - x2_7 <= 0
tri2_2_7_8: t2_7_8 - x2_8 <= 0
tri3_2_7_8: t2_7_8 - x7_8 <= 0
tri4_2_7_8: t2_7_8 - x2_7 - x2_8 - x7_8 >= -2
tri1_2_7_9: t2_7_9 - x2_7 <= 0
tri2_2_7_9: t2_7_9 - x2_9 <= 0
tri3_2_7_9: t2_7_9 - x7_9 <= 0
tri4_2_7_9: t2_7_9 - x2_7 - x2_9 - x7_9 >= -2
tri1_2_7_10: t2_7_10 - x2_7 <= 0
tri2_2_7_10: t2_7_10 - x2_10 <= 0
tri3_2_7_10: t2_7_10 - x7_10 <= 0
tri4_2_7_10: t2_7_10 - x2_7 - x2_10 - x7_10 >= -2
tri1_2_7_11: t2_7_11 - x2_7 <= 0
tri2_2_7_11: t2_7_11 - x2_11 <= 0
tri3_2_7_11: t2_7_11 - x7_11 <= 0
tri4_2_7_11: t2_7_11 - x2_7 - x2_11 - x7_11 >= -2
tri1_2_7_12: t2_7_12 - x2_7 <= 0
tri2_2_7_12: t2_7_12 - x2_12 <= 0
tri3_2_7_12: t2_7_12 - x7_12 <= 0
tri4_2_7_12: t2_7_12 - x2_7 - x2_12 - x7_12 >= -2
tri1_2_7_13: t2_7_13 - x2_7 <= 0
tri2_2_7_13: t2_7_13 - x2_13 <= 0
tri3_2_7_13: t2_7_13 - x7_13 <= 0
tri4_2_7_13: t2_7_13 - x2_7 - x2_13 - x7_13 >= -2
tri1_2_7_14: t2_7_14 - x2_7 <= 0
tri2_2_7_14: t2_7_14 - x2_14 <= 0
tri3_2_7_14: t2_7_14 - x7_14 <= 0
tri4_2_7_14: t2_7_14 - x2_7 - x2_14 - x7_14 >= -2
tri1_2_7_15: t2_7_15 - x2_7 <= 0
tri2_2_7_15: t2_7_15 - x2_15 <= 0
tri3_2_7_15: t2_7_15 - x7_15 <= 0
tri4_2_7_15: t2_7_15 - x2_7 - x2_15 - x7_15 >= -2
tri1_2_7_16: t2_7_16 - x2_7 <= 0
tri2_2_7_16: t2_7_16 - x2_16 <= 0
tri3_2_7_16: t2_7_16 - x7_16 <= 0
tri4_2_7_16: t2_7_16 - x2_7 - x2_16 - x7_16 >= -2
tri1_2_8_9: t2_8_9 - x2_8 <= 0
tri2_2_8_9: t2_8_9 - x2_9 <= 0
tri3_2_8_9: t2_8_9 - x8_9 <= 0
tri4_2_8_9: t2_8_9 - x2_8 - x2_9 - x8_9 >= -2
tri1_2_8_10: t2_8_10 - x2_8 <= 0
tri2_2_8_10: t2_8_10 - x2_10 <= 0
tri3_2_8_10: t2_8_10 - x8_10 <= 0
tri4_2_8_10: t2_8_10 - x2_8 - x2_10 - x8_10 >= -2
tri1_2_8_11: t2_8_11 - x2_8 <= 0
tri2_2_8_11: t2_8_11 - x2_11 <= 0
tri3_2_8_11: t2_8_11 - x8_11 <= 0
tri4_2_8_11: t2_8_11 - x2_8 - x2_11 - x8_11 >= -2
tri1_2_8_12: t2_8_12 - x2_8 <= 0
tri2_2_8_12: t2_8_12 - x2_12 <= 0
tri3_2_8_12: t2_8_12 - x8_12 <= 0
tri4_2_8_12: t2_8_12 - x2_8 - x2_12 - x8_12 >= -2
tri1_2_8_13: t2_8_13 - x2_8 <= 0
tri2_2_8_13: t2_8_13 - x2_13 <= 0
tri3_2_8_13: t2_8_13 - x8_13 <= 0
tri4_2_8_13: t2_8_13 - x2_8 - x2_13 - x8_13 >= -2
tri1_2_8_14: t2_8_14 - x2_8 <= 0
tri2_2_8_14: t2_8_14 - x2_14 <= 0
tri3_2_8_14: t2_8_14 - x8_14 <= 0
tri4_2_8_14: t2_8_14 - x2_8 - x2_14 - x8_14 >= -2
tri1_2_8_15: t2_8_15 - x2_8 <= 0
tri2_2_8_15: t2_8_15 - x2_15 <= 0
tri3_2_8_15: t2_8_15 - x8_15 <= 0
tri4_2_8_15: t2_8_15 - x2_8 - x2_15 - x8_15 >= -2
tri1_2_8_16: t2_8_16 - x2_8 <= 0
tri2_2_8_16: t2_8_16 - x2_16 <= 0
tri3_2_8_16: t2_8_16 - x8_16 <= 0
tri4_2_8_16: t2_8_16 - x2_8 - x2_16 - x8_16 >= -2
tri1_2_9_10: t2_9_10 - x2_9 <= 0
tri2_2_9_10: t2_9_10 - x2_10 <= 0
tri3_2_9_10: t2_9_10 - x9_10 <= 0
tri4_2_9_10: t2_9_10 - x2_9 - x2_10 - x9_10 >= -2
tri1_2_9_11: t2_9_11 - x2_9 <= 0
tri2_2_9_11: t2_9_11 - x2_11 <= 0
tri3_2_9_11: t2_9_11 - x9_11 <= 0
tri4_2_9_11: t2_9_11 - x2_9 - x2_11 - x9_11 >= -2
tri1_2_9_12: t2_9_12 - x2_9 <= 0
tri2_2_9_12: t2_9_12 - x2_12 <= 0
tri3_2_9_12: t2_9_12 - x9_12 <= 0
tri4_2_9_12: t2_9_12 - x2_9 - x2_12 - x9_12 >= -2
tri1_2_9_13: t2_9_13 - x2_9 <= 0
tri2_2_9_13: t2_9_13 - x2_13 <= 0
tri3_2_9_13: t2_9_13 - x9_13 <= 0
tri4_2_9_13: t2_9_13 - x2_9 - x2_13 - x9_13 >= -2
tri1_2_9_14: t2_9_14 - x2_9 <= 0
tri2_2_9_14: t2_9_14 - x2_14 <= 0
tri3_2_9_14: t2_9_14 - x9_14 <= 0
tri4_2_9_14: t2_9_14 - x2_9 - x2_14 - x9_14 >= -2
tri1_2_9_15: t2_9_15 - x2_9 <= 0
tri2_2_9_15: t2_9_15 - x2_15 <= 0
tri3_2_9_15: t2_9_15 - x9_15 <= 0
tri4_2_9_15: t2_9_15 - x2_9 - x2_15 - x9_15 >= -2
tri1_2_9_16: t2_9_16 - x2_9 <= 0
tri2_2_9_16: t2_9_16 - x2_16 <= 0
tri3_2_9_16: t2_9_16 - x9_16 <= 0
tri4_2_9_16: t2_9_16 - x2_9 - x2_16 - x9_16 >= -2
tri1_2_10_11: t2_10_11 - x2_10 <= 0
tri2_2_10_11: t2_10_11 - x2_11 <= 0
tri3_2_10_11: t2_10_11 - x10_11 <= 0
tri4_2_10_11: t2_10_11 - x2_10 - x2_11 - x10_11 >= -2
tri1_2_10_12: t2_10_12 - x2_10 <= 0
tri2_2_10_12: t2_10_12 - x2_12 <= 0
tri3_2_10_12: t2_10_12 - x10_12 <= 0
tri4_2_10_12: t2_10_12 - x2_10 - x2_12 - x10_12 >= -2
tri1_2_10_13: t2_10_13 - x2_10 <= 0
tri2_2_10_13: t2_10_13 - x2_13 <= 0
tri3_2_10_13: t2_10_13 - x10_13 <= 0
tri4_2_10_13: t2_10_13 - x2_10 - x2_13 - x10_13 >= -2
tri1_2_10_14: t2_10_14 - x2_10 <= 0
tri2_2_10_14: t2_10_14 - x2_14 <= 0
tri3_2_10_14: t2_10_14 - x10_14 <= 0
tri4_2_10_14: t2_10_14 - x2_10 - x2_14 - x10_14 >= -2
tri1_2_10_15: t2_10_15 - x2_10 <= 0
tri2_2_10_15: t2_10_15 - x2_15 <= 0
tri3_2_10_15: t2_10_15 - x10_15 <= 0
tri4_2_10_15: t2_10_15 - x2_10 - x2_15 - x10_15 >= -2
tri1_2_10_16: t2_10_16 - x2_10 <= 0
tri2_2_10_16: t2_10_16 - x2_16 <= 0
tri3_2_10_16: t2_10_16 - x10_16 <= 0
tri4_2_10_16: t2_10_16 - x2_10 - x2_16 - x10_16 >= -2
tri1_2_11_12: t2_11_12 - x2_11 <= 0
tri2_2_11_12: t2_11_12 - x2_12 <= 0
tri3_2_11_12: t2_11_12 - x11_12 <= 0
tri4_2_11_12: t2_11_12 - x2_11 - x2_12 - x11_12 >= -2
tri1_2_11_13: t2_11_13 - x2_11 <= 0
tri2_2_11_13: t2_11_13 - x2_13 <= 0
tri3_2_11_13: t2_11_13 - x11_13 <= 0
tri4_2_11_13: t2_11_13 - x2_11 - x2_13 - x11_13 >= -2
tri1_2_11_14: t2_11_14 - x2_11 <= 0
tri2_2_11_14: t2_11_14 - x2_14 <= 0
tri3_2_11_14: t2_11_14 - x11_14 <= 0
tri4_2_11_14: t2_11_14 - x2_11 - x2_14 - x11_14 >= -2
tri1_2_11_15: t2_11_15 - x2_11 <= 0
tri2_2_11_15: t2_11_15 - x2_15 <= 0
tri3_2_11_15: t2_11_15 - x11_15 <= 0
tri4_2_11_15: t2_11_15 - x2_11 - x2_15 - x11_15 >= -2
tri1_2_11_16: t2_11_16 - x2_11 <= 0
tri2_2_11_16: t2_11_16 - x2_16 <= 0
tri3_2_11_16: t2_11_16 - x11_16 <= 0
tri4_2_11_16: t2_11_16 - x2_11 - x2_16 - x11_16 >= -2
tri1_2_12_13: t2_12_13 - x2_12 <= 0
tri2_2_12_13: t2_12_13 - x2_13 <= 0
tri3_2_12_13: t2_12_13 - x12_13 <= 0
tri4_2_12_13: t2_12_13 - x2_12 - x2_13 - x12_13 >= -2
tri1_2_12_14: t2_12_14 - x2_12 <= 0
tri2_2_12_14: t2_12_14 - x2_14 <= 0
tri3_2_12_14: t2_12_14 - x12_14 <= 0
tri4_2_12_14: t2_12_14 - x2_12 - x2_14 - x12_14 >= -2
tri1_2_12_15: t2_12_15 - x2_12 <= 0
tri2_2_12_15: t2_12_15 - x2_15 <= 0
tri3_2_12_15: t2_12_15 - x12_15 <= 0
tri4_2_12_15: t2_12_15 - x2_12 - x2_15 - x12_15 >= -2
tri1_2_12_16: t2_12_16 - x2_12 <= 0
tri2_2_12_16: t2_12_16 - x2_16 <= 0
tri3_2_12_16: t2_12_16 - x12_16 <= 0
tri4_2_12_16: t2_12_16 - x2_12 - x2_16 - x12_16 >= -2
tri1_2_13_14: t2_13_14 - x2_13 <= 0
tri2_2_13_14: t2_13_14 - x2_14 <= 0
tri3_2_13_14: t2_13_14 - x13_14 <= 0
tri4_2_13_14: t2_13_14 - x2_13 - x2_14 - x13_14 >= -2
tri1_2_13_15: t2_13_15 - x2_13 <= 0
tri2_2_13_15: t2_13_15 - x2_15 <= 0
tri3_2_13_15: t2_13_15 - x13_15 <= 0
tri4_2_13_15: t2_13_15 - x2_13 - x2_15 - x13_15 >= -2
tri1_2_13_16: t2_13_16 - x2_13 <= 0
tri2_2_13_16: t2_13_16 - x2_16 <= 0
tri3_2_13_16: t2_13_16 - x13_16 <= 0
tri4_2_13_16: t2_13_16 - x2_13 - x2_16 - x13_16 >= -2
tri1_2_14_15: t2_14_15 - x2_14 <= 0
tri2_2_14_15: t2_14_15 - x2_15 <= 0
tri3_2_14_15: t2_14_15 - x14_15 <= 0
tri4_2_14_15: t2_14_15 - x2_14 - x2_15 - x14_15 >= -2
tri1_2_14_16: t2_14_16 - x2_14 <= 0
tri2_2_14_16: t2_14_16 - x2_16 <= 0
tri3_2_14_16: t2_14_16 - x14_16 <= 0
tri4_2_14_16: t2_14_16 - x2_14 - x2_16 - x14_16 >= -2
tri1_2_15_16: t2_15_16 - x2_15 <= 0
tri2_2_15_16: t2_15_16 - x2_16 <= 0
tri3_2_15_16: t2_15_16 - x15_16 <= 0
tri4_2_15_16: t2_15_16 - x2_15 - x2_16 - x15_16 >= -2
tri1_3_4_5: t3_4_5 - x3_4 <= 0
tri2_3_4_5: t3_4_5 - x3_5 <= 0
tri3_3_4_5: t3_4_5 - x4_5 <= 0
tri4_3_4_5: t3_4_5 - x3_4 - x3_5 - x4_5 >= -2
tri1_3_4_6: t3_4_6 - x3_4 <= 0
tri2_3_4_6: t3_4_6 - x3_6 <= 0
tri3_3_4_6: t3_4_6 - x4_6 <= 0
tri4_3_4_6: t3_4_6 - x3_4 - x3_6 - x4_6 >= -2
tri1_3_4_7: t3_4_7 - x3_4 <= 0
tri2_3_4_7: t3_4_7 - x3_7 <= 0
tri3_3_4_7: t3_4_7 - x4_7 <= 0
tri4_3_4_7: t3_4_7 - x3_4 - x3_7 - x4_7 >= -2
tri1_3_4_8: t3_4_8 - x3_4 <= 0
tri2_3_4_8: t3_4_8 - x3_8 <= 0
tri3_3_4_8: t3_4_8 - x4_8 <= 0
tri4_3_4_8: t3_4_8 - x3_4 - x3_8 - x4_8 >= -2
tri1_3_4_9: t3_4_9 - x3_4 <= 0
tri2_3_4_9: t3_4_9 - x3_9 <= 0
tri3_3_4_9: t3_4_9 - x4_9 <= 0
tri4_3_4_9: t3_4_9 - x3_4 - x3_9 - x4_9 >= -2
tri1_3_4_10: t3_4_10 - x3_4 <= 0
tri2_3_4_10: t3_4_10 - x3_10 <= 0
tri3_3_4_10: t3_4_10 - x4_10 <= 0
tri4_3_4_10: t3_4_10 - x3_4 - x3_10 - x4_10 >= -2
tri1_3_4_11: t3_4_11 - x3_4 <= 0
tri2_3_4_11: t3_4_11 - x3_11 <= 0
tri3_3_4_11: t3_4_11 - x4_11 <= 0
tri4_3_4_11: t3_4_11 - x3_4 - x3_11 - x4_11 >= -2
tri1_3_4_12: t3_4_12 - x3_4 <= 0
tri2_3_4_12: t3_4_12 - x3_12 <= 0
tri3_3_4_12: t3_4_12 - x4_12 <= 0
tri4_3_4_12: t3_4_12 - x3_4 - x3_12 - x4_12 >= -2
tri1_3_4_13: t3_4_13 - x3_4 <= 0
tri2_3_4_13: t3_4_13 - x3_13 <= 0
tri3_3_4_13: t3_4_13 - x4_13 <= 0
tri4_3_4_13: t3_4_13 - x3_4 - x3_13 - x4_13 >= -2
tri1_3_4_14: t3_4_14 - x3_4 <= 0
tri2_3_4_14: t3_4_14 - x3_14 <= 0
tri3_3_4_14: t3_4_14 - x4_14 <= 0
tri4_3_4_14: t3_4_14 - x3_4 - x3_14 - x4_14 >= -2
tri1_3_4_15: t3_4_15 - x3_4 <= 0
tri2_3_4_15: t3_4_15 - x3_15 <= 0
tri3_3_4_15: t3_4_15 - x4_15 <= 0
tri4_3_4_15: t3_4_15 - x3_4 - x3_15 - x4_15 >= -2
tri1_3_4_16: t3_4_16 - x3_4 <= 0
tri2_3_4_16: t3_4_16 - x3_16 <= 0
tri3_3_4_16: t3_4_16 - x4_16 <= 0
tri4_3_4_16: t3_4_16 - x3_4 - x3_16 - x4_16 >= -2
tri1_3_5_6: t3_5_6 - x3_5 <= 0
tri2_3_5_6: t3_5_6 - x3_6 <= 0
tri3_3_5_6: t3_5_6 - x5_6 <= 0
tri4_3_5_6: t3_5_6 - x3_5 - x3_6 - x5_6 >= -2
tri1_3_5_7: t3_5_7 - x3_5 <= 0
tri2_3_5_7: t3_5_7 - x3_7 <= 0
tri3_3_5_7: t3_5_7 - x5_7 <= 0
tri4_3_5_7: t3_5_7 - x3_5 - x3_7 - x5_7 >= -2
tri1_3_5_8: t3_5_8 - x3_5 <= 0
tri2_3_5_8: t3_5_8 - x3_8 <= 0
tri3_3_5_8: t3_5_8 - x5_8 <= 0
tri4_3_5_8: t3_5_8 - x3_5 - x3_8 - x5_8 >= -2
tri1_3_5_9: t3_5_9 - x3_5 <= 0
tri2_3_5_9: t3_5_9 - x3_9 <= 0
tri3_3_5_9: t3_5_9 - x5_9 <= 0
tri4_3_5_9: t3_5_9 - x3_5 - x3_9 - x5_9 >= -2
tri1_3_5_10: t3_5_10 - x3_5 <= 0
tri2_3_5_10: t3_5_10 - x3_10 <= 0
tri3_3_5_10: t3_5_10 - x5_10 <= 0
tri4_3_5_10: t3_5_10 - x3_5 - x3_10 - x5_10 >= -2
tri1_3_5_11: t3_5_11 - x3_5 <= 0
tri2_3_5_11: t3_5_11 - x3_11 <= 0
tri3_3_5_11: t3_5_11 - x5_11 <= 0
tri4_3_5_11: t3_5_11 - x3_5 - x3_11 - x5_11 >= -2
tri1_3_5_12: t3_5_12 - x3_5 <= 0
tri2_3_5_12: t3_5_12 - x3_12 <= 0
tri3_3_5_12: t3_5_12 - x5_12 <= 0
tri4_3_5_12: t3_5_12 - x3_5 - x3_12 - x5_12 >= -2
tri1_3_5_13: t3_5_13 - x3_5 <= 0
tri2_3_5_13: t3_5_13 - x3_13 <= 0
tri3_3_5_13: t3_5_13 - x5_13 <= 0
tri4_3_5_13: t3_5_13 - x3_5 - x3_13 - x5_13 >= -2
tri1_3_5_14: t3_5_14 - x3_5 <= 0
tri2_3_5_14: t3_5_14 - x3_14 <= 0
tri3_3_5_14: t3_5_14 - x5_14 <= 0
tri4_3_5_14: t3_5_14 - x3_5 - x3_14 - x5_14 >= -2
tri1_3_5_15: t3_5_15 - x3_5 <= 0
tri2_3_5_15: t3_5_15 - x3_15 <= 0
tri3_3_5_15: t3_5_15 - x5_15 <= 0
tri4_3_5_15: t3_5_15 - x3_5 - x3_15 - x5_15 >= -2
tri1_3_5_16: t3_5_16 - x3_5 <= 0
tri2_3_5_16: t3_5_16 - x3_16 <= 0
tri3_3_5_16: t3_5_16 - x5_16 <= 0
tri4_3_5_16: t3_5_16 - x3_5 - x3_16 - x5_16 >= -2
tri1_3_6_7: t3_6_7 - x3_6 <= 0
tri2_3_6_7: t3_6_7 - x3_7 <= 0
tri3_3_6_7: t3_6_7 - x6_7 <= 0
tri4_3_6_7: t3_6_7 - x3_6 - x3_7 - x6_7 >= -2
tri1_3_6_8: t3_6_8 - x3_6 <= 0
tri2_3_6_8: t3_6_8 - x3_8 <= 0
tri3_3_6_8: t3_6_8 - x6_8 <= 0
tri4_3_6_8: t3_6_8 - x3_6 - x3_8 - x6_8 >= -2
tri1_3_6_9: t3_6_9 - x3_6 <= 0
tri2_3_6_9: t3_6_9 - x3_9 <= 0
tri3_3_6_9: t3_6_9 - x6_9 <= 0
tri4_3_6_9: t3_6_9 - x3_6 - x3_9 - x6_9 >= -2
tri1_3_6_10: t3_6_10 - x3_6 <= 0
tri2_3_6_10: t3_6_10 - x3_10 <= 0
tri3_3_6_10: t3_6_10 - x6_10 <= 0
tri4_3_6_10: t3_6_10 - x3_6 - x3_10 - x6_10 >= -2
tri1_3_6_11: t3_6_11 - x3_6 <= 0
tri2_3_6_11: t3_6_11 - x3_11 <= 0
tri3_3_6_11: t3_6_11 - x6_11 <= 0
tri4_3_6_11: t3_6_11 - x3_6 - x3_11 - x6_11 >= -2
tri1_3_6_12: t3_6_12 - x3_6 <= 0
tri2_3_6_12: t3_6_12 - x3_12 <= 0
tri3_3_6_12: t3_6_12 - x6_12 <= 0
tri4_3_6_12: t3_6_12 - x3_6 - x3_12 - x6_12 >= -2
tri1_3_6_13: t3_6_13 - x3_6 <= 0
tri2_3_6_13: t3_6_13 - x3_13 <= 0
tri3_3_6_13: t3_6_13 - x6_13 <= 0
tri4_3_6_13: t3_6_13 - x3_6 - x3_13 - x6_13 >= -2
tri1_3_6_14: t3_6_14 - x3_6 <= 0
tri2_3_6_14: t3_6_14 - x3_14 <= 0
tri3_3_6_14: t3_6_14 - x6_14 <= 0
tri4_3_6_14: t3_6_14 - x3_6 - x3_14 - x6_14 >= -2
tri1_3_6_15: t3_6_15 - x3_6 <= 0
tri2_3_6_15: t3_6_15 - x3_15 <= 0
tri3_3_6_15: t3_6_15 - x6_15 <= 0
tri4_3_6_15: t3_6_15 - x3_6 - x3_15 - x6_15 >= -2
tri1_3_6_16: t3_6_16 - x3_6 <= 0
tri2_3_6_16: t3_6_16 - x3_16 <= 0
tri3_3_6_16: t3_6_16 - x6_16 <= 0
tri4_3_6_16: t3_6_16 - x3_6 - x3_16 - x6_16 >= -2
tri1_3_7_8: t3_7_8 - x3_7 <= 0
tri2_3_7_8: t3_7_8 - x3_8 <= 0
tri3_3_7_8: t3_7_8 - x7_8 <= 0
tri4_3_7_8: t3_7_8 - x3_7 - x3_8 - x7_8 >= -2
tri1_3_7_9: t3_7_9 - x3_7 <= 0
tri2_3_7_9: t3_7_9 - x3_9 <= 0
tri3_3_7_9: t3_7_9 - x7_9 <= 0
tri4_3_7_9: t3_7_9 - x3_7 - x3_9 - x7_9 >= -2
tri1_3_7_10: t3_7_10 - x3_7 <= 0
tri2_3_7_10: t3_7_10 - x3_10 <= 0
tri3_3_7_10: t3_7_10 - x7_10 <= 0
tri4_3_7_10: t3_7_10 - x3_7 - x3_10 - x7_10 >= -2
tri1_3_7_11: t3_7_11 - x3_7 <= 0
tri2_3_7_11: t3_7_11 - x3_11 <= 0
tri3_3_7_11: t3_7_11 - x7_11 <= 0
tri4_3_7_11: t3_7_11 - x3_7 - x3_11 - x7_11 >= -2
tri1_3_7_12: t3_7_12 - x3_7 <= 0
tri2_3_7_12: t3_7_12 - x3_12 <= 0
tri3_3_7_12: t3_7_12 - x7_12 <= 0
tri4_3_7_12: t3_7_12 - x3_7 - x3_12 - x7_12 >= -2
tri1_3_7_13: t3_7_13 - x3_7 <= 0
tri2_3_7_13: t3_7_13 - x3_13 <= 0
tri3_3_7_13: t3_7_13 - x7_13 <= 0
tri4_3_7_13: t3_7_13 - x3_7 - x3_13 - x7_13 >= -2
tri1_3_7_14: t3_7_14 - x3_7 <= 0
tri2_3_7_14: t3_7_14 - x3_14 <= 0
tri3_3_7_14: t3_7_14 - x7_14 <= 0
tri4_3_7_14: t3_7_14 - x3_7 - x3_14 - x7_14 >= -2
tri1_3_7_15: t3_7_15 - x3_7 <= 0
tri2_3_7_15: t3_7_15 - x3_15 <= 0
tri3_3_7_15: t3_7_15 - x7_15 <= 0
tri4_3_7_15: t3_7_15 - x3_7 - x3_15 - x7_15 >= -2
tri1_3_7_16: t3_7_16 - x3_7 <= 0
tri2_3_7_16: t3_7_16 - x3_16 <= 0
tri3_3_7_16: t3_7_16 - x7_16 <= 0
tri4_3_7_16: t3_7_16 - x3_7 - x3_16 - x7_16 >= -2
tri1_3_8_9: t3_8_9 - x3_8 <= 0
tri2_3_8_9: t3_8_9 - x3_9 <= 0
tri3_3_8_9: t3_8_9 - x8_9 <= 0
tri4_3_8_9: t3_8_9 - x3_8 - x3_9 - x8_9 >= -2
tri1_3_8_10: t3_8_10 - x3_8 <= 0
tri2_3_8_10: t3_8_10 - x3_10 <= 0
tri3_3_8_10: t3_8_10 - x8_10 <= 0
tri4_3_8_10: t3_8_10 - x3_8 - x3_10 - x8_10 >= -2
tri1_3_8_11: t3_8_11 - x3_8 <= 0
tri2_3_8_11: t3_8_11 - x3_11 <= 0
tri3_3_8_11: t3_8_11 - x8_11 <= 0
tri4_3_8_11: t3_8_11 - x3_8 - x3_11 - x8_11 >= -2
tri1_3_8_12: t3_8_12 - x3_8 <= 0
tri2_3_8_12: t3_8_12 - x3_12 <= 0
tri3_3_8_12: t3_8_12 - x8_12 <= 0
tri4_3_8_12: t3_8_12 - x3_8 - x3_12 - x8_12 >= -2
tri1_3_8_13: t3_8_13 - x3_8 <= 0
tri2_3_8_13: t3_8_13 - x3_13 <= 0
tri3_3_8_13: t3_8_13 - x8_13 <= 0
tri4_3_8_13: t3_8_13 - x3_8 - x3_13 - x8_13 >= -2
tri1_3_8_14: t3_8_14 - x3_8 <= 0
tri2_3_8_14: t3_8_14 - x3_14 <= 0
tri3_3_8_14: t3_8_14 - x8_14 <= 0
tri4_3_8_14: t3_8_14 - x3_8 - x3_14 - x8_14 >= -2
tri1_3_8_15: t3_8_15 - x3_8 <= 0
tri2_3_8_15: t3_8_15 - x3_15 <= 0
tri3_3_8_15: t3_8_15 - x8_15 <= 0
tri4_3_8_15: t3_8_15 - x3_8 - x3_15 - x8_15 >= -2
tri1_3_8_16: t3_8_16 - x3_8 <= 0
tri2_3_8_16: t3_8_16 - x3_16 <= 0
tri3_3_8_16: t3_8_16 - x8_16 <= 0
tri4_3_8_16: t3_8_16 - x3_8 - x3_16 - x8_16 >= -2
tri1_3_9_10: t3_9_10 - x3_9 <= 0
tri2_3_9_10: t3_9_10 - x3_10 <= 0
tri3_3_9_10: t3_9_10 - x9_10 <= 0
tri4_3_9_10: t3_9_10 - x3_9 - x3_10 - x9_10 >= -2
tri1_3_9_11: t3_9_11 - x3_9 <= 0
tri2_3_9_11: t3_9_11 - x3_11 <= 0
tri3_3_9_11: t3_9_11 - x9_11 <= 0
tri4_3_9_11: t3_9_11 - x3_9 - x3_11 - x9_11 >= -2
tri1_3_9_12: t3_9_12 - x3_9 <= 0
tri2_3_9_12: t3_9_12 - x3_12 <= 0
tri3_3_9_12: t3_9_12 - x9_12 <= 0
tri4_3_9_12: t3_9_12 - x3_9 - x3_12 - x9_12 >= -2
tri1_3_9_13: t3_9_13 - x3_9 <= 0
tri2_3_9_13: t3_9_13 - x3_13 <= 0
tri3_3_9_13: t3_9_13 - x9_13 <= 0
tri4_3_9_13: t3_9_13 - x3_9 - x3_13 - x9_13 >= -2
tri1_3_9_14: t3_9_14 - x3_9 <= 0
tri2_3_9_14: t3_9_14 - x3_14 <= 0
tri3_3_9_14: t3_9_14 - x9_14 <= 0
tri4_3_9_14: t3_9_14 - x3_9 - x3_14 - x9_14 >= -2
tri1_3_9_15: t3_9_15 - x3_9 <= 0
tri2_3_9_15: t3_9_15 - x3_15 <= 0
tri3_3_9_15: t3_9_15 - x9_15 <= 0
tri4_3_9_15: t3_9_15 - x3_9 - x3_15 - x9_15 >= -2
tri1_3_9_16: t3_9_16 - x3_9 <= 0
tri2_3_9_16: t3_9_16 - x3_16 <= 0
tri3_3_9_16: t3_9_16 - x9_16 <= 0
tri4_3_9_16: t3_9_16 - x3_9 - x3_16 - x9_16 >= -2
tri1_3_10_11: t3_10_11 - x3_10 <= 0
tri2_3_10_11: t3_10_11 - x3_11 <= 0
tri3_3_10_11: t3_10_11 - x10_11 <= 0
tri4_3_10_11: t3_10_11 - x3_10 - x3_11 - x10_11 >= -2
tri1_3_10_12: t3_10_12 - x3_10 <= 0
tri2_3_10_12: t3_10_12 - x3_12 <= 0
tri3_3_10_12: t3_10_12 - x10_12 <= 0
tri4_3_10_12: t3_10_12 - x3_10 - x3_12 - x10_12 >= -2
tri1_3_10_13: t3_10_13 - x3_10 <= 0
tri2_3_10_13: t3_10_13 - x3_13 <= 0
tri3_3_10_13: t3_10_13 - x10_13 <= 0
tri4_3_10_13: t3_10_13 - x3_10 - x3_13 - x10_13 >= -2
tri1_3_10_14: t3_10_14 - x3_10 <= 0
tri2_3_10_14: t3_10_14 - x3_14 <= 0
tri3_3_10_14: t3_10_14 - x10_14 <= 0
tri4_3_10_14: t3_10_14 - x3_10 - x3_14 - x10_14 >= -2
tri1_3_10_15: t3_10_15 - x3_10 <= 0
tri2_3_10_15: t3_10_15 - x3_15 <= 0
tri3_3_10_15: t3_10_15 - x10_15 <= 0
tri4_3_10_15: t3_10_15 - x3_10 - x3_15 - x10_15 >= -2
tri1_3_10_16: t3_10_16 - x3_10 <= 0
tri2_3_10_16: t3_10_16 - x3_16 <= 0
tri3_3_10_16: t3_10_16 - x10_16 <= 0
tri4_3_10_16: t3_10_16 - x3_10 - x3_16 - x10_16 >= -2
tri1_3_11_12: t3_11_12 - x3_11 <= 0
tri2_3_11_12: t3_11_12 - x3_12 <= 0
tri3_3_11_12: t3_11_12 - x11_12 <= 0
tri4_3_11_12: t3_11_12 - x3_11 - x3_12 - x11_12 >= -2
tri1_3_11_13: t3_11_13 - x3_11 <= 0
tri2_3_11_13: t3_11_13 - x3_13 <= 0
tri3_3_11_13: t3_11_13 - x11_13 <= 0
tri4_3_11_13: t3_11_13 - x3_11 - x3_13 - x11_13 >= -2
tri1_3_11_14: t3_11_14 - x3_11 <= 0
tri2_3_11_14: t3_11_14 - x3_14 <= 0
tri3_3_11_14: t3_11_14 - x11_14 <= 0
tri4_3_11_14: t3_11_14 - x3_11 - x3_14 - x11_14 >= -2
tri1_3_11_15: t3_11_15 - x3_11 <= 0
tri2_3_11_15: t3_11_15 - x3_15 <= 0
tri3_3_11_15: t3_11_15 - x11_15 <= 0
tri4_3_11_15: t3_11_15 - x3_11 - x3_15 - x11_15 >= -2
tri1_3_11_16: t3_11_16 - x3_11 <= 0
tri2_3_11_16: t3_11_16 - x3_16 <= 0
tri3_3_11_16: t3_11_16 - x11_16 <= 0
tri4_3_11_16: t3_11_16 - x3_11 - x3_16 - x11_16 >= -2
tri1_3_12_13: t3_12_13 - x3_12 <= 0
tri2_3_12_13: t3_12_13 - x3_13 <= 0
tri3_3_12_13: t3_12_13 - x12_13 <= 0
tri4_3_12_13: t3_12_13 - x3_12 - x3_13 - x12_13 >= -2
tri1_3_12_14: t3_12_14 - x3_12 <= 0
tri2_3_12_14: t3_12_14 - x3_14 <= 0
tri3_3_12_14: t3_12_14 - x12_14 <= 0
tri4_3_12_14: t3_12_14 - x3_12 - x3_14 - x12_14 >= -2
tri1_3_12_15: t3_12_15 - x3_12 <= 0
tri2_3_12_15: t3_12_15 - x3_15 <= 0
tri3_3_12_15: t3_12_15 - x12_15 <= 0
tri4_3_12_15: t3_12_15 - x3_12 - x3_15 - x12_15 >= -2
tri1_3_12_16: t3_12_16 - x3_12 <= 0
tri2_3_12_16: t3_12_16 - x3_16 <= 0
tri3_3_12_16: t3_12_16 - x12_16 <= 0
tri4_3_12_16: t3_12_16 - x3_12 - x3_16 - x12_16 >= -2
tri1_3_13_14: t3_13_14 - x3_13 <= 0
tri2_3_13_14: t3_13_14 - x3_14 <= 0
tri3_3_13_14: t3_13_14 - x13_14 <= 0
tri4_3_13_14: t3_13_14 - x3_13 - x3_14 - x13_14 >= -2
tri1_3_13_15: t3_13_15 - x3_13 <= 0
tri2_3_13_15: t3_13_15 - x3_15 <= 0
tri3_3_13_15: t3_13_15 - x13_15 <= 0
tri4_3_13_15: t3_13_15 - x3_13 - x3_15 - x13_15 >= -2
tri1_3_13_16: t3_13_16 - x3_13 <= 0
tri2_3_13_16: t3_13_16 - x3_16 <= 0
tri3_3_13_16: t3_13_16 - x13_16 <= 0
tri4_3_13_16: t3_13_16 - x3_13 - x3_16 - x13_16 >= -2
tri1_3_14_15: t3_14_15 - x3_14 <= 0
tri2_3_14_15: t3_14_15 - x3_15 <= 0
tri3_3_14_15: t3_14_15 - x14_15 <= 0
tri4_3_14_15: t3_14_15 - x3_14 - x3_15 - x14_15 >= -2
tri1_3_14_16: t3_14_16 - x3_14 <= 0
tri2_3_14_16: t3_14_16 - x3_16 <= 0
tri3_3_14_16: t3_14_16 - x14_16 <= 0
tri4_3_14_16: t3_14_16 - x3_14 - x3_16 - x14_16 >= -2
tri1_3_15_16: t3_15_16 - x3_15 <= 0
tri2_3_15_16: t3_15_16 - x3_16 <= 0
tri3_3_15_16: t3_15_16 - x15_16 <= 0
tri4_3_15_16: t3_15_16 - x3_15 - x3_16 - x15_16 >= -2
tri1_4_5_6: t4_5_6 - x4_5 <= 0
tri2_4_5_6: t4_5_6 - x4_6 <= 0
tri3_4_5_6: t4_5_6 - x5_6 <= 0
tri4_4_5_6: t4_5_6 - x4_5 - x4_6 - x5_6 >= -2
tri1_4_5_7: t4_5_7 - x4_5 <= 0
tri2_4_5_7: t4_5_7 - x4_7 <= 0
tri3_4_5_7: t4_5_7 - x5_7 <= 0
tri4_4_5_7: t4_5_7 - x4_5 - x4_7 - x5_7 >= -2
tri1_4_5_8: t4_5_8 - x4_5 <= 0
tri2_4_5_8: t4_5_8 - x4_8 <= 0
tri3_4_5_8: t4_5_8 - x5_8 <= 0
tri4_4_5_8: t4_5_8 - x4_5 - x4_8 - x5_8 >= -2
tri1_4_5_9: t4_5_9 - x4_5 <= 0
tri2_4_5_9: t4_5_9 - x4_9 <= 0
tri3_4_5_9: t4_5_9 - x5_9 <= 0
tri4_4_5_9: t4_5_9 - x4_5 - x4_9 - x5_9 >= -2
tri1_4_5_10: t4_5_10 - x4_5 <= 0
tri2_4_5_10: t4_5_10 - x4_10 <= 0
tri3_4_5_10: t4_5_10 - x5_10 <= 0
tri4_4_5_10: t4_5_10 - x4_5 - x4_10 - x5_10 >= -2
tri1_4_5_11: t4_5_11 - x4_5 <= 0
tri2_4_5_11: t4_5_11 - x4_11 <= 0
tri3_4_5_11: t4_5_11 - x5_11 <= 0
tri4_4_5_11: t4_5_11 - x4_5 - x4_11 - x5_11 >= -2
tri1_4_5_12: t4_5_12 - x4_5 <= 0
tri2_4_5_12: t4_5_12 - x4_12 <= 0
tri3_4_5_12: t4_5_12 - x5_12 <= 0
tri4_4_5_12: t4_5_12 - x4_5 - x4_12 - x5_12 >= -2
tri1_4_5_13: t4_5_13 - x4_5 <= 0
tri2_4_5_13: t4_5_13 - x4_13 <= 0
tri3_4_5_13: t4_5_13 - x5_13 <= 0
tri4_4_5_13: t4_5_13 - x4_5 - x4_13 - x5_13 >= -2
tri1_4_5_14: t4_5_14 - x4_5 <= 0
tri2_4_5_14: t4_5_14 - x4_14 <= 0
tri3_4_5_14: t4_5_14 - x5_14 <= 0
tri4_4_5_14: t4_5_14 - x4_5 - x4_14 - x5_14 >= -2
tri1_4_5_15: t4_5_15 - x4_5 <= 0
tri2_4_5_15: t4_5_15 - x4_15 <= 0
tri3_4_5_15: t4_5_15 - x5_15 <= 0
tri4_4_5_15: t4_5_15 - x4_5 - x4_15 - x5_15 >= -2
tri1_4_5_16: t4_5_16 - x4_5 <= 0
tri2_4_5_16: t4_5_16 - x4_16 <= 0
tri3_4_5_16: t4_5_16 - x5_16 <= 0
tri4_4_5_16: t4_5_16 - x4_5 - x4_16 - x5_16 >= -2
tri1_4_6_7: t4_6_7 - x4_6 <= 0
tri2_4_6_7: t4_6_7 - x4_7 <= 0
tri3_4_6_7: t4_6_7 - x6_7 <= 0
tri4_4_6_7: t4_6_7 - x4_6 - x4_7 - x6_7 >= -2
tri1_4_6_8: t4_6_8 - x4_6 <= 0
tri2_4_6_8: t4_6_8 - x4_8 <= 0
tri3_4_6_8: t4_6_8 - x6_8 <= 0
tri4_4_6_8: t4_6_8 - x4_6 - x4_8 - x6_8 >= -2
tri1_4_6_9: t4_6_9 - x4_6 <= 0
tri2_4_6_9: t4_6_9 - x4_9 <= 0
tri3_4_6_9: t4_6_9 - x6_9 <= 0
tri4_4_6_9: t4_6_9 - x4_6 - x4_9 - x6_9 >= -2
tri1_4_6_10: t4_6_10 - x4_6 <= 0
tri2_4_6_10: t4_6_10 - x4_10 <= 0
tri3_4_6_10: t4_6_10 - x6_10 <= 0
tri4_4_6_10: t4_6_10 - x4_6 - x4_10 - x6_10 >= -2
tri1_4_6_11: t4_6_11 - x4_6 <= 0
tri2_4_6_11: t4_6_11 - x4_11 <= 0
tri3_4_6_11: t4_6_11 - x6_11 <= 0
tri4_4_6_11: t4_6_11 - x4_6 - x4_11 - x6_11 >= -2
tri1_4_6_12: t4_6_12 - x4_6 <= 0
tri2_4_6_12: t4_6_12 - x4_12 <= 0
tri3_4_6_12: t4_6_12 - x6_12 <= 0
tri4_4_6_12: t4_6_12 - x4_6 - x4_12 - x6_12 >= -2
tri1_4_6_13: t4_6_13 - x4_6 <= 0
tri2_4_6_13: t4_6_13 - x4_13 <= 0
tri3_4_6_13: t4_6_13 - x6_13 <= 0
tri4_4_6_13: t4_6_13 - x4_6 - x4_13 - x6_13 >= -2
tri1_4_6_14: t4_6_14 - x4_6 <= 0
tri2_4_6_14: t4_6_14 - x4_14 <= 0
tri3_4_6_14: t4_6_14 - x6_14 <= 0
tri4_4_6_14: t4_6_14 - x4_6 - x4_14 - x6_14 >= -2
tri1_4_6_15: t4_6_15 - x4_6 <= 0
tri2_4_6_15: t4_6_15 - x4_15 <= 0
tri3_4_6_15: t4_6_15 - x6_15 <= 0
tri4_4_6_15: t4_6_15 - x4_6 - x4_15 - x6_15 >= -2
tri1_4_6_16: t4_6_16 - x4_6 <= 0
tri2_4_6_16: t4_6_16 - x4_16 <= 0
tri3_4_6_16: t4_6_16 - x6_16 <= 0
tri4_4_6_16: t4_6_16 - x4_6 - x4_16 - x6_16 >= -2
tri1_4_7_8: t4_7_8 - x4_7 <= 0
tri2_4_7_8: t4_7_8 - x4_8 <= 0
tri3_4_7_8: t4_7_8 - x7_8 <= 0
tri4_4_7_8: t4_7_8 - x4_7 - x4_8 - x7_8 >= -2
tri1_4_7_9: t4_7_9 - x4_7 <= 0
tri2_4_7_9: t4_7_9 - x4_9 <= 0
tri3_4_7_9: t4_7_9 - x7_9 <= 0
tri4_4_7_9: t4_7_9 - x4_7 - x4_9 - x7_9 >= -2
tri1_4_7_10: t4_7_10 - x4_7 <= 0
tri2_4_7_10: t4_7_10 - x4_10 <= 0
tri3_4_7_10: t4_7_10 - x7_10 <= 0
tri4_4_7_10: t4_7_10 - x4_7 - x4_10 - x7_10 >= -2
tri1_4_7_11: t4_7_11 - x4_7 <= 0
tri2_4_7_11: t4_7_11 - x4_11 <= 0
tri3_4_7_11: t4_7_11 - x7_11 <= 0
tri4_4_7_11: t4_7_11 - x4_7 - x4_11 - x7_11 >= -2
tri1_4_7_12: t4_7_12 - x4_7 <= 0
tri2_4_7_12: t4_7_12 - x4_12 <= 0
tri3_4_7_12: t4_7_12 - x7_12 <= 0
tri4_4_7_12: t4_7_12 - x4_7 - x4_12 - x7_12 >= -2
tri1_4_7_13: t4_7_13 - x4_7 <= 0
tri2_4_7_13: t4_7_13 - x4_13 <= 0
tri3_4_7_13: t4_7_13 - x7_13 <= 0
tri4_4_7_13: t4_7_13 - x4_7 - x4_13 - x7_13 >= -2
tri1_4_7_14: t4_7_14 - x4_7 <= 0
tri2_4_7_14: t4_7_14 - x4_14 <= 0
tri3_4_7_14: t4_7_14 - x7_14 <= 0
tri4_4_7_14: t4_7_14 - x4_7 - x4_14 - x7_14 >= -2
tri1_4_7_15: t4_7_15 - x4_7 <= 0
tri2_4_7_15: t4_7_15 - x4_15 <= 0
tri3_4_7_15: t4_7_15 - x7_15 <= 0
tri4_4_7_15: t4_7_15 - x4_7 - x4_15 - x7_15 >= -2
tri1_4_7_16: t4_7_16 - x4_7 <= 0
tri2_4_7_16: t4_7_16 - x4_16 <= 0
tri3_4_7_16: t4_7_16 - x7_16 <= 0
tri4_4_7_16: t4_7_16 - x4_7 - x4_16 - x7_16 >= -2
tri1_4_8_9: t4_8_9 - x4_8 <= 0
tri2_4_8_9: t4_8_9 - x4_9 <= 0
tri3_4_8_9: t4_8_9 - x8_9 <= 0
tri4_4_8_9: t4_8_9 - x4_8 - x4_9 - x8_9 >= -2
tri1_4_8_10: t4_8_10 - x4_8 <= 0
tri2_4_8_10: t4_8_10 - x4_10 <= 0
tri3_4_8_10: t4_8_10 - x8_10 <= 0
tri4_4_8_10: t4_8_10 - x4_8 - x4_10 - x8_10 >= -2
tri1_4_8_11: t4_8_11 - x4_8 <= 0
tri2_4_8_11: t4_8_11 - x4_11 <= 0
tri3_4_8_11: t4_8_11 - x8_11 <= 0
tri4_4_8_11: t4_8_11 - x4_8 - x4_11 - x8_11 >= -2
tri1_4_8_12: t4_8_12 - x4_8 <= 0
tri2_4_8_12: t4_8_12 - x4_12 <= 0
tri3_4_8_12: t4_8_12 - x8_12 <= 0
tri4_4_8_12: t4_8_12 - x4_8 - x4_12 - x8_12 >= -2
tri1_4_8_13: t4_8_13 - x4_8 <= 0
tri2_4_8_13: t4_8_13 - x4_13 <= 0
tri3_4_8_13: t4_8_13 - x8_13 <= 0
tri4_4_8_13: t4_8_13 - x4_8 - x4_13 - x8_13 >= -2
tri1_4_8_14: t4_8_14 - x4_8 <= 0
tri2_4_8_14: t4_8_14 - x4_14 <= 0
tri3_4_8_14: t4_8_14 - x8_14 <= 0
tri4_4_8_14: t4_8_14 - x4_8 - x4_14 - x8_14 >= -2
tri1_4_8_15: t4_8_15 - x4_8 <= 0
tri2_4_8_15: t4_8_15 - x4_15 <= 0
tri3_4_8_15: t4_8_15 - x8_15 <= 0
tri4_4_8_15: t4_8_15 - x4_8 - x4_15 - x8_15 >= -2
tri1_4_8_16: t4_8_16 - x4_8 <= 0
tri2_4_8_16: t4_8_16 - x4_16 <= 0
tri3_4_8_16: t4_8_16 - x8_16 <= 0
tri4_4_8_16: t4_8_16 - x4_8 - x4_16 - x8_16 >= -2
tri1_4_9_10: t4_9_10 - x4_9 <= 0
tri2_4_9_10: t4_9_10 - x4_10 <= 0
tri3_4_9_10: t4_9_10 - x9_10 <= 0
tri4_4_9_10: t4_9_10 - x4_9 - x4_10 - x9_10 >= -2
tri1_4_9_11: t4_9_11 - x4_9 <= 0
tri2_4_9_11: t4_9_11 - x4_11 <= 0
tri3_4_9_11: t4_9_11 - x9_11 <= 0
tri4_4_9_11: t4_9_11 - x4_9 - x4_11 - x9_11 >= -2
tri1_4_9_12: t4_9_12 - x4_9 <= 0
tri2_4_9_12: t4_9_12 - x4_12 <= 0
tri3_4_9_12: t4_9_12 - x9_12 <= 0
tri4_4_9_12: t4_9_12 - x4_9 - x4_12 - x9_12 >= -2
tri1_4_9_13: t4_9_13 - x4_9 <= 0
tri2_4_9_13: t4_9_13 - x4_13 <= 0
tri3_4_9_13: t4_9_13 - x9_13 <= 0
tri4_4_9_13: t4_9_13 - x4_9 - x4_13 - x9_13 >= -2
tri1_4_9_14: t4_9_14 - x4_9 <= 0
tri2_4_9_14: t4_9_14 - x4_14 <= 0
tri3_4_9_14: t4_9_14 - x9_14 <= 0
tri4_4_9_14: t4_9_14 - x4_9 - x4_14 - x9_14 >= -2
tri1_4_9_15: t4_9_15 - x4_9 <= 0
tri2_4_9_15: t4_9_15 - x4_15 <= 0
tri3_4_9_15: t4_9_15 - x9_15 <= 0
tri4_4_9_15: t4_9_15 - x4_9 - x4_15 - x9_15 >= -2
tri1_4_9_16: t4_9_16 - x4_9 <= 0
tri2_4_9_16: t4_9_16 - x4_16 <= 0
tri3_4_9_16: t4_9_16 - x9_16 <= 0
tri4_4_9_16: t4_9_16 - x4_9 - x4_16 - x9_16 >= -2
tri1_4_10_11: t4_10_11 - x4_10 <= 0
tri2_4_10_11: t4_10_11 - x4_11 <= 0
tri3_4_10_11: t4_10_11 - x10_11 <= 0
tri4_4_10_11: t4_10_11 - x4_10 - x4_11 - x10_11 >= -2
tri1_4_10_12: t4_10_12 - x4_10 <= 0
tri2_4_10_12: t4_10_12 - x4_12 <= 0
tri3_4_10_12: t4_10_12 - x10_12 <= 0
tri4_4_10_12: t4_10_12 - x4_10 - x4_12 - x10_12 >= -2
tri1_4_10_13: t4_10_13 - x4_10 <= 0
tri2_4_10_13: t4_10_13 - x4_13 <= 0
tri3_4_10_13: t4_10_13 - x10_13 <= 0
tri4_4_10_13: t4_10_13 - x4_10 - x4_13 - x10_13 >= -2
tri1_4_10_14: t4_10_14 - x4_10 <= 0
tri2_4_10_14: t4_10_14 - x4_14 <= 0
tri3_4_10_14: t4_10_14 - x10_14 <= 0
tri4_4_10_14: t4_10_14 - x4_10 - x4_14 - x10_14 >= -2
tri1_4_10_15: t4_10_15 - x4_10 <= 0
tri2_4_10_15: t4_10_15 - x4_15 <= 0
tri3_4_10_15: t4_10_15 - x10_15 <= 0
tri4_4_10_15: t4_10_15 - x4_10 - x4_15 - x10_15 >= -2
tri1_4_10_16: t4_10_16 - x4_10 <= 0
tri2_4_10_16: t4_10_16 - x4_16 <= 0
tri3_4_10_16: t4_10_16 - x10_16 <= 0
tri4_4_10_16: t4_10_16 - x4_10 - x4_16 - x10_16 >= -2
tri1_4_11_12: t4_11_12 - x4_11 <= 0
tri2_4_11_12: t4_11_12 - x4_12 <= 0
tri3_4_11_12: t4_11_12 - x11_12 <= 0
tri4_4_11_12: t4_11_12 - x4_11 - x4_12 - x11_12 >= -2
tri1_4_11_13: t4_11_13 - x4_11 <= 0
tri2_4_11_13: t4_11_13 - x4_13 <= 0
tri3_4_11_13: t4_11_13 - x11_13 <= 0
tri4_4_11_13: t4_11_13 - x4_11 - x4_13 - x11_13 >= -2
tri1_4_11_14: t4_11_14 - x4_11 <= 0
tri2_4_11_14: t4_11_14 - x4_14 <= 0
tri3_4_11_14: t4_11_14 - x11_14 <= 0
tri4_4_11_14: t4_11_14 - x4_11 - x4_14 - x11_14 >= -2
tri1_4_11_15: t4_11_15 - x4_11 <= 0
tri2_4_11_15: t4_11_15 - x4_15 <= 0
tri3_4_11_15: t4_11_15 - x11_15 <= 0
tri4_4_11_15: t4_11_15 - x4_11 - x4_15 - x11_15 >= -2
tri1_4_11_16: t4_11_16 - x4_11 <= 0
tri2_4_11_16: t4_11_16 - x4_16 <= 0
tri3_4_11_16: t4_11_16 - x11_16 <= 0
tri4_4_11_16: t4_11_16 - x4_11 - x4_16 - x11_16 >= -2
tri1_4_12_13: t4_12_13 - x4_12 <= 0
tri2_4_12_13: t4_12_13 - x4_13 <= 0
tri3_4_12_13: t4_12_13 - x12_13 <= 0
tri4_4_12_13: t4_12_13 - x4_12 - x4_13 - x12_13 >= -2
tri1_4_12_14: t4_12_14 - x4_12 <= 0
tri2_4_12_14: t4_12_14 - x4_14 <= 0
tri3_4_12_14: t4_12_14 - x12_14 <= 0
tri4_4_12_14: t4_12_14 - x4_12 - x4_14 - x12_14 >= -2
tri1_4_12_15: t4_12_15 - x4_12 <= 0
tri2_4_12_15: t4_12_15 - x4_15 <= 0
tri3_4_12_15: t4_12_15 - x12_15 <= 0
tri4_4_12_15: t4_12_15 - x4_12 - x4_15 - x12_15 >= -2
tri1_4_12_16: t4_12_16 - x4_12 <= 0
tri2_4_12_16: t4_12_16 - x4_16 <= 0
tri3_4_12_16: t4_12_16 - x12_16 <= 0
tri4_4_12_16: t4_12_16 - x4_12 - x4_16 - x12_16 >= -2
tri1_4_13_14: t4_13_14 - x4_13 <= 0
tri2_4_13_14: t4_13_14 - x4_14 <= 0
tri3_4_13_14: t4_13_14 - x13_14 <= 0
tri4_4_13_14: t4_13_14 - x4_13 - x4_14 - x13_14 >= -2
tri1_4_13_15: t4_13_15 - x4_13 <= 0
tri2_4_13_15: t4_13_15 - x4_15 <= 0
tri3_4_13_15: t4_13_15 - x13_15 <= 0
tri4_4_13_15: t4_13_15 - x4_13 - x4_15 - x13_15 >= -2
tri1_4_13_16: t4_13_16 - x4_13 <= 0
tri2_4_13_16: t4_13_16 - x4_16 <= 0
tri3_4_13_16: t4_13_16 - x13_16 <= 0
tri4_4_13_16: t4_13_16 - x4_13 - x4_16 - x13_16 >= -2
tri1_4_14_15: t4_14_15 - x4_14 <= 0
tri2_4_14_15: t4_14_15 - x4_15 <= 0
tri3_4_14_15: t4_14_15 - x14_15 <= 0
tri4_4_14_15: t4_14_15 - x4_14 - x4_15 - x14_15 >= -2
tri1_4_14_16: t4_14_16 - x4_14 <= 0
tri2_4_14_16: t4_14_16 - x4_16 <= 0
tri3_4_14_16: t4_14_16 - x14_16 <= 0
tri4_4_14_16: t4_14_16 - x4_14 - x4_16 - x14_16 >= -2
tri1_4_15_16: t4_15_16 - x4_15 <= 0
tri2_4_15_16: t4_15_16 - x4_16 <= 0
tri3_4_15_16: t4_15_16 - x15_16 <= 0
tri4_4_15_16: t4_15_16 - x4_15 - x4_16 - x15_16 >= -2
tri1_5_6_7: t5_6_7 - x5_6 <= 0
tri2_5_6_7: t5_6_7 - x5_7 <= 0
tri3_5_6_7: t5_6_7 - x6_7 <= 0
tri4_5_6_7: t5_6_7 - x5_6 - x5_7 - x6_7 >= -2
tri1_5_6_8: t5_6_8 - x5_6 <= 0
tri2_5_6_8: t5_6_8 - x5_8 <= 0
tri3_5_6_8: t5_6_8 - x6_8 <= 0
tri4_5_6_8: t5_6_8 - x5_6 - x5_8 - x6_8 >= -2
tri1_5_6_9: t5_6_9 - x5_6 <= 0
tri2_5_6_9: t5_6_9 - x5_9 <= 0
tri3_5_6_9: t5_6_9 - x6_9 <= 0
tri4_5_6_9: t5_6_9 - x5_6 - x5_9 - x6_9 >= -2
tri1_5_6_10: t5_6_10 - x5_6 <= 0
tri2_5_6_10: t5_6_10 - x5_10 <= 0
tri3_5_6_10: t5_6_10 - x6_10 <= 0
tri4_5_6_10: t5_6_10 - x5_6 - x5_10 - x6_10 >= -2
tri1_5_6_11: t5_6_11 - x5_6 <= 0
tri2_5_6_11: t5_6_11 - x5_11 <= 0
tri3_5_6_11: t5_6_11 - x6_11 <= 0
tri4_5_6_11: t5_6_11 - x5_6 - x5_11 - x6_11 >= -2
tri1_5_6_12: t5_6_12 - x5_6 <= 0
tri2_5_6_12: t5_6_12 - x5_12 <= 0
tri3_5_6_12: t5_6_12 - x6_12 <= 0
tri4_5_6_12: t5_6_12 - x5_6 - x5_12 - x6_12 >= -2
tri1_5_6_13: t5_6_13 - x5_6 <= 0
tri2_5_6_13: t5_6_13 - x5_13 <= 0
tri3_5_6_13: t5_6_13 - x6_13 <= 0
tri4_5_6_13: t5_6_13 - x5_6 - x5_13 - x6_13 >= -2
tri1_5_6_14: t5_6_14 - x5_6 <= 0
tri2_5_6_14: t5_6_14 - x5_14 <= 0
tri3_5_6_14: t5_6_14 - x6_14 <= 0
tri4_5_6_14: t5_6_14 - x5_6 - x5_14 - x6_14 >= -2
tri1_5_6_15: t5_6_15 - x5_6 <= 0
tri2_5_6_15: t5_6_15 - x5_15 <= 0
tri3_5_6_15: t5_6_15 - x6_15 <= 0
tri4_5_6_15: t5_6_15 - x5_6 - x5_15 - x6_15 >= -2
tri1_5_6_16: t5_6_16 - x5_6 <= 0
tri2_5_6_16: t5_6_16 - x5_16 <= 0
tri3_5_6_16: t5_6_16 - x6_16 <= 0
tri4_5_6_16: t5_6_16 - x5_6 - x5_16 - x6_16 >= -2
tri1_5_7_8: t5_7_8 - x5_7 <= 0
tri2_5_7_8: t5_7_8 - x5_8 <= 0
tri3_5_7_8: t5_7_8 - x7_8 <= 0
tri4_5_7_8: t5_7_8 - x5_7 - x5_8 - x7_8 >= -2
tri1_5_7_9: t5_7_9 - x5_7 <= 0
tri2_5_7_9: t5_7_9 - x5_9 <= 0
tri3_5_7_9: t5_7_9 - x7_9 <= 0
tri4_5_7_9: t5_7_9 - x5_7 - x5_9 - x7_9 >= -2
tri1_5_7_10: t5_7_10 - x5_7 <= 0
tri2_5_7_10: t5_7_10 - x5_10 <= 0
tri3_5_7_10: t5_7_10 - x7_10 <= 0
tri4_5_7_10: t5_7_10 - x5_7 - x5_10 - x7_10 >= -2
tri1_5_7_11: t5_7_11 - x5_7 <= 0
tri2_5_7_11: t5_7_11 - x5_11 <= 0
tri3_5_7_11: t5_7_11 - x7_11 <= 0
tri4_5_7_11: t5_7_11 - x5_7 - x5_11 - x7_11 >= -2
tri1_5_7_12: t5_7_12 - x5_7 <= 0
tri2_5_7_12: t5_7_12 - x5_12 <= 0
tri3_5_7_12: t5_7_12 - x7_12 <= 0
tri4_5_7_12: t5_7_12 - x5_7 - x5_12 - x7_12 >= -2
tri1_5_7_13: t5_7_13 - x5_7 <= 0
tri2_5_7_13: t5_7_13 - x5_13 <= 0
tri3_5_7_13: t5_7_13 - x7_13 <= 0
tri4_5_7_13: t5_7_13 - x5_7 - x5_13 - x7_13 >= -2
tri1_5_7_14: t5_7_14 - x5_7 <= 0
tri2_5_7_14: t5_7_14 - x5_14 <= 0
tri3_5_7_14: t5_7_14 - x7_14 <= 0
tri4_5_7_14: t5_7_14 - x5_7 - x5_14 - x7_14 >= -2
tri1_5_7_15: t5_7_15 - x5_7 <= 0
tri2_5_7_15: t5_7_15 - x5_15 <= 0
tri3_5_7_15: t5_7_15 - x7_15 <= 0
tri4_5_7_15: t5_7_15 - x5_7 - x5_15 - x7_15 >= -2
tri1_5_7_16: t5_7_16 - x5_7 <= 0
tri2_5_7_16: t5_7_16 - x5_16 <= 0
tri3_5_7_16: t5_7_16 - x7_16 <= 0
tri4_5_7_16: t5_7_16 - x5_7 - x5_16 - x7_16 >= -2
tri1_5_8_9: t5_8_9 - x5_8 <= 0
tri2_5_8_9: t5_8_9 - x5_9 <= 0
tri3_5_8_9: t5_8_9 - x8_9 <= 0
tri4_5_8_9: t5_8_9 - x5_8 - x5_9 - x8_9 >= -2
tri1_5_8_10: t5_8_10 - x5_8 <= 0
tri2_5_8_10: t5_8_10 - x5_10 <= 0
tri3_5_8_10: t5_8_10 - x8_10 <= 0
tri4_5_8_10: t5_8_10 - x5_8 - x5_10 - x8_10 >= -2
tri1_5_8_11: t5_8_11 - x5_8 <= 0
tri2_5_8_11: t5_8_11 - x5_11 <= 0
tri3_5_8_11: t5_8_11 - x8_11 <= 0
tri4_5_8_11: t5_8_11 - x5_8 - x5_11 - x8_11 >= -2
tri1_5_8_12: t5_8_12 - x5_8 <= 0
tri2_5_8_12: t5_8_12 - x5_12 <= 0
tri3_5_8_12: t5_8_12 - x8_12 <= 0
tri4_5_8_12: t5_8_12 - x5_8 - x5_12 - x8_12 >= -2
tri1_5_8_13: t5_8_13 - x5_8 <= 0
tri2_5_8_13: t5_8_13 - x5_13 <= 0
tri3_5_8_13: t5_8_13 - x8_13 <= 0
tri4_5_8_13: t5_8_13 - x5_8 - x5_13 - x8_13 >= -2
tri1_5_8_14: t5_8_14 - x5_8 <= 0
tri2_5_8_14: t5_8_14 - x5_14 <= 0
tri3_5_8_14: t5_8_14 - x8_14 <= 0
tri4_5_8_14: t5_8_14 - x5_8 - x5_14 - x8_14 >= -2
tri1_5_8_15: t5_8_15 - x5_8 <= 0
tri2_5_8_15: t5_8_15 - x5_15 <= 0
tri3_5_8_15: t5_8_15 - x8_15 <= 0
tri4_5_8_15: t5_8_15 - x5_8 - x5_15 - x8_15 >= -2
tri1_5_8_16: t5_8_16 - x5_8 <= 0
tri2_5_8_16: t5_8_16 - x5_16 <= 0
tri3_5_8_16: t5_8_16 - x8_16 <= 0
tri4_5_8_16: t5_8_16 - x5_8 - x5_16 - x8_16 >= -2
tri1_5_9_10: t5_9_10 - x5_9 <= 0
tri2_5_9_10: t5_9_10 - x5_10 <= 0
tri3_5_9_10: t5_9_10 - x9_10 <= 0
tri4_5_9_10: t5_9_10 - x5_9 - x5_10 - x9_10 >= -2
tri1_5_9_11: t5_9_11 - x5_9 <= 0
tri2_5_9_11: t5_9_11 - x5_11 <= 0
tri3_5_9_11: t5_9_11 - x9_11 <= 0
tri4_5_9_11: t5_9_11 - x5_9 - x5_11 - x9_11 >= -2
tri1_5_9_12: t5_9_12 - x5_9 <= 0
tri2_5_9_12: t5_9_12 - x5_12 <= 0
tri3_5_9_12: t5_9_12 - x9_12 <= 0
tri4_5_9_12: t5_9_12 - x5_9 - x5_12 - x9_12 >= -2
tri1_5_9_13: t5_9_13 - x5_9 <= 0
tri2_5_9_13: t5_9_13 - x5_13 <= 0
tri3_5_9_13: t5_9_13 - x9_13 <= 0
tri4_5_9_13: t5_9_13 - x5_9 - x5_13 - x9_13 >= -2
tri1_5_9_14: t5_9_14 - x5_9 <= 0
tri2_5_9_14: t5_9_14 - x5_14 <= 0
tri3_5_9_14: t5_9_14 - x9_14 <= 0
tri4_5_9_14: t5_9_14 - x5_9 - x5_14 - x9_14 >= -2
tri1_5_9_15: t5_9_15 - x5_9 <= 0
tri2_5_9_15: t5_9_15 - x5_15 <= 0
tri3_5_9_15: t5_9_15 - x9_15 <= 0
tri4_5_9_15: t5_9_15 - x5_9 - x5_15 - x9_15 >= -2
tri1_5_9_16: t5_9_16 - x5_9 <= 0
tri2_5_9_16: t5_9_16 - x5_16 <= 0
tri3_5_9_16: t5_9_16 - x9_16 <= 0
tri4_5_9_16: t5_9_16 - x5_9 - x5_16 - x9_16 >= -2
tri1_5_10_11: t5_10_11 - x5_10 <= 0
tri2_5_10_11: t5_10_11 - x5_11 <= 0
tri3_5_10_11: t5_10_11 - x10_11 <= 0
tri4_5_10_11: t5_10_11 - x5_10 - x5_11 - x10_11 >= -2
tri1_5_10_12: t5_10_12 - x5_10 <= 0
tri2_5_10_12: t5_10_12 - x5_12 <= 0
tri3_5_10_12: t5_10_12 - x10_12 <= 0
tri4_5_10_12: t5_10_12 - x5_10 - x5_12 - x10_12 >= -2
tri1_5_10_13: t5_10_13 - x5_10 <= 0
tri2_5_10_13: t5_10_13 - x5_13 <= 0
tri3_5_10_13: t5_10_13 - x10_13 <= 0
tri4_5_10_13: t5_10_13 - x5_10 - x5_13 - x10_13 >= -2
tri1_5_10_14: t5_10_14 - x5_10 <= 0
tri2_5_10_14: t5_10_14 - x5_14 <= 0
tri3_5_10_14: t5_10_14 - x10_14 <= 0
tri4_5_10_14: t5_10_14 - x5_10 - x5_14 - x10_14 >= -2
tri1_5_10_15: t5_10_15 - x5_10 <= 0
tri2_5_10_15: t5_10_15 - x5_15 <= 0
tri3_5_10_15: t5_10_15 - x10_15 <= 0
tri4_5_10_15: t5_10_15 - x5_10 - x5_15 - x10_15 >= -2
tri1_5_10_16: t5_10_16 - x5_10 <= 0
tri2_5_10_16: t5_10_16 - x5_16 <= 0
tri3_5_10_16: t5_10_16 - x10_16 <= 0
tri4_5_10_16: t5_10_16 - x5_10 - x5_16 - x10_16 >= -2
tri1_5_11_12: t5_11_12 - x5_11 <= 0
tri2_5_11_12: t5_11_12 - x5_12 <= 0
tri3_5_11_12: t5_11_12 - x11_12 <= 0
tri4_5_11_12: t5_11_12 - x5_11 - x5_12 - x11_12 >= -2
tri1_5_11_13: t5_11_13 - x5_11 <= 0
tri2_5_11_13: t5_11_13 - x5_13 <= 0
tri3_5_11_13: t5_11_13 - x11_13 <= 0
tri4_5_11_13: t5_11_13 - x5_11 - x5_13 - x11_13 >= -2
tri1_5_11_14: t5_11_14 - x5_11 <= 0
tri2_5_11_14: t5_11_14 - x5_14 <= 0
tri3_5_11_14: t5_11_14 - x11_14 <= 0
tri4_5_11_14: t5_11_14 - x5_11 - x5_14 - x11_14 >= -2
tri1_5_11_15: t5_11_15 - x5_11 <= 0
tri2_5_11_15: t5_11_15 - x5_15 <= 0
tri3_5_11_15: t5_11_15 - x11_15 <= 0
tri4_5_11_15: t5_11_15 - x5_11 - x5_15 - x11_15 >= -2
tri1_5_11_16: t5_11_16 - x5_11 <= 0
tri2_5_11_16: t5_11_16 - x5_16 <= 0
tri3_5_11_16: t5_11_16 - x11_16 <= 0
tri4_5_11_16: t5_11_16 - x5_11 - x5_16 - x11_16 >= -2
tri1_5_12_13: t5_12_13 - x5_12 <= 0
tri2_5_12_13: t5_12_13 - x5_13 <= 0
tri3_5_12_13: t5_12_13 - x12_13 <= 0
tri4_5_12_13: t5_12_13 - x5_12 - x5_13 - x12_13 >= -2
tri1_5_12_14: t5_12_14 - x5_12 <= 0
tri2_5_12_14: t5_12_14 - x5_14 <= 0
tri3_5_12_14: t5_12_14 - x12_14 <= 0
tri4_5_12_14: t5_12_14 - x5_12 - x5_14 - x12_14 >= -2
tri1_5_12_15: t5_12_15 - x5_12 <= 0
tri2_5_12_15: t5_12_15 - x5_15 <= 0
tri3_5_12_15: t5_12_15 - x12_15 <= 0
tri4_5_12_15: t5_12_15 - x5_12 - x5_15 - x12_15 >= -2
tri1_5_12_16: t5_12_16 - x5_12 <= 0
tri2_5_12_16: t5_12_16 - x5_16 <= 0
tri3_5_12_16: t5_12_16 - x12_16 <= 0
tri4_5_12_16: t5_12_16 - x5_12 - x5_16 - x12_16 >= -2
tri1_5_13_14: t5_13_14 - x5_13 <= 0
tri2_5_13_14: t5_13_14 - x5_14 <= 0
tri3_5_13_14: t5_13_14 - x13_14 <= 0
tri4_5_13_14: t5_13_14 - x5_13 - x5_14 - x13_14 >= -2
tri1_5_13_15: t5_13_15 - x5_13 <= 0
tri2_5_13_15: t5_13_15 - x5_15 <= 0
tri3_5_13_15: t5_13_15 - x13_15 <= 0
tri4_5_13_15: t5_13_15 - x5_13 - x5_15 - x13_15 >= -2
tri1_5_13_16: t5_13_16 - x5_13 <= 0
tri2_5_13_16: t5_13_16 - x5_16 <= 0
tri3_5_13_16: t5_13_16 - x13_16 <= 0
tri4_5_13_16: t5_13_16 - x5_13 - x5_16 - x13_16 >= -2
tri1_5_14_15: t5_14_15 - x5_14 <= 0
tri2_5_14_15: t5_14_15 - x5_15 <= 0
tri3_5_14_15: t5_14_15 - x14_15 <= 0
tri4_5_14_15: t5_14_15 - x5_14 - x5_15 - x14_15 >= -2
tri1_5_14_16: t5_14_16 - x5_14 <= 0
tri2_5_14_16: t5_14_16 - x5_16 <= 0
tri3_5_14_16: t5_14_16 - x14_16 <= 0
tri4_5_14_16: t5_14_16 - x5_14 - x5_16 - x14_16 >= -2
tri1_5_15_16: t5_15_16 - x5_15 <= 0
tri2_5_15_16: t5_15_16 - x5_16 <= 0
tri3_5_15_16: t5_15_16 - x15_16 <= 0
tri4_5_15_16: t5_15_16 - x5_15 - x5_16 - x15_16 >= -2
tri1_6_7_8: t6_7_8 - x6_7 <= 0
tri2_6_7_8: t6_7_8 - x6_8 <= 0
tri3_6_7_8: t6_7_8 - x7_8 <= 0
tri4_6_7_8: t6_7_8 - x6_7 - x6_8 - x7_8 >= -2
tri1_6_7_9: t6_7_9 - x6_7 <= 0
tri2_6_7_9: t6_7_9 - x6_9 <= 0
tri3_6_7_9: t6_7_9 - x7_9 <= 0
tri4_6_7_9: t6_7_9 - x6_7 - x6_9 - x7_9 >= -2
tri1_6_7_10: t6_7_10 - x6_7 <= 0
tri2_6_7_10: t6_7_10 - x6_10 <= 0
tri3_6_7_10: t6_7_10 - x7_10 <= 0
tri4_6_7_10: t6_7_10 - x6_7 - x6_10 - x7_10 >= -2
tri1_6_7_11: t6_7_11 - x6_7 <= 0
tri2_6_7_11: t6_7_11 - x6_11 <= 0
tri3_6_7_11: t6_7_11 - x7_11 <= 0
tri4_6_7_11: t6_7_11 - x6_7 - x6_11 - x7_11 >= -2
tri1_6_7_12: t6_7_12 - x6_7 <= 0
tri2_6_7_12: t6_7_12 - x6_12 <= 0
tri3_6_7_12: t6_7_12 - x7_12 <= 0
tri4_6_7_12: t6_7_12 - x6_7 - x6_12 - x7_12 >= -2
tri1_6_7_13: t6_7_13 - x6_7 <= 0
tri2_6_7_13: t6_7_13 - x6_13 <= 0
tri3_6_7_13: t6_7_13 - x7_13 <= 0
tri4_6_7_13: t6_7_13 - x6_7 - x6_13 - x7_13 >= -2
tri1_6_7_14: t6_7_14 - x6_7 <= 0
tri2_6_7_14: t6_7_14 - x6_14 <= 0
tri3_6_7_14: t6_7_14 - x7_14 <= 0
tri4_6_7_14: t6_7_14 - x6_7 - x6_14 - x7_14 >= -2
tri1_6_7_15: t6_7_15 - x6_7 <= 0
tri2_6_7_15: t6_7_15 - x6_15 <= 0
tri3_6_7_15: t6_7_15 - x7_15 <= 0
tri4_6_7_15: t6_7_15 - x6_7 - x6_15 - x7_15 >= -2
tri1_6_7_16: t6_7_16 - x6_7 <= 0
tri2_6_7_16: t6_7_16 - x6_16 <= 0
tri3_6_7_16: t6_7_16 - x7_16 <= 0
tri4_6_7_16: t6_7_16 - x6_7 - x6_16 - x7_16 >= -2
tri1_6_8_9: t6_8_9 - x6_8 <= 0
tri2_6_8_9: t6_8_9 - x6_9 <= 0
tri3_6_8_9: t6_8_9 - x8_9 <= 0
tri4_6_8_9: t6_8_9 - x6_8 - x6_9 - x8_9 >= -2
tri1_6_8_10: t6_8_10 - x6_8 <= 0
tri2_6_8_10: t6_8_10 - x6_10 <= 0
tri3_6_8_10: t6_8_10 - x8_10 <= 0
tri4_6_8_10: t6_8_10 - x6_8 - x6_10 - x8_10 >= -2
tri1_6_8_11: t6_8_11 - x6_8 <= 0
tri2_6_8_11: t6_8_11 - x6_11 <= 0
tri3_6_8_11: t6_8_11 - x8_11 <= 0
tri4_6_8_11: t6_8_11 - x6_8 - x6_11 - x8_11 >= -2
tri1_6_8_12: t6_8_12 - x6_8 <= 0
tri2_6_8_12: t6_8_12 - x6_12 <= 0
tri3_6_8_12: t6_8_12 - x8_12 <= 0
tri4_6_8_12: t6_8_12 - x6_8 - x6_12 - x8_12 >= -2
tri1_6_8_13: t6_8_13 - x6_8 <= 0
tri2_6_8_13: t6_8_13 - x6_13 <= 0
tri3_6_8_13: t6_8_13 - x8_13 <= 0
tri4_6_8_13: t6_8_13 - x6_8 - x6_13 - x8_13 >= -2
tri1_6_8_14: t6_8_14 - x6_8 <= 0
tri2_6_8_14: t6_8_14 - x6_14 <= 0
tri3_6_8_14: t6_8_14 - x8_14 <= 0
tri4_6_8_14: t6_8_14 - x6_8 - x6_14 - x8_14 >= -2
tri1_6_8_15: t6_8_15 - x6_8 <= 0
tri2_6_8_15: t6_8_15 - x6_15 <= 0
tri3_6_8_15: t6_8_15 - x8_15 <= 0
tri4_6_8_15: t6_8_15 - x6_8 - x6_15 - x8_15 >= -2
tri1_6_8_16: t6_8_16 - x6_8 <= 0
tri2_6_8_16: t6_8_16 - x6_16 <= 0
tri3_6_8_16: t6_8_16 - x8_16 <= 0
tri4_6_8_16: t6_8_16 - x6_8 - x6_16 - x8_16 >= -2
tri1_6_9_10: t6_9_10 - x6_9 <= 0
tri2_6_9_10: t6_9_10 - x6_10 <= 0
tri3_6_9_10: t6_9_10 - x9_10 <= 0
tri4_6_9_10: t6_9_10 - x6_9 - x6_10 - x9_10 >= -2
tri1_6_9_11: t6_9_11 - x6_9 <= 0
tri2_6_9_11: t6_9_11 - x6_11 <= 0
tri3_6_9_11: t6_9_11 - x9_11 <= 0
tri4_6_9_11: t6_9_11 - x6_9 - x6_11 - x9_11 >= -2
tri1_6_9_12: t6_9_12 - x6_9 <= 0
tri2_6_9_12: t6_9_12 - x6_12 <= 0
tri3_6_9_12: t6_9_12 - x9_12 <= 0
tri4_6_9_12: t6_9_12 - x6_9 - x6_12 - x9_12 >= -2
tri1_6_9_13: t6_9_13 - x6_9 <= 0
tri2_6_9_13: t6_9_13 - x6_13 <= 0
tri3_6_9_13: t6_9_13 - x9_13 <= 0
tri4_6_9_13: t6_9_13 - x6_9 - x6_13 - x9_13 >= -2
tri1_6_9_14: t6_9_14 - x6_9 <= 0
tri2_6_9_14: t6_9_14 - x6_14 <= 0
tri3_6_9_14: t6_9_14 - x9_14 <= 0
tri4_6_9_14: t6_9_14 - x6_9 - x6_14 - x9_14 >= -2
tri1_6_9_15: t6_9_15 - x6_9 <= 0
tri2_6_9_15: t6_9_15 - x6_15 <= 0
tri3_6_9_15: t6_9_15 - x9_15 <= 0
tri4_6_9_15: t6_9_15 - x6_9 - x6_15 - x9_15 >= -2
tri1_6_9_16: t6_9_16 - x6_9 <= 0
tri2_6_9_16: t6_9_16 - x6_16 <= 0
tri3_6_9_16: t6_9_16 - x9_16 <= 0
tri4_6_9_16: t6_9_16 - x6_9 - x6_16 - x9_16 >= -2
tri1_6_10_11: t6_10_11 - x6_10 <= 0
tri2_6_10_11: t6_10_11 - x6_11 <= 0
tri3_6_10_11: t6_10_11 - x10_11 <= 0
tri4_6_10_11: t6_10_11 - x6_10 - x6_11 - x10_11 >= -2
tri1_6_10_12: t6_10_12 - x6_10 <= 0
tri2_6_10_12: t6_10_12 - x6_12 <= 0
tri3_6_10_12: t6_10_12 - x10_12 <= 0
tri4_6_10_12: t6_10_12 - x6_10 - x6_12 - x10_12 >= -2
tri1_6_10_13: t6_10_13 - x6_10 <= 0
tri2_6_10_13: t6_10_13 - x6_13 <= 0
tri3_6_10_13: t6_10_13 - x10_13 <= 0
tri4_6_10_13: t6_10_13 - x6_10 - x6_13 - x10_13 >= -2
tri1_6_10_14: t6_10_14 - x6_10 <= 0
tri2_6_10_14: t6_10_14 - x6_14 <= 0
tri3_6_10_14: t6_10_14 - x10_14 <= 0
tri4_6_10_14: t6_10_14 - x6_10 - x6_14 - x10_14 >= -2
tri1_6_10_15: t6_10_15 - x6_10 <= 0
tri2_6_10_15: t6_10_15 - x6_15 <= 0
tri3_6_10_15: t6_10_15 - x10_15 <= 0
tri4_6_10_15: t6_10_15 - x6_10 - x6_15 - x10_15 >= -2
tri1_6_10_16: t6_10_16 - x6_10 <= 0
tri2_6_10_16: t6_10_16 - x6_16 <= 0
tri3_6_10_16: t6_10_16 - x10_16 <= 0
tri4_6_10_16: t6_10_16 - x6_10 - x6_16 - x10_16 >= -2
tri1_6_11_12: t6_11_12 - x6_11 <= 0
tri2_6_11_12: t6_11_12 - x6_12 <= 0
tri3_6_11_12: t6_11_12 - x11_12 <= 0
tri4_6_11_12: t6_11_12 - x6_11 - x6_12 - x11_12 >= -2
tri1_6_11_13: t6_11_13 - x6_11 <= 0
tri2_6_11_13: t6_11_13 - x6_13 <= 0
tri3_6_11_13: t6_11_13 - x11_13 <= 0
tri4_6_11_13: t6_11_13 - x6_11 - x6_13 - x11_13 >= -2
tri1_6_11_14: t6_11_14 - x6_11 <= 0
tri2_6_11_14: t6_11_14 - x6_14 <= 0
tri3_6_11_14: t6_11_14 - x11_14 <= 0
tri4_6_11_14: t6_11_14 - x6_11 - x6_14 - x11_14 >= -2
tri1_6_11_15: t6_11_15 - x6_11 <= 0
tri2_6_11_15: t6_11_15 - x6_15 <= 0
tri3_6_11_15: t6_11_15 - x11_15 <= 0
tri4_6_11_15: t6_11_15 - x6_11 - x6_15 - x11_15 >= -2
tri1_6_11_16: t6_11_16 - x6_11 <= 0
tri2_6_11_16: t6_11_16 - x6_16 <= 0
tri3_6_11_16: t6_11_16 - x11_16 <= 0
tri4_6_11_16: t6_11_16 - x6_11 - x6_16 - x11_16 >= -2
tri1_6_12_13: t6_12_13 - x6_12 <= 0
tri2_6_12_13: t6_12_13 - x6_13 <= 0
tri3_6_12_13: t6_12_13 - x12_13 <= 0
tri4_6_12_13: t6_12_13 - x6_12 - x6_13 - x12_13 >= -2
tri1_6_12_14: t6_12_14 - x6_12 <= 0
tri2_6_12_14: t6_12_14 - x6_14 <= 0
tri3_6_12_14: t6_12_14 - x12_14 <= 0
tri4_6_12_14: t6_12_14 - x6_12 - x6_14 - x12_14 >= -2
tri1_6_12_15: t6_12_15 - x6_12 <= 0
tri2_6_12_15: t6_12_15 - x6_15 <= 0
tri3_6_12_15: t6_12_15 - x12_15 <= 0
tri4_6_12_15: t6_12_15 - x6_12 - x6_15 - x12_15 >= -2
tri1_6_12_16: t6_12_16 - x6_12 <= 0
tri2_6_12_16: t6_12_16 - x6_16 <= 0
tri3_6_12_16: t6_12_16 - x12_16 <= 0
tri4_6_12_16: t6_12_16 - x6_12 - x6_16 - x12_16 >= -2
tri1_6_13_14: t6_13_14 - x6_13 <= 0
tri2_6_13_14: t6_13_14 - x6_14 <= 0
tri3_6_13_14: t6_13_14 - x13_14 <= 0
tri4_6_13_14: t6_13_14 - x6_13 - x6_14 - x13_14 >= -2
tri1_6_13_15: t6_13_15 - x6_13 <= 0
tri2_6_13_15: t6_13_15 - x6_15 <= 0
tri3_6_13_15: t6_13_15 - x13_15 <= 0
tri4_6_13_15: t6_13_15 - x6_13 - x6_15 - x13_15 >= -2
tri1_6_13_16: t6_13_16 - x6_13 <= 0
tri2_6_13_16: t6_13_16 - x6_16 <= 0
tri3_6_13_16: t6_13_16 - x13_16 <= 0
tri4_6_13_16: t6_13_16 - x6_13 - x6_16 - x13_16 >= -2
tri1_6_14_15: t6_14_15 - x6_14 <= 0
tri2_6_14_15: t6_14_15 - x6_15 <= 0
tri3_6_14_15: t6_14_15 - x14_15 <= 0
tri4_6_14_15: t6_14_15 - x6_14 - x6_15 - x14_15 >= -2
tri1_6_14_16: t6_14_16 - x6_14 <= 0
tri2_6_14_16: t6_14_16 - x6_16 <= 0
tri3_6_14_16: t6_14_16 - x14_16 <= 0
tri4_6_14_16: t6_14_16 - x6_14 - x6_16 - x14_16 >= -2
tri1_6_15_16: t6_15_16 - x6_15 <= 0
tri2_6_15_16: t6_15_16 - x6_16 <= 0
tri3_6_15_16: t6_15_16 - x15_16 <= 0
tri4_6_15_16: t6_15_16 - x6_15 - x6_16 - x15_16 >= -2
tri1_7_8_9: t7_8_9 - x7_8 <= 0
tri2_7_8_9: t7_8_9 - x7_9 <= 0
tri3_7_8_9: t7_8_9 - x8_9 <= 0
tri4_7_8_9: t7_8_9 - x7_8 - x7_9 - x8_9 >= -2
tri1_7_8_10: t7_8_10 - x7_8 <= 0
tri2_7_8_10: t7_8_10 - x7_10 <= 0
tri3_7_8_10: t7_8_10 - x8_10 <= 0
tri4_7_8_10: t7_8_10 - x7_8 - x7_10 - x8_10 >= -2
tri1_7_8_11: t7_8_11 - x7_8 <= 0
tri2_7_8_11: t7_8_11 - x7_11 <= 0
tri3_7_8_11: t7_8_11 - x8_11 <= 0
tri4_7_8_11: t7_8_11 - x7_8 - x7_11 - x8_11 >= -2
tri1_7_8_12: t7_8_12 - x7_8 <= 0
tri2_7_8_12: t7_8_12 - x7_12 <= 0
tri3_7_8_12: t7_8_12 - x8_12 <= 0
tri4_7_8_12: t7_8_12 - x7_8 - x7_12 - x8_12 >= -2
tri1_7_8_13: t7_8_13 - x7_8 <= 0
tri2_7_8_13: t7_8_13 - x7_13 <= 0
tri3_7_8_13: t7_8_13 - x8_13 <= 0
tri4_7_8_13: t7_8_13 - x7_8 - x7_13 - x8_13 >= -2
tri1_7_8_14: t7_8_14 - x7_8 <= 0
tri2_7_8_14: t7_8_14 - x7_14 <= 0
tri3_7_8_14: t7_8_14 - x8_14 <= 0
tri4_7_8_14: t7_8_14 - x7_8 - x7_14 - x8_14 >= -2
tri1_7_8_15: t7_8_15 - x7_8 <= 0
tri2_7_8_15: t7_8_15 - x7_15 <= 0
tri3_7_8_15: t7_8_15 - x8_15 <= 0
tri4_7_8_15: t7_8_15 - x7_8 - x7_15 - x8_15 >= -2
tri1_7_8_16: t7_8_16 - x7_8 <= 0
tri2_7_8_16: t7_8_16 - x7_16 <= 0
tri3_7_8_16: t7_8_16 - x8_16 <= 0
tri4_7_8_16: t7_8_16 - x7_8 - x7_16 - x8_16 >= -2
tri1_7_9_10: t7_9_10 - x7_9 <= 0
tri2_7_9_10: t7_9_10 - x7_10 <= 0
tri3_7_9_10: t7_9_10 - x9_10 <= 0
tri4_7_9_10: t7_9_10 - x7_9 - x7_10 - x9_10 >= -2
tri1_7_9_11: t7_9_11 - x7_9 <= 0
tri2_7_9_11: t7_9_11 - x7_11 <= 0
tri3_7_9_11: t7_9_11 - x9_11 <= 0
tri4_7_9_11: t7_9_11 - x7_9 - x7_11 - x9_11 >= -2
tri1_7_9_12: t7_9_12 - x7_9 <= 0
tri2_7_9_12: t7_9_12 - x7_12 <= 0
tri3_7_9_12: t7_9_12 - x9_12 <= 0
tri4_7_9_12: t7_9_12 - x7_9 - x7_12 - x9_12 >= -2
tri1_7_9_13: t7_9_13 - x7_9 <= 0
tri2_7_9_13: t7_9_13 - x7_13 <= 0
tri3_7_9_13: t7_9_13 - x9_13 <= 0
tri4_7_9_13: t7_9_13 - x7_9 - x7_13 - x9_13 >= -2
tri1_7_9_14: t7_9_14 - x7_9 <= 0
tri2_7_9_14: t7_9_14 - x7_14 <= 0
tri3_7_9_14: t7_9_14 - x9_14 <= 0
tri4_7_9_14: t7_9_14 - x7_9 - x7_14 - x9_14 >= -2
tri1_7_9_15: t7_9_15 - x7_9 <= 0
tri2_7_9_15: t7_9_15 - x7_15 <= 0
tri3_7_9_15: t7_9_15 - x9_15 <= 0
tri4_7_9_15: t7_9_15 - x7_9 - x7_15 - x9_15 >= -2
tri1_7_9_16: t7_9_16 - x7_9 <= 0
tri2_7_9_16: t7_9_16 - x7_16 <= 0
tri3_7_9_16: t7_9_16 - x9_16 <= 0
tri4_7_9_16: t7_9_16 - x7_9 - x7_16 - x9_16 >= -2
tri1_7_10_11: t7_10_11 - x7_10 <= 0
tri2_7_10_11: t7_10_11 - x7_11 <= 0
tri3_7_10_11: t7_10_11 - x10_11 <= 0
tri4_7_10_11: t7_10_11 - x7_10 - x7_11 - x10_11 >= -2
tri1_7_10_12: t7_10_12 - x7_10 <= 0
tri2_7_10_12: t7_10_12 - x7_12 <= 0
tri3_7_10_12: t7_10_12 - x10_12 <= 0
tri4_7_10_12: t7_10_12 - x7_10 - x7_12 - x10_12 >= -2
tri1_7_10_13: t7_10_13 - x7_10 <= 0
tri2_7_10_13: t7_10_13 - x7_13 <= 0
tri3_7_10_13: t7_10_13 - x10_13 <= 0
tri4_7_10_13: t7_10_13 - x7_10 - x7_13 - x10_13 >= -2
tri1_7_10_14: t7_10_14 - x7_10 <= 0
tri2_7_10_14: t7_10_14 - x7_14 <= 0
tri3_7_10_14: t7_10_14 - x10_14 <= 0
tri4_7_10_14: t7_10_14 - x7_10 - x7_14 - x10_14 >= -2
tri1_7_10_15: t7_10_15 - x7_10 <= 0
tri2_7_10_15: t7_10_15 - x7_15 <= 0
tri3_7_10_15: t7_10_15 - x10_15 <= 0
tri4_7_10_15: t7_10_15 - x7_10 - x7_15 - x10_15 >= -2
tri1_7_10_16: t7_10_16 - x7_10 <= 0
tri2_7_10_16: t7_10_16 - x7_16 <= 0
tri3_7_10_16: t7_10_16 - x10_16 <= 0
tri4_7_10_16: t7_10_16 - x7_10 - x7_16 - x10_16 >= -2
tri1_7_11_12: t7_11_12 - x7_11 <= 0
tri2_7_11_12: t7_11_12 - x7_12 <= 0
tri3_7_11_12: t7_11_12 - x11_12 <= 0
tri4_7_11_12: t7_11_12 - x7_11 - x7_12 - x11_12 >= -2
tri1_7_11_13: t7_11_13 - x7_11 <= 0
tri2_7_11_13: t7_11_13 - x7_13 <= 0
tri3_7_11_13: t7_11_13 - x11_13 <= 0
tri4_7_11_13: t7_11_13 - x7_11 - x7_13 - x11_13 >= -2
tri1_7_11_14: t7_11_14 - x7_11 <= 0
tri2_7_11_14: t7_11_14 - x7_14 <= 0
tri3_7_11_14: t7_11_14 - x11_14 <= 0
tri4_7_11_14: t7_11_14 - x7_11 - x7_14 - x11_14 >= -2
tri1_7_11_15: t7_11_15 - x7_11 <= 0
tri2_7_11_15: t7_11_15 - x7_15 <= 0
tri3_7_11_15: t7_11_15 - x11_15 <= 0
tri4_7_11_15: t7_11_15 - x7_11 - x7_15 - x11_15 >= -2
tri1_7_11_16: t7_11_16 - x7_11 <= 0
tri2_7_11_16: t7_11_16 - x7_16 <= 0
tri3_7_11_16: t7_11_16 - x11_16 <= 0
tri4_7_11_16: t7_11_16 - x7_11 - x7_16 - x11_16 >= -2
tri1_7_12_13: t7_12_13 - x7_12 <= 0
tri2_7_12_13: t7_12_13 - x7_13 <= 0
tri3_7_12_13: t7_12_13 - x12_13 <= 0
tri4_7_12_13: t7_12_13 - x7_12 - x7_13 - x12_13 >= -2
tri1_7_12_14: t7_12_14 - x7_12 <= 0
tri2_7_12_14: t7_12_14 - x7_14 <= 0
tri3_7_12_14: t7_12_14 - x12_14 <= 0
tri4_7_12_14: t7_12_14 - x7_12 - x7_14 - x12_14 >= -2
tri1_7_12_15: t7_12_15 - x7_12 <= 0
tri2_7_12_15: t7_12_15 - x7_15 <= 0
tri3_7_12_15: t7_12_15 - x12_15 <= 0
tri4_7_12_15: t7_12_15 - x7_12 - x7_15 - x12_15 >= -2
tri1_7_12_16: t7_12_16 - x7_12 <= 0
tri2_7_12_16: t7_12_16 - x7_16 <= 0
tri3_7_12_16: t7_12_16 - x12_16 <= 0
tri4_7_12_16: t7_12_16 - x7_12 - x7_16 - x12_16 >= -2
tri1_7_13_14: t7_13_14 - x7_13 <= 0
tri2_7_13_14: t7_13_14 - x7_14 <= 0
tri3_7_13_14: t7_13_14 - x13_14 <= 0
tri4_7_13_14: t7_13_14 - x7_13 - x7_14 - x13_14 >= -2
tri1_7_13_15: t7_13_15 - x7_13 <= 0
tri2_7_13_15: t7_13_15 - x7_15 <= 0
tri3_7_13_15: t7_13_15 - x13_15 <= 0
tri4_7_13_15: t7_13_15 - x7_13 - x7_15 - x13_15 >= -2
tri1_7_13_16: t7_13_16 - x7_13 <= 0
tri2_7_13_16: t7_13_16 - x7_16 <= 0
tri3_7_13_16: t7_13_16 - x13_16 <= 0
tri4_7_13_16: t7_13_16 - x7_13 - x7_16 - x13_16 >= -2
tri1_7_14_15: t7_14_15 - x7_14 <= 0
tri2_7_14_15: t7_14_15 - x7_15 <= 0
tri3_7_14_15: t7_14_15 - x14_15 <= 0
tri4_7_14_15: t7_14_15 - x7_14 - x7_15 - x14_15 >= -2
tri1_7_14_16: t7_14_16 - x7_14 <= 0
tri2_7_14_16: t7_14_16 - x7_16 <= 0
tri3_7_14_16: t7_14_16 - x14_16 <= 0
tri4_7_14_16: t7_14_16 - x7_14 - x7_16 - x14_16 >= -2
tri1_7_15_16: t7_15_16 - x7_15 <= 0
tri2_7_15_16: t7_15_16 - x7_16 <= 0
tri3_7_15_16: t7_15_16 - x15_16 <= 0
tri4_7_15_16: t7_15_16 - x7_15 - x7_16 - x15_16 >= -2
tri1_8_9_10: t8_9_10 - x8_9 <= 0
tri2_8_9_10: t8_9_10 - x8_10 <= 0
tri3_8_9_10: t8_9_10 - x9_10 <= 0
tri4_8_9_10: t8_9_10 - x8_9 - x8_10 - x9_10 >= -2
tri1_8_9_11: t8_9_11 - x8_9 <= 0
tri2_8_9_11: t8_9_11 - x8_11 <= 0
tri3_8_9_11: t8_9_11 - x9_11 <= 0
tri4_8_9_11: t8_9_11 - x8_9 - x8_11 - x9_11 >= -2
tri1_8_9_12: t8_9_12 - x8_9 <= 0
tri2_8_9_12: t8_9_12 - x8_12 <= 0
tri3_8_9_12: t8_9_12 - x9_12 <= 0
tri4_8_9_12: t8_9_12 - x8_9 - x8_12 - x9_12 >= -2
tri1_8_9_13: t8_9_13 - x8_9 <= 0
tri2_8_9_13: t8_9_13 - x8_13 <= 0
tri3_8_9_13: t8_9_13 - x9_13 <= 0
tri4_8_9_13: t8_9_13 - x8_9 - x8_13 - x9_13 >= -2
tri1_8_9_14: t8_9_14 - x8_9 <= 0
tri2_8_9_14: t8_9_14 - x8_14 <= 0
tri3_8_9_14: t8_9_14 - x9_14 <= 0
tri4_8_9_14: t8_9_14 - x8_9 - x8_14 - x9_14 >= -2
tri1_8_9_15: t8_9_15 - x8_9 <= 0
tri2_8_9_15: t8_9_15 - x8_15 <= 0
tri3_8_9_15: t8_9_15 - x9_15 <= 0
tri4_8_9_15: t8_9_15 - x8_9 - x8_15 - x9_15 >= -2
tri1_8_9_16: t8_9_16 - x8_9 <= 0
tri2_8_9_16: t8_9_16 - x8_16 <= 0
tri3_8_9_16: t8_9_16 - x9_16 <= 0
tri4_8_9_16: t8_9_16 - x8_9 - x8_16 - x9_16 >= -2
tri1_8_10_11: t8_10_11 - x8_10 <= 0
tri2_8_10_11: t8_10_11 - x8_11 <= 0
tri3_8_10_11: t8_10_11 - x10_11 <= 0
tri4_8_10_11: t8_10_11 - x8_10 - x8_11 - x10_11 >= -2
tri1_8_10_12: t8_10_12 - x8_10 <= 0
tri2_8_10_12: t8_10_12 - x8_12 <= 0
tri3_8_10_12: t8_10_12 - x10_12 <= 0
tri4_8_10_12: t8_10_12 - x8_10 - x8_12 - x10_12 >= -2
tri1_8_10_13: t8_10_13 - x8_10 <= 0
tri2_8_10_13: t8_10_13 - x8_13 <= 0
tri3_8_10_13: t8_10_13 - x10_13 <= 0
tri4_8_10_13: t8_10_13 - x8_10 - x8_13 - x10_13 >= -2
tri1_8_10_14: t8_10_14 - x8_10 <= 0
tri2_8_10_14: t8_10_14 - x8_14 <= 0
tri3_8_10_14: t8_10_14 - x10_14 <= 0
tri4_8_10_14: t8_10_14 - x8_10 - x8_14 - x10_14 >= -2
tri1_8_10_15: t8_10_15 - x8_10 <= 0
tri2_8_10_15: t8_10_15 - x8_15 <= 0
tri3_8_10_15: t8_10_15 - x10_15 <= 0
tri4_8_10_15: t8_10_15 - x8_10 - x8_15 - x10_15 >= -2
tri1_8_10_16: t8_10_16 - x8_10 <= 0
tri2_8_10_16: t8_10_16 - x8_16 <= 0
tri3_8_10_16: t8_10_16 - x10_16 <= 0
tri4_8_10_16: t8_10_16 - x8_10 - x8_16 - x10_16 >= -2
tri1_8_11_12: t8_11_12 - x8_11 <= 0
tri2_8_11_12: t8_11_12 - x8_12 <= 0
tri3_8_11_12: t8_11_12 - x11_12 <= 0
tri4_8_11_12: t8_11_12 - x8_11 - x8_12 - x11_12 >= -2
tri1_8_11_13: t8_11_13 - x8_11 <= 0
tri2_8_11_13: t8_11_13 - x8_13 <= 0
tri3_8_11_13: t8_11_13 - x11_13 <= 0
tri4_8_11_13: t8_11_13 - x8_11 - x8_13 - x11_13 >= -2
tri1_8_11_14: t8_11_14 - x8_11 <= 0
tri2_8_11_14: t8_11_14 - x8_14 <= 0
tri3_8_11_14: t8_11_14 - x11_14 <= 0
tri4_8_11_14: t8_11_14 - x8_11 - x8_14 - x11_14 >= -2
tri1_8_11_15: t8_11_15 - x8_11 <= 0
tri2_8_11_15: t8_11_15 - x8_15 <= 0
tri3_8_11_15: t8_11_15 - x11_15 <= 0
tri4_8_11_15: t8_11_15 - x8_11 - x8_15 - x11_15 >= -2
tri1_8_11_16: t8_11_16 - x8_11 <= 0
tri2_8_11_16: t8_11_16 - x8_16 <= 0
tri3_8_11_16: t8_11_16 - x11_16 <= 0
tri4_8_11_16: t8_11_16 - x8_11 - x8_16 - x11_16 >= -2
tri1_8_12_13: t8_12_13 - x8_12 <= 0
tri2_8_12_13: t8_12_13 - x8_13 <= 0
tri3_8_12_13: t8_12_13 - x12_13 <= 0
tri4_8_12_13: t8_12_13 - x8_12 - x8_13 - x12_13 >= -2
tri1_8_12_14: t8_12_14 - x8_12 <= 0
tri2_8_12_14: t8_12_14 - x8_14 <= 0
tri3_8_12_14: t8_12_14 - x12_14 <= 0
tri4_8_12_14: t8_12_14 - x8_12 - x8_14 - x12_14 >= -2
tri1_8_12_15: t8_12_15 - x8_12 <= 0
tri2_8_12_15: t8_12_15 - x8_15 <= 0
tri3_8_12_15: t8_12_15 - x12_15 <= 0
tri4_8_12_15: t8_12_15 - x8_12 - x8_15 - x12_15 >= -2
tri1_8_12_16: t8_12_16 - x8_12 <= 0
tri2_8_12_16: t8_12_16 - x8_16 <= 0
tri3_8_12_16: t8_12_16 - x12_16 <= 0
tri4_8_12_16: t8_12_16 - x8_12 - x8_16 - x12_16 >= -2
tri1_8_13_14: t8_13_14 - x8_13 <= 0
tri2_8_13_14: t8_13_14 - x8_14 <= 0
tri3_8_13_14: t8_13_14 - x13_14 <= 0
tri4_8_13_14: t8_13_14 - x8_13 - x8_14 - x13_14 >= -2
tri1_8_13_15: t8_13_15 - x8_13 <= 0
tri2_8_13_15: t8_13_15 - x8_15 <= 0
tri3_8_13_15: t8_13_15 - x13_15 <= 0
tri4_8_13_15: t8_13_15 - x8_13 - x8_15 - x13_15 >= -2
tri1_8_13_16: t8_13_16 - x8_13 <= 0
tri2_8_13_16: t8_13_16 - x8_16 <= 0
tri3_8_13_16: t8_13_16 - x13_16 <= 0
tri4_8_13_16: t8_13_16 - x8_13 - x8_16 - x13_16 >= -2
tri1_8_14_15: t8_14_15 - x8_14 <= 0
tri2_8_14_15: t8_14_15 - x8_15 <= 0
tri3_8_14_15: t8_14_15 - x14_15 <= 0
tri4_8_14_15: t8_14_15 - x8_14 - x8_15 - x14_15 >= -2
tri1_8_14_16: t8_14_16 - x8_14 <= 0
tri2_8_14_16: t8_14_16 - x8_16 <= 0
tri3_8_14_16: t8_14_16 - x14_16 <= 0
tri4_8_14_16: t8_14_16 - x8_14 - x8_16 - x14_16 >= -2
tri1_8_15_16: t8_15_16 - x8_15 <= 0
tri2_8_15_16: t8_15_16 - x8_16 <= 0
tri3_8_15_16: t8_15_16 - x15_16 <= 0
tri4_8_15_16: t8_15_16 - x8_15 - x8_16 - x15_16 >= -2
tri1_9_10_11: t9_10_11 - x9_10 <= 0
tri2_9_10_11: t9_10_11 - x9_11 <= 0
tri3_9_10_11: t9_10_11 - x10_11 <= 0
tri4_9_10_11: t9_10_11 - x9_10 - x9_11 - x10_11 >= -2
tri1_9_10_12: t9_10_12 - x9_10 <= 0
tri2_9_10_12: t9_10_12 - x9_12 <= 0
tri3_9_10_12: t9_10_12 - x10_12 <= 0
tri4_9_10_12: t9_10_12 - x9_10 - x9_12 - x10_12 >= -2
tri1_9_10_13: t9_10_13 - x9_10 <= 0
tri2_9_10_13: t9_10_13 - x9_13 <= 0
tri3_9_10_13: t9_10_13 - x10_13 <= 0
tri4_9_10_13: t9_10_13 - x9_10 - x9_13 - x10_13 >= -2
tri1_9_10_14: t9_10_14 - x9_10 <= 0
tri2_9_10_14: t9_10_14 - x9_14 <= 0
tri3_9_10_14: t9_10_14 - x10_14 <= 0
tri4_9_10_14: t9_10_14 - x9_10 - x9_14 - x10_14 >= -2
tri1_9_10_15: t9_10_15 - x9_10 <= 0
tri2_9_10_15: t9_10_15 - x9_15 <= 0
tri3_9_10_15: t9_10_15 - x10_15 <= 0
tri4_9_10_15: t9_10_15 - x9_10 - x9_15 - x10_15 >= -2
tri1_9_10_16: t9_10_16 - x9_10 <= 0
tri2_9_10_16: t9_10_16 - x9_16 <= 0
tri3_9_10_16: t9_10_16 - x10_16 <= 0
tri4_9_10_16: t9_10_16 - x9_10 - x9_16 - x10_16 >= -2
tri1_9_11_12: t9_11_12 - x9_11 <= 0
tri2_9_11_12: t9_11_12 - x9_12 <= 0
tri3_9_11_12: t9_11_12 - x11_12 <= 0
tri4_9_11_12: t9_11_12 - x9_11 - x9_12 - x11_12 >= -2
tri1_9_11_13: t9_11_13 - x9_11 <= 0
tri2_9_11_13: t9_11_13 - x9_13 <= 0
tri3_9_11_13: t9_11_13 - x11_13 <= 0
tri4_9_11_13: t9_11_13 - x9_11 - x9_13 - x11_13 >= -2
tri1_9_11_14: t9_11_14 - x9_11 <= 0
tri2_9_11_14: t9_11_14 - x9_14 <= 0
tri3_9_11_14: t9_11_14 - x11_14 <= 0
tri4_9_11_14: t9_11_14 - x9_11 - x9_14 - x11_14 >= -2
tri1_9_11_15: t9_11_15 - x9_11 <= 0
tri2_9_11_15: t9_11_15 - x9_15 <= 0
tri3_9_11_15: t9_11_15 - x11_15 <= 0
tri4_9_11_15: t9_11_15 - x9_11 - x9_15 - x11_15 >= -2
tri1_9_11_16: t9_11_16 - x9_11 <= 0
tri2_9_11_16: t9_11_16 - x9_16 <= 0
tri3_9_11_16: t9_11_16 - x11_16 <= 0
tri4_9_11_16: t9_11_16 - x9_11 - x9_16 - x11_16 >= -2
tri1_9_12_13: t9_12_13 - x9_12 <= 0
tri2_9_12_13: t9_12_13 - x9_13 <= 0
tri3_9_12_13: t9_12_13 - x12_13 <= 0
tri4_9_12_13: t9_12_13 - x9_12 - x9_13 - x12_13 >= -2
tri1_9_12_14: t9_12_14 - x9_12 <= 0
tri2_9_12_14: t9_12_14 - x9_14 <= 0
tri3_9_12_14: t9_12_14 - x12_14 <= 0
tri4_9_12_14: t9_12_14 - x9_12 - x9_14 - x12_14 >= -2
tri1_9_12_15: t9_12_15 - x9_12 <= 0
tri2_9_12_15: t9_12_15 - x9_15 <= 0
tri3_9_12_15: t9_12_15 - x12_15 <= 0
tri4_9_12_15: t9_12_15 - x9_12 - x9_15 - x12_15 >= -2
tri1_9_12_16: t9_12_16 - x9_12 <= 0
tri2_9_12_16: t9_12_16 - x9_16 <= 0
tri3_9_12_16: t9_12_16 - x12_16 <= 0
tri4_9_12_16: t9_12_16 - x9_12 - x9_16 - x12_16 >= -2
tri1_9_13_14: t9_13_14 - x9_13 <= 0
tri2_9_13_14: t9_13_14 - x9_14 <= 0
tri3_9_13_14: t9_13_14 - x13_14 <= 0
tri4_9_13_14: t9_13_14 - x9_13 - x9_14 - x13_14 >= -2
tri1_9_13_15: t9_13_15 - x9_13 <= 0
tri2_9_13_15: t9_13_15 - x9_15 <= 0
tri3_9_13_15: t9_13_15 - x13_15 <= 0
tri4_9_13_15: t9_13_15 - x9_13 - x9_15 - x13_15 >= -2
tri1_9_13_16: t9_13_16 - x9_13 <= 0
tri2_9_13_16: t9_13_16 - x9_16 <= 0
tri3_9_13_16: t9_13_16 - x13_16 <= 0
tri4_9_13_16: t9_13_16 - x9_13 - x9_16 - x13_16 >= -2
tri1_9_14_15: t9_14_15 - x9_14 <= 0
tri2_9_14_15: t9_14_15 - x9_15 <= 0
tri3_9_14_15: t9_14_15 - x14_15 <= 0
tri4_9_14_15: t9_14_15 - x9_14 - x9_15 - x14_15 >= -2
tri1_9_14_16: t9_14_16 - x9_14 <= 0
tri2_9_14_16: t9_14_16 - x9_16 <= 0
tri3_9_14_16: t9_14_16 - x14_16 <= 0
tri4_9_14_16: t9_14_16 - x9_14 - x9_16 - x14_16 >= -2
tri1_9_15_16: t9_15_16 - x9_15 <= 0
tri2_9_15_16: t9_15_16 - x9_16 <= 0
tri3_9_15_16: t9_15_16 - x15_16 <= 0
tri4_9_15_16: t9_15_16 - x9_15 - x9_16 - x15_16 >= -2
tri1_10_11_12: t10_11_12 - x10_11 <= 0
tri2_10_11_12: t10_11_12 - x10_12 <= 0
tri3_10_11_12: t10_11_12 - x11_12 <= 0
tri4_10_11_12: t10_11_12 - x10_11 - x10_12 - x11_12 >= -2
tri1_10_11_13: t10_11_13 - x10_11 <= 0
tri2_10_11_13: t10_11_13 - x10_13 <= 0
tri3_10_11_13: t10_11_13 - x11_13 <= 0
tri4_10_11_13: t10_11_13 - x10_11 - x10_13 - x11_13 >= -2
tri1_10_11_14: t10_11_14 - x10_11 <= 0
tri2_10_11_14: t10_11_14 - x10_14 <= 0
tri3_10_11_14: t10_11_14 - x11_14 <= 0
tri4_10_11_14: t10_11_14 - x10_11 - x10_14 - x11_14 >= -2
tri1_10_11_15: t10_11_15 - x10_11 <= 0
tri2_10_11_15: t10_11_15 - x10_15 <= 0
tri3_10_11_15: t10_11_15 - x11_15 <= 0
tri4_10_11_15: t10_11_15 - x10_11 - x10_15 - x11_15 >= -2
tri1_10_11_16: t10_11_16 - x10_11 <= 0
tri2_10_11_16: t10_11_16 - x10_16 <= 0
tri3_10_11_16: t10_11_16 - x11_16 <= 0
tri4_10_11_16: t10_11_16 - x10_11 - x10_16 - x11_16 >= -2
tri1_10_12_13: t10_12_13 - x10_12 <= 0
tri2_10_12_13: t10_12_13 - x10_13 <= 0
tri3_10_12_13: t10_12_13 - x12_13 <= 0
tri4_10_12_13: t10_12_13 - x10_12 - x10_13 - x12_13 >= -2
tri1_10_12_14: t10_12_14 - x10_12 <= 0
tri2_10_12_14: t10_12_14 - x10_14 <= 0
tri3_10_12_14: t10_12_14 - x12_14 <= 0
tri4_10_12_14: t10_12_14 - x10_12 - x10_14 - x12_14 >= -2
tri1_10_12_15: t10_12_15 - x10_12 <= 0
tri2_10_12_15: t10_12_15 - x10_15 <= 0
tri3_10_12_15: t10_12_15 - x12_15 <= 0
tri4_10_12_15: t10_12_15 - x10_12 - x10_15 - x12_15 >= -2
tri1_10_12_16: t10_12_16 - x10_12 <= 0
tri2_10_12_16: t10_12_16 - x10_16 <= 0
tri3_10_12_16: t10_12_16 - x12_16 <= 0
tri4_10_12_16: t10_12_16 - x10_12 - x10_16 - x12_16 >= -2
tri1_10_13_14: t10_13_14 - x10_13 <= 0
tri2_10_13_14: t10_13_14 - x10_14 <= 0
tri3_10_13_14: t10_13_14 - x13_14 <= 0
tri4_10_13_14: t10_13_14 - x10_13 - x10_14 - x13_14 >= -2
tri1_10_13_15: t10_13_15 - x10_13 <= 0
tri2_10_13_15: t10_13_15 - x10_15 <= 0
tri3_10_13_15: t10_13_15 - x13_15 <= 0
tri4_10_13_15: t10_13_15 - x10_13 - x10_15 - x13_15 >= -2
tri1_10_13_16: t10_13_16 - x10_13 <= 0
tri2_10_13_16: t10_13_16 - x10_16 <= 0
tri3_10_13_16: t10_13_16 - x13_16 <= 0
tri4_10_13_16: t10_13_16 - x10_13 - x10_16 - x13_16 >= -2
tri1_10_14_15: t10_14_15 - x10_14 <= 0
tri2_10_14_15: t10_14_15 - x10_15 <= 0
tri3_10_14_15: t10_14_15 - x14_15 <= 0
tri4_10_14_15: t10_14_15 - x10_14 - x10_15 - x14_15 >= -2
tri1_10_14_16: t10_14_16 - x10_14 <= 0
tri2_10_14_16: t10_14_16 - x10_16 <= 0
tri3_10_14_16: t10_14_16 - x14_16 <= 0
tri4_10_14_16: t10_14_16 - x10_14 - x10_16 - x14_16 >= -2
tri1_10_15_16: t10_15_16 - x10_15 <= 0
tri2_10_15_16: t10_15_16 - x10_16 <= 0
tri3_10_15_16: t10_15_16 - x15_16 <= 0
tri4_10_15_16: t10_15_16 - x10_15 - x10_16 - x15_16 >= -2
tri1_11_12_13: t11_12_13 - x11_12 <= 0
tri2_11_12_13: t11_12_13 - x11_13 <= 0
tri3_11_12_13: t11_12_13 - x12_13 <= 0
tri4_11_12_13: t11_12_13 - x11_12 - x11_13 - x12_13 >= -2
tri1_11_12_14: t11_12_14 - x11_12 <= 0
tri2_11_12_14: t11_12_14 - x11_14 <= 0
tri3_11_12_14: t11_12_14 - x12_14 <= 0
tri4_11_12_14: t11_12_14 - x11_12 - x11_14 - x12_14 >= -2
tri1_11_12_15: t11_12_15 - x11_12 <= 0
tri2_11_12_15: t11_12_15 - x11_15 <= 0
tri3_11_12_15: t11_12_15 - x12_15 <= 0
tri4_11_12_15: t11_12_15 - x11_12 - x11_15 - x12_15 >= -2
tri1_11_12_16: t11_12_16 - x11_12 <= 0
tri2_11_12_16: t11_12_16 - x11_16 <= 0
tri3_11_12_16: t11_12_16 - x12_16 <= 0
tri4_11_12_16: t11_12_16 - x11_12 - x11_16 - x12_16 >= -2
tri1_11_13_14: t11_13_14 - x11_13 <= 0
tri2_11_13_14: t11_13_14 - x11_14 <= 0
tri3_11_13_14: t11_13_14 - x13_14 <= 0
tri4_11_13_14: t11_13_14 - x11_13 - x11_14 - x13_14 >= -2
tri1_11_13_15: t11_13_15 - x11_13 <= 0
tri2_11_13_15: t11_13_15 - x11_15 <= 0
tri3_11_13_15: t11_13_15 - x13_15 <= 0
tri4_11_13_15: t11_13_15 - x11_13 - x11_15 - x13_15 >= -2
tri1_11_13_16: t11_13_16 - x11_13 <= 0
tri2_11_13_16: t11_13_16 - x11_16 <= 0
tri3_11_13_16: t11_13_16 - x13_16 <= 0
tri4_11_13_16: t11_13_16 - x11_13 - x11_16 - x13_16 >= -2
tri1_11_14_15: t11_14_15 - x11_14 <= 0
tri2_11_14_15: t11_14_15 - x11_15 <= 0
tri3_11_14_15: t11_14_15 - x14_15 <= 0
tri4_11_14_15: t11_14_15 - x11_14 - x11_15 - x14_15 >= -2
tri1_11_14_16: t11_14_16 - x11_14 <= 0
tri2_11_14_16: t11_14_16 - x11_16 <= 0
tri3_11_14_16: t11_14_16 - x14_16 <= 0
tri4_11_14_16: t11_14_16 - x11_14 - x11_16 - x14_16 >= -2
tri1_11_15_16: t11_15_16 - x11_15 <= 0
tri2_11_15_16: t11_15_16 - x11_16 <= 0
tri3_11_15_16: t11_15_16 - x15_16 <= 0
tri4_11_15_16: t11_15_16 - x11_15 - x11_16 - x15_16 >= -2
tri1_12_13_14: t12_13_14 - x12_13 <= 0
tri2_12_13_14: t12_13_14 - x12_14 <= 0
tri3_12_13_14: t12_13_14 - x13_14 <= 0
tri4_12_13_14: t12_13_14 - x12_13 - x12_14 - x13_14 >= -2
tri1_12_13_15: t12_13_15 - x12_13 <= 0
tri2_12_13_15: t12_13_15 - x12_15 <= 0
tri3_12_13_15: t12_13_15 - x13_15 <= 0
tri4_12_13_15: t12_13_15 - x12_13 - x12_15 - x13_15 >= -2
tri1_12_13_16: t12_13_16 - x12_13 <= 0
tri2_12_13_16: t12_13_16 - x12_16 <= 0
tri3_12_13_16: t12_13_16 - x13_16 <= 0
tri4_12_13_16: t12_13_16 - x12_13 - x12_16 - x13_16 >= -2
tri1_12_14_15: t12_14_15 - x12_14 <= 0
tri2_12_14_15: t12_14_15 - x12_15 <= 0
tri3_12_14_15: t12_14_15 - x14_15 <= 0
tri4_12_14_15: t12_14_15 - x12_14 - x12_15 - x14_15 >= -2
tri1_12_14_16: t12_14_16 - x12_14 <= 0
tri2_12_14_16: t12_14_16 - x12_16 <= 0
tri3_12_14_16: t12_14_16 - x14_16 <= 0
tri4_12_14_16: t12_14_16 - x12_14 - x12_16 - x14_16 >= -2
tri1_12_15_16: t12_15_16 - x12_15 <= 0
tri2_12_15_16: t12_15_16 - x12_16 <= 0
tri3_12_15_16: t12_15_16 - x15_16 <= 0
tri4_12_15_16: t12_15_16 - x12_15 - x12_16 - x15_16 >= -2
tri1_13_14_15: t13_14_15 - x13_14 <= 0
tri2_13_14_15: t13_14_15 - x13_15 <= 0
tri3_13_14_15: t13_14_15 - x14_15 <= 0
tri4_13_14_15: t13_14_15 - x13_14 - x13_15 - x14_15 >= -2
tri1_13_14_16: t13_14_16 - x13_14 <= 0
tri2_13_14_16: t13_14_16 - x13_16 <= 0
tri3_13_14_16: t13_14_16 - x14_16 <= 0
tri4_13_14_16: t13_14_16 - x13_14 - x13_16 - x14_16 >= -2
tri1_13_15_16: t13_15_16 - x13_15 <= 0
tri2_13_15_16: t13_15_16 - x13_16 <= 0
tri3_13_15_16: t13_15_16 - x15_16 <= 0
tri4_13_15_16: t13_15_16 - x13_15 - x13_16 - x15_16 >= -2
tri1_14_15_16: t14_15_16 - x14_15 <= 0
tri2_14_15_16: t14_15_16 - x14_16 <= 0
tri3_14_15_16: t14_15_16 - x15_16 <= 0
tri4_14_15_16: t14_15_16 - x14_15 - x14_16 - x15_16 >= -2
k3deg0: d0 - t0_1_2 - t0_1_3 - t0_1_4 - t0_1_5 - t0_1_6 - t0_1_7 - t0_1_8 - t0_1_9 - t0_1_10 - t0_1_11 - t0_1_12 - t0_1_13 - t0_1_14 - t0_1_15 - t0_1_16 - t0_2_3 - t0_2_4 - t0_2_5 - t0_2_6 - t0_2_7 - t0_2_8 - t0_2_9 - t0_2_10 - t0_2_11 - t0_2_12 - t0_2_13 - t0_2_14 - t0_2_15 - t0_2_16 - t0_3_4 - t0_3_5 - t0_3_6 - t0_3_7 - t0_3_8 - t0_3_9 - t0_3_10 - t0_3_11 - t0_3_12 - t0_3_13 - t0_3_14 - t0_3_15 - t0_3_16 - t0_4_5 - t0_4_6 - t0_4_7 - t0_4_8 - t0_4_9 - t0_4_10 - t0_4_11 - t0_4_12 - t0_4_13 - t0_4_14 - t0_4_15 - t0_4_16 - t0_5_6 - t0_5_7 - t0_5_8 - t0_5_9 - t0_5_10 - t0_5_11 - t0_5_12 - t0_5_13 - t0_5_14 - t0_5_15 - t0_5_16 - t0_6_7 - t0_6_8 - t0_6_9 - t0_6_10 - t0_6_11 - t0_6_12 - t0_6_13 - t0_6_14 - t0_6_15 - t0_6_16 - t0_7_8 - t0_7_9 - t0_7_10 - t0_7_11 - t0_7_12 - t0_7_13 - t0_7_14 - t0_7_15 - t0_7_16 - t0_8_9 - t0_8_10 - t0_8_11 - t0_8_12 - t0_8_13 - t0_8_14 - t0_8_15 - t0_8_16 - t0_9_10 - t0_9_11 - t0_9_12 - t0_9_13 - t0_9_14 - t0_9_15 - t0_9_16 - t0_10_11 - t0_10_12 - t0_10_13 - t0_10_14 - t0_10_15 - t0_10_16 - t0_11_12 - t0_11_13 - t0_11_14 - t0_11_15 - t0_11_16 - t0_12_13 - t0_12_14 - t0_12_15 - t0_12_16 - t0_13_14 - t0_13_15 - t0_13_16 - t0_14_15 - t0_14_16 - t0_15_16 = 0
k3deg1: d1 - t0_1_2 - t0_1_3 - t0_1_4 - t0_1_5 - t0_1_6 - t0_1_7 - t0_1_8 - t0_1_9 - t0_1_10 - t0_1_11 - t0_1_12 - t0_1_13 - t0_1_14 - t0_1_15 - t0_1_16 - t1_2_3 - t1_2_4 - t1_2_5 - t1_2_6 - t1_2_7 - t1_2_8 - t1_2_9 - t1_2_10 - t1_2_11 - t1_2_12 - t1_2_13 - t1_2_14 - t1_2_15 - t1_2_16 - t1_3_4 - t1_3_5 - t1_3_6 - t1_3_7 - t1_3_8 - t1_3_9 - t1_3_10 - t1_3_11 - t1_3_12 - t1_3_13 - t1_3_14 - t1_3_15 - t1_3_16 - t1_4_5 - t1_4_6 - t1_4_7 - t1_4_8 - t1_4_9 - t1_4_10 - t1_4_11 - t1_4_12 - t1_4_13 - t1_4_14 - t1_4_15 - t1_4_16 - t1_5_6 - t1_5_7 - t1_5_8 - t1_5_9 - t1_5_10 - t1_5_11 - t1_5_12 - t1_5_13 - t1_5_14 - t1_5_15 - t1_5_16 - t1_6_7 - t1_6_8 - t1_6_9 - t1_6_10 - t1_6_11 - t1_6_12 - t1_6_13 - t1_6_14 - t1_6_15 - t1_6_16 - t1_7_8 - t1_7_9 - t1_7_10 - t1_7_11 - t1_7_12 - t1_7_13 - t1_7_14 - t1_7_15 - t1_7_16 - t1_8_9 - t1_8_10 - t1_8_11 - t1_8_12 - t1_8_13 - t1_8_14 - t1_8_15 - t1_8_16 - t1_9_10 - t1_9_11 - t1_9_12 - t1_9_13 - t1_9_14 - t1_9_15 - t1_9_16 - t1_10_11 - t1_10_12 - t1_10_13 - t1_10_14 - t1_10_15 - t1_10_16 - t1_11_12 - t1_11_13 - t1_11_14 - t1_11_15 - t1_11_16 - t1_12_13 - t1_12_14 - t1_12_15 - t1_12_16 - t1_13_14 - t1_13_15 - t1_13_16 - t1_14_15 - t1_14_16 - t1_15_16 = 0
k3deg2: d2 - t0_1_2 - t0_2_3 - t0_2_4 - t0_2_5 - t0_2_6 - t0_2_7 - t0_2_8 - t0_2_9 - t0_2_10 - t0_2_11 - t0_2_12 - t0_2_13 - t0_2_14 - t0_2_15 - t0_2_16 - t1_2_3 - t1_2_4 - t1_2_5 - t1_2_6 - t1_2_7 - t1_2_8 - t1_2_9 - t1_2_10 - t1_2_11 - t1_2_12 - t1_2_13 - t1_2_14 - t1_2_15 - t1_2_16 - t2_3_4 - t2_3_5 - t2_3_6 - t2_3_7 - t2_3_8 - t2_3_9 - t2_3_10 - t2_3_11 - t2_3_12 - t2_3_13 - t2_3_14 - t2_3_15 - t2_3_16 - t2_4_5 - t2_4_6 - t2_4_7 - t2_4_8 - t2_4_9 - t2_4_10 - t2_4_11 - t2_4_12 - t2_4_13 - t2_4_14 - t2_4_15 - t2_4_16 - t2_5_6 - t2_5_7 - t2_5_8 - t2_5_9 - t2_5_10 - t2_5_11 - t2_5_12 - t2_5_13 - t2_5_14 - t2_5_15 - t2_5_16 - t2_6_7 - t2_6_8 - t2_6_9 - t2_6_10 - t2_6_11 - t2_6_12 - t2_6_13 - t2_6_14 - t2_6_15 - t2_6_16 - t2_7_8 - t2_7_9 - t2_7_10 - t2_7_11 - t2_7_12 - t2_7_13 - t2_7_14 - t2_7_15 - t2_7_16 - t2_8_9 - t2_8_10 - t2_8_11 - t2_8_12 - t2_8_13 - t2_8_14 - t2_8_15 - t2_8_16 - t2_9_10 - t2_9_11 - t2_9_12 - t2_9_13 - t2_9_14 - t2_9_15 - t2_9_16 - t2_10_11 - t2_10_12 - t2_10_13 - t2_10_14 - t2_10_15 - t2_10_16 - t2_11_12 - t2_11_13 - t2_11_14 - t2_11_15 - t2_11_16 - t2_12_13 - t2_12_14 - t2_12_15 - t2_12_16 - t2_13_14 - t2_13_15 - t2_13_16 - t2_14_15 - t2_14_16 - t2_15_16 = 0
k3deg3: d3 - t0_1_3 - t0_2_3 - t0_3_4 - t0_3_5 - t0_3_6 - t0_3_7 - t0_3_8 - t0_3_9 - t0_3_10 - t0_3_11 - t0_3_12 - t0_3_13 - t0_3_14 - t0_3_15 - t0_3_16 - t1_2_3 - t1_3_4 - t1_3_5 - t1_3_6 - t1_3_7 - t1_3_8 - t1_3_9 - t1_3_10 - t1_3_11 - t1_3_12 - t1_3_13 - t1_3_14 - t1_3_15 - t1_3_16 - t2_3_4 - t2_3_5 - t2_3_6 - t2_3_7 - t2_3_8 - t2_3_9 - t2_3_10 - t2_3_11 - t2_3_12 - t2_3_13 - t2_3_14 - t2_3_15 - t2_3_16 - t3_4_5 - t3_4_6 - t3_4_7 - t3_4_8 - t3_4_9 - t3_4_10 - t3_4_11 - t3_4_12 - t3_4_13 - t3_4_14 - t3_4_15 - t3_4_16 - t3_5_6 - t3_5_7 - t3_5_8 - t3_5_9 - t3_5_10 - t3_5_11 - t3_5_12 - t3_5_13 - t3_5_14 - t3_5_15 - t3_5_16 - t3_6_7 - t3_6_8 - t3_6_9 - t3_6_10 - t3_6_11 - t3_6_12 - t3_6_13 - t3_6_14 - t3_6_15 - t3_6_16 - t3_7_8 - t3_7_9 - t3_7_10 - t3_7_11 - t3_7_12 - t3_7_13 - t3_7_14 - t3_7_15 - t3_7_16 - t3_8_9 - t3_8_10 - t3_8_11 - t3_8_12 - t3_8_13 - t3_8_14 - t3_8_15 - t3_8_16 - t3_9_10 - t3_9_11 - t3_9_12 - t3_9_13 - t3_9_14 - t3_9_15 - t3_9_16 - t3_10_11 - t3_10_12 - t3_10_13 - t3_10_14 - t3_10_15 - t3_10_16 - t3_11_12 - t3_11_13 - t3_11_14 - t3_11_15 - t3_11_16 - t3_12_13 - t3_12_14 - t3_12_15 - t3_12_16 - t3_13_14 - t3_13_15 - t3_13_16 - t3_14_15 - t3_14_16 - t3_15_16 = 0
k3deg4: d4 - t0_1_4 - t0_2_4 - t0_3_4 - t0_4_5 - t0_4_6 - t0_4_7 - t0_4_8 - t0_4_9 - t0_4_10 - t0_4_11 - t0_4_12 - t0_4_13 - t0_4_14 - t0_4_15 - t0_4_16 - t1_2_4 - t1_3_4 - t1_4_5 - t1_4_6 - t1_4_7 - t1_4_8 - t1_4_9 - t1_4_10 - t1_4_11 - t1_4_12 - t1_4_13 - t1_4_14 - t1_4_15 - t1_4_16 - t2_3_4 - t2_4_5 - t2_4_6 - t2_4_7 - t2_4_8 - t2_4_9 - t2_4_10 - t2_4_11 - t2_4_12 - t2_4_13 - t2_4_14 - t2_4_15 - t2_4_16 - t3_4_5 - t3_4_6 - t3_4_7 - t3_4_8 - t3_4_9 - t3_4_10 - t3_4_11 - t3_4_12 - t3_4_13 - t3_4_14 - t3_4_15 - t3_4_16 - t4_5_6 - t4_5_7 - t4_5_8 - t4_5_9 - t4_5_10 - t4_5_11 - t4_5_12 - t4_5_13 - t4_5_14 - t4_5_15 - t4_5_16 - t4_6_7 - t4_6_8 - t4_6_9 - t4_6_10 - t4_6_11 - t4_6_12 - t4_6_13 - t4_6_14 - t4_6_15 - t4_6_16 - t4_7_8 - t4_7_9 - t4_7_10 - t4_7_11 - t4_7_12 - t4_7_13 - t4_7_14 - t4_7_15 - t4_7_16 - t4_8_9 - t4_8_10 - t4_8_11 - t4_8_12 - t4_8_13 - t4_8_14 - t4_8_15 - t4_8_16 - t4_9_10 - t4_9_11 - t4_9_12 - t4_9_13 - t4_9_14 - t4_9_15 - t4_9_16 - t4_10_11 - t4_10_12 - t4_10_13 - t4_10_14 - t4_10_15 - t4_10_16 - t4_11_12 - t4_11_13 - t4_11_14 - t4_11_15 - t4_11_16 - t4_12_13 - t4_12_14 - t4_12_15 - t4_12_16 - t4_13_14 - t4_13_15 - t4_13_16 - t4_14_15 - t4_14_16 - t4_15_16 = 0
k3deg5: d5 - t0_1_5 - t0_2_5 - t0_3_5 - t0_4_5 - t0_5_6 - t0_5_7 - t0_5_8 - t0_5_9 - t0_5_10 - t0_5_11 - t0_5_12 - t0_5_13 - t0_5_14 - t0_5_15 - t0_5_16 - t1_2_5 - t1_3_5 - t1_4_5 - t1_5_6 - t1_5_7 - t1_5_8 - t1_5_9 - t1_5_10 - t1_5_11 - t1_5_12 - t1_5_13 - t1_5_14 - t1_5_15 - t1_5_16 - t2_3_5 - t2_4_5 - t2_5_6 - t2_5_7 - t2_5_8 - t2_5_9 - t2_5_10 - t2_5_11 - t2_5_12 - t2_5_13 - t2_5_14 - t2_5_15 - t2_5_16 - t3_4_5 - t3_5_6 - t3_5_7 - t3_5_8 - t3_5_9 - t3_5_10 - t3_5_11 - t3_5_12 - t3_5_13 - t3_5_14 - t3_5_15 - t3_5_16 - t4_5_6 - t4_5_7 - t4_5_8 - t4_5_9 - t4_5_10 - t4_5_11 - t4_5_12 - t4_5_13 - t4_5_14 - t4_5_15 - t4_5_16 - t5_6_7 - t5_6_8 - t5_6_9 - t5_6_10 - t5_6_11 - t5_6_12 - t5_6_13 - t5_6_14 - t5_6_15 - t5_6_16 - t5_7_8 - t5_7_9 - t5_7_10 - t5_7_11 - t5_7_12 - t5_7_13 - t5_7_14 - t5_7_15 - t5_7_16 - t5_8_9 - t5_8_10 - t5_8_11 - t5_8_12 - t5_8_13 - t5_8_14 - t5_8_15 - t5_8_16 - t5_9_10 - t5_9_11 - t5_9_12 - t5_9_13 - t5_9_14 - t5_9_15 - t5_9_16 - t5_10_11 - t5_10_12 - t5_10_13 - t5_10_14 - t5_10_15 - t5_10_16 - t5_11_12 - t5_11_13 - t5_11_14 - t5_11_15 - t5_11_16 - t5_12_13 - t5_12_14 - t5_12_15 - t5_12_16 - t5_13_14 - t5_13_15 - t5_13_16 - t5_14_15 - t5_14_16 - t5_15_16 = 0
k3deg6: d6 - t0_1_6 - t0_2_6 - t0_3_6 - t0_4_6 - t0_5_6 - t0_6_7 - t0_6_8 - t0_6_9 - t0_6_10 - t0_6_11 - t0_6_12 - t0_6_13 - t0_6_14 - t0_6_15 - t0_6_16 - t1_2_6 - t1_3_6 - t1_4_6 - t1_5_6 - t1_6_7 - t1_6_8 - t1_6_9 - t1_6_10 - t1_6_11 - t1_6_12 - t1_6_13 - t1_6_14 - t1_6_15 - t1_6_16 - t2_3_6 - t2_4_6 - t2_5_6 - t2_6_7 - t2_6_8 - t2_6_9 - t2_6_10 - t2_6_11 - t2_6_12 - t2_6_13 - t2_6_14 - t2_6_15 - t2_6_16 - t3_4_6 - t3_5_6 - t3_6_7 - t3_6_8 - t3_6_9 - t3_6_10 - t3_6_11 - t3_6_12 - t3_6_13 - t3_6_14 - t3_6_15 - t3_6_16 - t4_5_6 - t4_6_7 - t4_6_8 - t4_6_9 - t4_6_10 - t4_6_11 - t4_6_12 - t4_6_13 - t4_6_14 - t4_6_15 - t4_6_16 - t5_6_7 - t5_6_8 - t5_6_9 - t5_6_10 - t5_6_11 - t5_6_12 - t5_6_13 - t5_6_14 - t5_6_15 - t5_6_16 - t6_7_8 - t6_7_9 - t6_7_10 - t6_7_11 - t6_7_12 - t6_7_13 - t6_7_14 - t6_7_15 - t6_7_16 - t6_8_9 - t6_8_10 - t6_8_11 - t6_8_12 - t6_8_13 - t6_8_14 - t6_8_15 - t6_8_16 - t6_9_10 - t6_9_11 - t6_9_12 - t6_9_13 - t6_9_14 - t6_9_15 - t6_9_16 - t6_10_11 - t6_10_12 - t6_10_13 - t6_10_14 - t6_10_15 - t6_10_16 - t6_11_12 - t6_11_13 - t6_11_14 - t6_11_15 - t6_11_16 - t6_12_13 - t6_12_14 - t6_12_15 - t6_12_16 - t6_13_14 - t6_13_15 - t6_13_16 - t6_14_15 - t6_14_16 - t6_15_16 = 0
k3deg7: d7 - t0_1_7 - t0_2_7 - t0_3_7 - t0_4_7 - t0_5_7 - t0_6_7 - t0_7_8 - t0_7_9 - t0_7_10 - t0_7_11 - t0_7_12 - t0_7_13 - t0_7_14 - t0_7_15 - t0_7_16 - t1_2_7 - t1_3_7 - t1_4_7 - t1_5_7 - t1_6_7 - t1_7_8 - t1_7_9 - t1_7_10 - t1_7_11 - t1_7_12 - t1_7_13 - t1_7_14 - t1_7_15 - t1_7_16 - t2_3_7 - t2_4_7 - t2_5_7 - t2_6_7 - t2_7_8 - t2_7_9 - t2_7_10 - t2_7_11 - t2_7_12 - t2_7_13 - t2_7_14 - t2_7_15 - t2_7_16 - t3_4_7 - t3_5_7 - t3_6_7 - t3_7_8 - t3_7_9 - t3_7_10 - t3_7_11 - t3_7_12 - t3_7_13 - t3_7_14 - t3_7_15 - t3_7_16 - t4_5_7 - t4_6_7 - t4_7_8 - t4_7_9 - t4_7_10 - t4_7_11 - t4_7_12 - t4_7_13 - t4_7_14 - t4_7_15 - t4_7_16 - t5_6_7 - t5_7_8 - t5_7_9 - t5_7_10 - t5_7_11 - t5_7_12 - t5_7_13 - t5_7_14 - t5_7_15 - t5_7_16 - t6_7_8 - t6_7_9 - t6_7_10 - t6_7_11 - t6_7_12 - t6_7_13 - t6_7_14 - t6_7_15 - t6_7_16 - t7_8_9 - t7_8_10 - t7_8_11 - t7_8_12 - t7_8_13 - t7_8_14 - t7_8_15 - t7_8_16 - t7_9_10 - t7_9_11 - t7_9_12 - t7_9_13 - t7_9_14 - t7_9_15 - t7_9_16 - t7_10_11 - t7_10_12 - t7_10_13 - t7_10_14 - t7_10_15 - t7_10_16 - t7_11_12 - t7_11_13 - t7_11_14 - t7_11_15 - t7_11_16 - t7_12_13 - t7_12_14 - t7_12_15 - t7_12_16 - t7_13_14 - t7_13_15 - t7_13_16 - t7_14_15 - t7_14_16 - t7_15_16 = 0
k3deg8: d8 - t0_1_8 - t0_2_8 - t0_3_8 - t0_4_8 - t0_5_8 - t0_6_8 - t0_7_8 - t0_8_9 - t0_8_10 - t0_8_11 - t0_8_12 - t0_8_13 - t0_8_14 - t0_8_15 - t0_8_16 - t1_2_8 - t1_3_8 - t1_4_8 - t1_5_8 - t1_6_8 - t1_7_8 - t1_8_9 - t1_8_10 - t1_8_11 - t1_8_12 - t1_8_13 - t1_8_14 - t1_8_15 - t1_8_16 - t2_3_8 - t2_4_8 - t2_5_8 - t2_6_8 - t2_7_8 - t2_8_9 - t2_8_10 - t2_8_11 - t2_8_12 - t2_8_13 - t2_8_14 - t2_8_15 - t2_8_16 - t3_4_8 - t3_5_8 - t3_6_8 - t3_7_8 - t3_8_9 - t3_8_10 - t3_8_11 - t3_8_12 - t3_8_13 - t3_8_14 - t3_8_15 - t3_8_16 - t4_5_8 - t4_6_8 - t4_7_8 - t4_8_9 - t4_8_10 - t4_8_11 - t4_8_12 - t4_8_13 - t4_8_14 - t4_8_15 - t4_8_16 - t5_6_8 - t5_7_8 - t5_8_9 - t5_8_10 - t5_8_11 - t5_8_12 - t5_8_13 - t5_8_14 - t5_8_15 - t5_8_16 - t6_7_8 - t6_8_9 - t6_8_10 - t6_8_11 - t6_8_12 - t6_8_13 - t6_8_14 - t6_8_15 - t6_8_16 - t7_8_9 - t7_8_10 - t7_8_11 - t7_8_12 - t7_8_13 - t7_8_14 - t7_8_15 - t7_8_16 - t8_9_10 - t8_9_11 - t8_9_12 - t8_9_13 - t8_9_14 - t8_9_15 - t8_9_16 - t8_10_11 - t8_10_12 - t8_10_13 - t8_10_14 - t8_10_15 - t8_10_16 - t8_11_12 - t8_11_13 - t8_11_14 - t8_11_15 - t8_11_16 - t8_12_13 - t8_12_14 - t8_12_15 - t8_12_16 - t8_13_14 - t8_13_15 - t8_13_16 - t8_14_15 - t8_14_16 - t8_15_16 = 0
k3deg9: d9 - t0_1_9 - t0_2_9 - t0_3_9 - t0_4_9 - t0_5_9 - t0_6_9 - t0_7_9 - t0_8_9 - t0_9_10 - t0_9_11 - t0_9_12 - t0_9_13 - t0_9_14 - t0_9_15 - t0_9_16 - t1_2_9 - t1_3_9 - t1_4_9 - t1_5_9 - t1_6_9 - t1_7_9 - t1_8_9 - t1_9_10 - t1_9_11 - t1_9_12 - t1_9_13 - t1_9_14 - t1_9_15 - t1_9_16 - t2_3_9 - t2_4_9 - t2_5_9 - t2_6_9 - t2_7_9 - t2_8_9 - t2_9_10 - t2_9_11 - t2_9_12 - t2_9_13 - t2_9_14 - t2_9_15 - t2_9_16 - t3_4_9 - t3_5_9 - t3_6_9 - t3_7_9 - t3_8_9 - t3_9_10 - t3_9_11 - t3_9_12 - t3_9_13 - t3_9_14 - t3_9_15 - t3_9_16 - t4_5_9 - t4_6_9 - t4_7_9 - t4_8_9 - t4_9_10 - t4_9_11 - t4_9_12 - t4_9_13 - t4_9_14 - t4_9_15 - t4_9_16 - t5_6_9 - t5_7_9 - t5_8_9 - t5_9_10 - t5_9_11 - t5_9_12 - t5_9_13 - t5_9_14 - t5_9_15 - t5_9_16 - t6_7_9 - t6_8_9 - t6_9_10 - t6_9_11 - t6_9_12 - t6_9_13 - t6_9_14 - t6_9_15 - t6_9_16 - t7_8_9 - t7_9_10 - t7_9_11 - t7_9_12 - t7_9_13 - t7_9_14 - t7_9_15 - t7_9_16 - t8_9_10 - t8_9_11 - t8_9_12 - t8_9_13 - t8_9_14 - t8_9_15 - t8_9_16 - t9_10_11 - t9_10_12 - t9_10_13 - t9_10_14 - t9_10_15 - t9_10_16 - t9_11_12 - t9_11_13 - t9_11_14 - t9_11_15 - t9_11_16 - t9_12_13 - t9_12_14 - t9_12_15 - t9_12_16 - t9_13_14 - t9_13_15 - t9_13_16 - t9_14_15 - t9_14_16 - t9_15_16 = 0
k3deg10: d10 - t0_1_10 - t0_2_10 - t0_3_10 - t0_4_10 - t0_5_10 - t0_6_10 - t0_7_10 - t0_8_10 - t0_9_10 - t0_10_11 - t0_10_12 - t0_10_13 - t0_10_14 - t0_10_15 - t0_10_16 - t1_2_10 - t1_3_10 - t1_4_10 - t1_5_10 - t1_6_10 - t1_7_10 - t1_8_10 - t1_9_10 - t1_10_11 - t1_10_12 - t1_10_13 - t1_10_14 - t1_10_15 - t1_10_16 - t2_3_10 - t2_4_10 - t2_5_10 - t2_6_10 - t2_7_10 - t2_8_10 - t2_9_10 - t2_10_11 - t2_10_12 - t2_10_13 - t2_10_14 - t2_10_15 - t2_10_16 - t3_4_10 - t3_5_10 - t3_6_10 - t3_7_10 - t3_8_10 - t3_9_10 - t3_10_11 - t3_10_12 - t3_10_13 - t3_10_14 - t3_10_15 - t3_10_16 - t4_5_10 - t4_6_10 - t4_7_10 - t4_8_10 - t4_9_10 - t4_10_11 - t4_10_12 - t4_10_13 - t4_10_14 - t4_10_15 - t4_10_16 - t5_6_10 - t5_7_10 - t5_8_10 - t5_9_10 - t5_10_11 - t5_10_12 - t5_10_13 - t5_10_14 - t5_10_15 - t5_10_16 - t6_7_10 - t6_8_10 - t6_9_10 - t6_10_11 - t6_10_12 - t6_10_13 - t6_10_14 - t6_10_15 - t6_10_16 - t7_8_10 - t7_9_10 - t7_10_11 - t7_10_12 - t7_10_13 - t7_10_14 - t7_10_15 - t7_10_16 - t8_9_10 - t8_10_11 - t8_10_12 - t8_10_13 - t8_10_14 - t8_10_15 - t8_10_16 - t9_10_11 - t9_10_12 - t9_10_13 - t9_10_14 - t9_10_15 - t9_10_16 - t10_11_12 - t10_11_13 - t10_11_14 - t10_11_15 - t10_11_16 - t10_12_13 - t10_12_14 - t10_12_15 - t10_12_16 - t10_13_14 - t10_13_15 - t10_13_16 - t10_14_15 - t10_14_16 - t10_15_16 = 0
k3deg11: d11 - t0_1_11 - t0_2_11 - t0_3_11 - t0_4_11 - t0_5_11 - t0_6_11 - t0_7_11 - t0_8_11 - t0_9_11 - t0_10_11 - t0_11_12 - t0_11_13 - t0_11_14 - t0_11_15 - t0_11_16 - t1_2_11 - t1_3_11 - t1_4_11 - t1_5_11 - t1_6_11 - t1_7_11 - t1_8_11 - t1_9_11 - t1_10_11 - t1_11_12 - t1_11_13 - t1_11_14 - t1_11_15 - t1_11_16 - t2_3_11 - t2_4_11 - t2_5_11 - t2_6_11 - t2_7_11 - t2_8_11 - t2_9_11 - t2_10_11 - t2_11_12 - t2_11_13 - t2_11_14 - t2_11_15 - t2_11_16 - t3_4_11 - t3_5_11 - t3_6_11 - t3_7_11 - t3_8_11 - t3_9_11 - t3_10_11 - t3_11_12 - t3_11_13 - t3_11_14 - t3_11_15 - t3_11_16 - t4_5_11 - t4_6_11 - t4_7_11 - t4_8_11 - t4_9_11 - t4_10_11 - t4_11_12 - t4_11_13 - t4_11_14 - t4_11_15 - t4_11_16 - t5_6_11 - t5_7_11 - t5_8_11 - t5_9_11 - t5_10_11 - t5_11_12 - t5_11_13 - t5_11_14 - t5_11_15 - t5_11_16 - t6_7_11 - t6_8_11 - t6_9_11 - t6_10_11 - t6_11_12 - t6_11_13 - t6_11_14 - t6_11_15 - t6_11_16 - t7_8_11 - t7_9_11 - t7_10_11 - t7_11_12 - t7_11_13 - t7_11_14 - t7_11_15 - t7_11_16 - t8_9_11 - t8_10_11 - t8_11_12 - t8_11_13 - t8_11_14 - t8_11_15 - t8_11_16 - t9_10_11 - t9_11_12 - t9_11_13 - t9_11_14 - t9_11_15 - t9_11_16 - t10_11_12 - t10_11_13 - t10_11_14 - t10_11_15 - t10_11_16 - t11_12_13 - t11_12_14 - t11_12_15 - t11_12_16 - t11_13_14 - t11_13_15 - t11_13_16 - t11_14_15 - t11_14_16 - t11_15_16 = 0
k3deg12: d12 - t0_1_12 - t0_2_12 - t0_3_12 - t0_4_12 - t0_5_12 - t0_6_12 - t0_7_12 - t0_8_12 - t0_9_12 - t0_10_12 - t0_11_12 - t0_12_13 - t0_12_14 - t0_12_15 - t0_12_16 - t1_2_12 - t1_3_12 - t1_4_12 - t1_5_12 - t1_6_12 - t1_7_12 - t1_8_12 - t1_9_12 - t1_10_12 - t1_11_12 - t1_12_13 - t1_12_14 - t1_12_15 - t1_12_16 - t2_3_12 - t2_4_12 - t2_5_12 - t2_6_12 - t2_7_12 - t2_8_12 - t2_9_12 - t2_10_12 - t2_11_12 - t2_12_13 - t2_12_14 - t2_12_15 - t2_12_16 - t3_4_12 - t3_5_12 - t3_6_12 - t3_7_12 - t3_8_12 - t3_9_12 - t3_10_12 - t3_11_12 - t3_12_13 - t3_12_14 - t3_12_15 - t3_12_16 - t4_5_12 - t4_6_12 - t4_7_12 - t4_8_12 - t4_9_12 - t4_10_12 - t4_11_12 - t4_12_13 - t4_12_14 - t4_12_15 - t4_12_16 - t5_6_12 - t5_7_12 - t5_8_12 - t5_9_12 - t5_10_12 - t5_11_12 - t5_12_13 - t5_12_14 - t5_12_15 - t5_12_16 - t6_7_12 - t6_8_12 - t6_9_12 - t6_10_12 - t6_11_12 - t6_12_13 - t6_12_14 - t6_12_15 - t6_12_16 - t7_8_12 - t7_9_12 - t7_10_12 - t7_11_12 - t7_12_13 - t7_12_14 - t7_12_15 - t7_12_16 - t8_9_12 - t8_10_12 - t8_11_12 - t8_12_13 - t8_12_14 - t8_12_15 - t8_12_16 - t9_10_12 - t9_11_12 - t9_12_13 - t9_12_14 - t9_12_15 - t9_12_16 - t10_11_12 - t10_12_13 - t10_12_14 - t10_12_15 - t10_12_16 - t11_12_13 - t11_12_14 - t11_12_15 - t11_12_16 - t12_13_14 - t12_13_15 - t12_13_16 - t12_14_15 - t12_14_16 - t12_15_16 = 0
k3deg13: d13 - t0_1_13 - t0_2_13 - t0_3_13 - t0_4_13 - t0_5_13 - t0_6_13 - t0_7_13 - t0_8_13 - t0_9_13 - t0_10_13 - t0_11_13 - t0_12_13 - t0_13_14 - t0_13_15 - t0_13_16 - t1_2_13 - t1_3_13 - t1_4_13 - t1_5_13 - t1_6_13 - t1_7_13 - t1_8_13 - t1_9_13 - t1_10_13 - t1_11_13 - t1_12_13 - t1_13_14 - t1_13_15 - t1_13_16 - t2_3_13 - t2_4_13 - t2_5_13 - t2_6_13 - t2_7_13 - t2_8_13 - t2_9_13 - t2_10_13 - t2_11_13 - t2_12_13 - t2_13_14 - t2_13_15 - t2_13_16 - t3_4_13 - t3_5_13 - t3_6_13 - t3_7_13 - t3_8_13 - t3_9_13 - t3_10_13 - t3_11_13 - t3_12_13 - t3_13_14 - t3_13_15 - t3_13_16 - t4_5_13 - t4_6_13 - t4_7_13 - t4_8_13 - t4_9_13 - t4_10_13 - t4_11_13 - t4_12_13 - t4_13_14 - t4_13_15 - t4_13_16 - t5_6_13 - t5_7_13 - t5_8_13 - t5_9_13 - t5_10_13 - t5_11_13 - t5_12_13 - t5_13_14 - t5_13_15 - t5_13_16 - t6_7_13 - t6_8_13 - t6_9_13 - t6_10_13 - t6_11_13 - t6_12_13 - t6_13_14 - t6_13_15 - t6_13_16 - t7_8_13 - t7_9_13 - t7_10_13 - t7_11_13 - t7_12_13 - t7_13_14 - t7_13_15 - t7_13_16 - t8_9_13 - t8_10_13 - t8_11_13 - t8_12_13 - t8_13_14 - t8_13_15 - t8_13_16 - t9_10_13 - t9_11_13 - t9_12_13 - t9_13_14 - t9_13_15 - t9_13_16 - t10_11_13 - t10_12_13 - t10_13_14 - t10_13_15 - t10_13_16 - t11_12_13 - t11_13_14 - t11_13_15 - t11_13_16 - t12_13_14 - t12_13_15 - t12_13_16 - t13_14_15 - t13_14_16 - t13_15_16 = 0
k3deg14: d14 - t0_1_14 - t0_2_14 - t0_3_14 - t0_4_14 - t0_5_14 - t0_6_14 - t0_7_14 - t0_8_14 - t0_9_14 - t0_10_14 - t0_11_14 - t0_12_14 - t0_13_14 - t0_14_15 - t0_14_16 - t1_2_14 - t1_3_14 - t1_4_14 - t1_5_14 - t1_6_14 - t1_7_14 - t1_8_14 - t1_9_14 - t1_10_14 - t1_11_14 - t1_12_14 - t1_13_14 - t1_14_15 - t1_14_16 - t2_3_14 - t2_4_14 - t2_5_14 - t2_6_14 - t2_7_14 - t2_8_14 - t2_9_14 - t2_10_14 - t2_11_14 - t2_12_14 - t2_13_14 - t2_14_15 - t2_14_16 - t3_4_14 - t3_5_14 - t3_6_14 - t3_7_14 - t3_8_14 - t3_9_14 - t3_10_14 - t3_11_14 - t3_12_14 - t3_13_14 - t3_14_15 - t3_14_16 - t4_5_14 - t4_6_14 - t4_7_14 - t4_8_14 - t4_9_14 - t4_10_14 - t4_11_14 - t4_12_14 - t4_13_14 - t4_14_15 - t4_14_16 - t5_6_14 - t5_7_14 - t5_8_14 - t5_9_14 - t5_10_14 - t5_11_14 - t5_12_14 - t5_13_14 - t5_14_15 - t5_14_16 - t6_7_14 - t6_8_14 - t6_9_14 - t6_10_14 - t6_11_14 - t6_12_14 - t6_13_14 - t6_14_15 - t6_14_16 - t7_8_14 - t7_9_14 - t7_10_14 - t7_11_14 - t7_12_14 - t7_13_14 - t7_14_15 - t7_14_16 - t8_9_14 - t8_10_14 - t8_11_14 - t8_12_14 - t8_13_14 - t8_14_15 - t8_14_16 - t9_10_14 - t9_11_14 - t9_12_14 - t9_13_14 - t9_14_15 - t9_14_16 - t10_11_14 - t10_12_14 - t10_13_14 - t10_14_15 - t10_14_16 - t11_12_14 - t11_13_14 - t11_14_15 - t11_14_16 - t12_13_14 - t12_14_15 - t12_14_16 - t13_14_15 - t13_14_16 - t14_15_16 = 0
k3deg15: d15 - t0_1_15 - t0_2_15 - t0_3_15 - t0_4_15 - t0_5_15 - t0_6_15 - t0_7_15 - t0_8_15 - t0_9_15 - t0_10_15 - t0_11_15 - t0_12_15 - t0_13_15 - t0_14_15 - t0_15_16 - t1_2_15 - t1_3_15 - t1_4_15 - t1_5_15 - t1_6_15 - t1_7_15 - t1_8_15 - t1_9_15 - t1_10_15 - t1_11_15 - t1_12_15 - t1_13_15 - t1_14_15 - t1_15_16 - t2_3_15 - t2_4_15 - t2_5_15 - t2_6_15 - t2_7_15 - t2_8_15 - t2_9_15 - t2_10_15 - t2_11_15 - t2_12_15 - t2_13_15 - t2_14_15 - t2_15_16 - t3_4_15 - t3_5_15 - t3_6_15 - t3_7_15 - t3_8_15 - t3_9_15 - t3_10_15 - t3_11_15 - t3_12_15 - t3_13_15 - t3_14_15 - t3_15_16 - t4_5_15 - t4_6_15 - t4_7_15 - t4_8_15 - t4_9_15 - t4_10_15 - t4_11_15 - t4_12_15 - t4_13_15 - t4_14_15 - t4_15_16 - t5_6_15 - t5_7_15 - t5_8_15 - t5_9_15 - t5_10_15 - t5_11_15 - t5_12_15 - t5_13_15 - t5_14_15 - t5_15_16 - t6_7_15 - t6_8_15 - t6_9_15 - t6_10_15 - t6_11_15 - t6_12_15 - t6_13_15 - t6_14_15 - t6_15_16 - t7_8_15 - t7_9_15 - t7_10_15 - t7_11_15 - t7_12_15 - t7_13_15 - t7_14_15 - t7_15_16 - t8_9_15 - t8_10_15 - t8_11_15 - t8_12_15 - t8_13_15 - t8_14_15 - t8_15_16 - t9_10_15 - t9_11_15 - t9_12_15 - t9_13_15 - t9_14_15 - t9_15_16 - t10_11_15 - t10_12_15 - t10_13_15 - t10_14_15 - t10_15_16 - t11_12_15 - t11_13_15 - t11_14_15 - t11_15_16 - t12_13_15 - t12_14_15 - t12_15_16 - t13_14_15 - t13_15_16 - t14_15_16 = 0
k3deg16: d16 - t0_1_16 - t0_2_16 - t0_3_16 - t0_4_16 - t0_5_16 - t0_6_16 - t0_7_16 - t0_8_16 - t0_9_16 - t0_10_16 - t0_11_16 - t0_12_16 - t0_13_16 - t0_14_16 - t0_15_16 - t1_2_16 - t1_3_16 - t1_4_16 - t1_5_16 - t1_6_16 - t1_7_16 - t1_8_16 - t1_9_16 - t1_10_16 - t1_11_16 - t1_12_16 - t1_13_16 - t1_14_16 - t1_15_16 - t2_3_16 - t2_4_16 - t2_5_16 - t2_6_16 - t2_7_16 - t2_8_16 - t2_9_16 - t2_10_16 - t2_11_16 - t2_12_16 - t2_13_16 - t2_14_16 - t2_15_16 - t3_4_16 - t3_5_16 - t3_6_16 - t3_7_16 - t3_8_16 - t3_9_16 - t3_10_16 - t3_11_16 - t3_12_16 - t3_13_16 - t3_14_16 - t3_15_16 - t4_5_16 - t4_6_16 - t4_7_16 - t4_8_16 - t4_9_16 - t4_10_16 - t4_11_16 - t4_12_16 - t4_13_16 - t4_14_16 - t4_15_16 - t5_6_16 - t5_7_16 - t5_8_16 - t5_9_16 - t5_10_16 - t5_11_16 - t5_12_16 - t5_13_16 - t5_14_16 - t5_15_16 - t6_7_16 - t6_8_16 - t6_9_16 - t6_10_16 - t6_11_16 - t6_12_16 - t6_13_16 - t6_14_16 - t6_15_16 - t7_8_16 - t7_9_16 - t7_10_16 - t7_11_16 - t7_12_16 - t7_13_16 - t7_14_16 - t7_15_16 - t8_9_16 - t8_10_16 - t8_11_16 - t8_12_16 - t8_13_16 - t8_14_16 - t8_15_16 - t9_10_16 - t9_11_16 - t9_12_16 - t9_13_16 - t9_14_16 - t9_15_16 - t10_11_16 - t10_12_16 - t10_13_16 - t10_14_16 - t10_15_16 - t11_12_16 - t11_13_16 - t11_14_16 - t11_15_16 - t12_13_16 - t12_14_16 - t12_15_16 - t13_14_16 - t13_15_16 - t14_15_16 = 0

ord0: d0 - d1 <= -1
ord1: d1 - d2 <= -1
ord2: d2 - d3 <= -1
ord3: d3 - d4 <= -1
ord4: d4 - d5 <= -1
ord5: d5 - d6 <= -1
ord6: d6 - d7 <= -1
ord7: d7 - d8 <= -1
ord8: d8 - d9 <= -1
ord9: d9 - d10 <= -1
ord10: d10 - d11 <= -1
ord11: d11 - d12 <= -1
ord12: d12 - d13 <= -1
ord13: d13 - d14 <= -1
ord14: d14 - d15 <= -1
ord15: d15 - d16 <= -1
ord16: d16 - d17 <= -1


Binary
 x0_1  x0_2  x0_3  x0_4  x0_5  x0_6  x0_7  x0_8  x0_9  x0_10  x0_11  x0_12  x0_13  x0_14  x0_15  x0_16 
 x1_2  x1_3  x1_4  x1_5  x1_6  x1_7  x1_8  x1_9  x1_10  x1_11  x1_12  x1_13  x1_14  x1_15  x1_16 
 x2_3  x2_4  x2_5  x2_6  x2_7  x2_8  x2_9  x2_10  x2_11  x2_12  x2_13  x2_14  x2_15  x2_16 
 x3_4  x3_5  x3_6  x3_7  x3_8  x3_9  x3_10  x3_11  x3_12  x3_13  x3_14  x3_15  x3_16 
 x4_5  x4_6  x4_7  x4_8  x4_9  x4_10  x4_11  x4_12  x4_13  x4_14  x4_15  x4_16 
 x5_6  x5_7  x5_8  x5_9  x5_10  x5_11  x5_12  x5_13  x5_14  x5_15  x5_16 
 x6_7  x6_8  x6_9  x6_10  x6_11  x6_12  x6_13  x6_14  x6_15  x6_16 
 x7_8  x7_9  x7_10  x7_11  x7_12  x7_13  x7_14  x7_15  x7_16 
 x8_9  x8_10  x8_11  x8_12  x8_13  x8_14  x8_15  x8_16 
 x9_10  x9_11  x9_12  x9_13  x9_14  x9_15  x9_16 
 x10_11  x10_12  x10_13  x10_14  x10_15  x10_16 
 x11_12  x11_13  x11_14  x11_15  x11_16 
 x12_13  x12_14  x12_15  x12_16 
 x13_14  x13_15  x13_16 
 x14_15  x14_16 
 x15_16 
 t0_1_2
 t0_1_3
 t0_1_4
 t0_1_5
 t0_1_6
 t0_1_7
 t0_1_8
 t0_1_9
 t0_1_10
 t0_1_11
 t0_1_12
 t0_1_13
 t0_1_14
 t0_1_15
 t0_1_16
 t0_2_3
 t0_2_4
 t0_2_5
 t0_2_6
 t0_2_7
 t0_2_8
 t0_2_9
 t0_2_10
 t0_2_11
 t0_2_12
 t0_2_13
 t0_2_14
 t0_2_15
 t0_2_16
 t0_3_4
 t0_3_5
 t0_3_6
 t0_3_7
 t0_3_8
 t0_3_9
 t0_3_10
 t0_3_11
 t0_3_12
 t0_3_13
 t0_3_14
 t0_3_15
 t0_3_16
 t0_4_5
 t0_4_6
 t0_4_7
 t0_4_8
 t0_4_9
 t0_4_10
 t0_4_11
 t0_4_12
 t0_4_13
 t0_4_14
 t0_4_15
 t0_4_16
 t0_5_6
 t0_5_7
 t0_5_8
 t0_5_9
 t0_5_10
 t0_5_11
 t0_5_12
 t0_5_13
 t0_5_14
 t0_5_15
 t0_5_16
 t0_6_7
 t0_6_8
 t0_6_9
 t0_6_10
 t0_6_11
 t0_6_12
 t0_6_13
 t0_6_14
 t0_6_15
 t0_6_16
 t0_7_8
 t0_7_9
 t0_7_10
 t0_7_11
 t0_7_12
 t0_7_13
 t0_7_14
 t0_7_15
 t0_7_16
 t0_8_9
 t0_8_10
 t0_8_11
 t0_8_12
 t0_8_13
 t0_8_14
 t0_8_15
 t0_8_16
 t0_9_10
 t0_9_11
 t0_9_12
 t0_9_13
 t0_9_14
 t0_9_15
 t0_9_16
 t0_10_11
 t0_10_12
 t0_10_13
 t0_10_14
 t0_10_15
 t0_10_16
 t0_11_12
 t0_11_13
 t0_11_14
 t0_11_15
 t0_11_16
 t0_12_13
 t0_12_14
 t0_12_15
 t0_12_16
 t0_13_14
 t0_13_15
 t0_13_16
 t0_14_15
 t0_14_16
 t0_15_16
 t1_2_3
 t1_2_4
 t1_2_5
 t1_2_6
 t1_2_7
 t1_2_8
 t1_2_9
 t1_2_10
 t1_2_11
 t1_2_12
 t1_2_13
 t1_2_14
 t1_2_15
 t1_2_16
 t1_3_4
 t1_3_5
 t1_3_6
 t1_3_7
 t1_3_8
 t1_3_9
 t1_3_10
 t1_3_11
 t1_3_12
 t1_3_13
 t1_3_14
 t1_3_15
 t1_3_16
 t1_4_5
 t1_4_6
 t1_4_7
 t1_4_8
 t1_4_9
 t1_4_10
 t1_4_11
 t1_4_12
 t1_4_13
 t1_4_14
 t1_4_15
 t1_4_16
 t1_5_6
 t1_5_7
 t1_5_8
 t1_5_9
 t1_5_10
 t1_5_11
 t1_5_12
 t1_5_13
 t1_5_14
 t1_5_15
 t1_5_16
 t1_6_7
 t1_6_8
 t1_6_9
 t1_6_10
 t1_6_11
 t1_6_12
 t1_6_13
 t1_6_14
 t1_6_15
 t1_6_16
 t1_7_8
 t1_7_9
 t1_7_10
 t1_7_11
 t1_7_12
 t1_7_13
 t1_7_14
 t1_7_15
 t1_7_16
 t1_8_9
 t1_8_10
 t1_8_11
 t1_8_12
 t1_8_13
 t1_8_14
 t1_8_15
 t1_8_16
 t1_9_10
 t1_9_11
 t1_9_12
 t1_9_13
 t1_9_14
 t1_9_15
 t1_9_16
 t1_10_11
 t1_10_12
 t1_10_13
 t1_10_14
 t1_10_15
 t1_10_16
 t1_11_12
 t1_11_13
 t1_11_14
 t1_11_15
 t1_11_16
 t1_12_13
 t1_12_14
 t1_12_15
 t1_12_16
 t1_13_14
 t1_13_15
 t1_13_16
 t1_14_15
 t1_14_16
 t1_15_16
 t2_3_4
 t2_3_5
 t2_3_6
 t2_3_7
 t2_3_8
 t2_3_9
 t2_3_10
 t2_3_11
 t2_3_12
 t2_3_13
 t2_3_14
 t2_3_15
 t2_3_16
 t2_4_5
 t2_4_6
 t2_4_7
 t2_4_8
 t2_4_9
 t2_4_10
 t2_4_11
 t2_4_12
 t2_4_13
 t2_4_14
 t2_4_15
 t2_4_16
 t2_5_6
 t2_5_7
 t2_5_8
 t2_5_9
 t2_5_10
 t2_5_11
 t2_5_12
 t2_5_13
 t2_5_14
 t2_5_15
 t2_5_16
 t2_6_7
 t2_6_8
 t2_6_9
 t2_6_10
 t2_6_11
 t2_6_12
 t2_6_13
 t2_6_14
 t2_6_15
 t2_6_16
 t2_7_8
 t2_7_9
 t2_7_10
 t2_7_11
 t2_7_12
 t2_7_13
 t2_7_14
 t2_7_15
 t2_7_16
 t2_8_9
 t2_8_10
 t2_8_11
 t2_8_12
 t2_8_13
 t2_8_14
 t2_8_15
 t2_8_16
 t2_9_10
 t2_9_11
 t2_9_12
 t2_9_13
 t2_9_14
 t2_9_15
 t2_9_16
 t2_10_11
 t2_10_12
 t2_10_13
 t2_10_14
 t2_10_15
 t2_10_16
 t2_11_12
 t2_11_13
 t2_11_14
 t2_11_15
 t2_11_16
 t2_12_13
 t2_12_14
 t2_12_15
 t2_12_16
 t2_13_14
 t2_13_15
 t2_13_16
 t2_14_15
 t2_14_16
 t2_15_16
 t3_4_5
 t3_4_6
 t3_4_7
 t3_4_8
 t3_4_9
 t3_4_10
 t3_4_11
 t3_4_12
 t3_4_13
 t3_4_14
 t3_4_15
 t3_4_16
 t3_5_6
 t3_5_7
 t3_5_8
 t3_5_9
 t3_5_10
 t3_5_11
 t3_5_12
 t3_5_13
 t3_5_14
 t3_5_15
 t3_5_16
 t3_6_7
 t3_6_8
 t3_6_9
 t3_6_10
 t3_6_11
 t3_6_12
 t3_6_13
 t3_6_14
 t3_6_15
 t3_6_16
 t3_7_8
 t3_7_9
 t3_7_10
 t3_7_11
 t3_7_12
 t3_7_13
 t3_7_14
 t3_7_15
 t3_7_16
 t3_8_9
 t3_8_10
 t3_8_11
 t3_8_12
 t3_8_13
 t3_8_14
 t3_8_15
 t3_8_16
 t3_9_10
 t3_9_11
 t3_9_12
 t3_9_13
 t3_9_14
 t3_9_15
 t3_9_16
 t3_10_11
 t3_10_12
 t3_10_13
 t3_10_14
 t3_10_15
 t3_10_16
 t3_11_12
 t3_11_13
 t3_11_14
 t3_11_15
 t3_11_16
 t3_12_13
 t3_12_14
 t3_12_15
 t3_12_16
 t3_13_14
 t3_13_15
 t3_13_16
 t3_14_15
 t3_14_16
 t3_15_16
 t4_5_6
 t4_5_7
 t4_5_8
 t4_5_9
 t4_5_10
 t4_5_11
 t4_5_12
 t4_5_13
 t4_5_14
 t4_5_15
 t4_5_16
 t4_6_7
 t4_6_8
 t4_6_9
 t4_6_10
 t4_6_11
 t4_6_12
 t4_6_13
 t4_6_14
 t4_6_15
 t4_6_16
 t4_7_8
 t4_7_9
 t4_7_10
 t4_7_11
 t4_7_12
 t4_7_13
 t4_7_14
 t4_7_15
 t4_7_16
 t4_8_9
 t4_8_10
 t4_8_11
 t4_8_12
 t4_8_13
 t4_8_14
 t4_8_15
 t4_8_16
 t4_9_10
 t4_9_11
 t4_9_12
 t4_9_13
 t4_9_14
 t4_9_15
 t4_9_16
 t4_10_11
 t4_10_12
 t4_10_13
 t4_10_14
 t4_10_15
 t4_10_16
 t4_11_12
 t4_11_13
 t4_11_14
 t4_11_15
 t4_11_16
 t4_12_13
 t4_12_14
 t4_12_15
 t4_12_16
 t4_13_14
 t4_13_15
 t4_13_16
 t4_14_15
 t4_14_16
 t4_15_16
 t5_6_7
 t5_6_8
 t5_6_9
 t5_6_10
 t5_6_11
 t5_6_12
 t5_6_13
 t5_6_14
 t5_6_15
 t5_6_16
 t5_7_8
 t5_7_9
 t5_7_10
 t5_7_11
 t5_7_12
 t5_7_13
 t5_7_14
 t5_7_15
 t5_7_16
 t5_8_9
 t5_8_10
 t5_8_11
 t5_8_12
 t5_8_13
 t5_8_14
 t5_8_15
 t5_8_16
 t5_9_10
 t5_9_11
 t5_9_12
 t5_9_13
 t5_9_14
 t5_9_15
 t5_9_16
 t5_10_11
 t5_10_12
 t5_10_13
 t5_10_14
 t5_10_15
 t5_10_16
 t5_11_12
 t5_11_13
 t5_11_14
 t5_11_15
 t5_11_16
 t5_12_13
 t5_12_14
 t5_12_15
 t5_12_16
 t5_13_14
 t5_13_15
 t5_13_16
 t5_14_15
 t5_14_16
 t5_15_16
 t6_7_8
 t6_7_9
 t6_7_10
 t6_7_11
 t6_7_12
 t6_7_13
 t6_7_14
 t6_7_15
 t6_7_16
 t6_8_9
 t6_8_10
 t6_8_11
 t6_8_12
 t6_8_13
 t6_8_14
 t6_8_15
 t6_8_16
 t6_9_10
 t6_9_11
 t6_9_12
 t6_9_13
 t6_9_14
 t6_9_15
 t6_9_16
 t6_10_11
 t6_10_12
 t6_10_13
 t6_10_14
 t6_10_15
 t6_10_16
 t6_11_12
 t6_11_13
 t6_11_14
 t6_11_15
 t6_11_16
 t6_12_13
 t6_12_14
 t6_12_15
 t6_12_16
 t6_13_14
 t6_13_15
 t6_13_16
 t6_14_15
 t6_14_16
 t6_15_16
 t7_8_9
 t7_8_10
 t7_8_11
 t7_8_12
 t7_8_13
 t7_8_14
 t7_8_15
 t7_8_16
 t7_9_10
 t7_9_11
 t7_9_12
 t7_9_13
 t7_9_14
 t7_9_15
 t7_9_16
 t7_10_11
 t7_10_12
 t7_10_13
 t7_10_14
 t7_10_15
 t7_10_16
 t7_11_12
 t7_11_13
 t7_11_14
 t7_11_15
 t7_11_16
 t7_12_13
 t7_12_14
 t7_12_15
 t7_12_16
 t7_13_14
 t7_13_15
 t7_13_16
 t7_14_15
 t7_14_16
 t7_15_16
 t8_9_10
 t8_9_11
 t8_9_12
 t8_9_13
 t8_9_14
 t8_9_15
 t8_9_16
 t8_10_11
 t8_10_12
 t8_10_13
 t8_10_14
 t8_10_15
 t8_10_16
 t8_11_12
 t8_11_13
 t8_11_14
 t8_11_15
 t8_11_16
 t8_12_13
 t8_12_14
 t8_12_15
 t8_12_16
 t8_13_14
 t8_13_15
 t8_13_16
 t8_14_15
 t8_14_16
 t8_15_16
 t9_10_11
 t9_10_12
 t9_10_13
 t9_10_14
 t9_10_15
 t9_10_16
 t9_11_12
 t9_11_13
 t9_11_14
 t9_11_15
 t9_11_16
 t9_12_13
 t9_12_14
 t9_12_15
 t9_12_16
 t9_13_14
 t9_13_15
 t9_13_16
 t9_14_15
 t9_14_16
 t9_15_16
 t10_11_12
 t10_11_13
 t10_11_14
 t10_11_15
 t10_11_16
 t10_12_13
 t10_12_14
 t10_12_15
 t10_12_16
 t10_13_14
 t10_13_15
 t10_13_16
 t10_14_15
 t10_14_16
 t10_15_16
 t11_12_13
 t11_12_14
 t11_12_15
 t11_12_16
 t11_13_14
 t11_13_15
 t11_13_16
 t11_14_15
 t11_14_16
 t11_15_16
 t12_13_14
 t12_13_15
 t12_13_16
 t12_14_15
 t12_14_16
 t12_15_16
 t13_14_15
 t13_14_16
 t13_15_16
 t14_15_16


General
 d0
 d1
 d2
 d3
 d4
 d5
 d6
 d7
 d8
 d9
 d10
 d11
 d12
 d13
 d14
 d15
 d16

End
