Minimize
 obj: 0

Subject To

deg0: x0_1 + x0_2 + x0_3 + x0_4 + x0_5 + x0_6 + x0_7 + x0_8 + x0_9 + x0_10 + x0_11 + x0_12 + x0_13 = 8
deg1: x0_1 + x1_2 + x1_3 + x1_4 + x1_5 + x1_6 + x1_7 + x1_8 + x1_9 + x1_10 + x1_11 + x1_12 + x1_13 = 8
deg2: x0_2 + x1_2 + x2_3 + x2_4 + x2_5 + x2_6 + x2_7 + x2_8 + x2_9 + x2_10 + x2_11 + x2_12 + x2_13 = 8
deg3: x0_3 + x1_3 + x2_3 + x3_4 + x3_5 + x3_6 + x3_7 + x3_8 + x3_9 + x3_10 + x3_11 + x3_12 + x3_13 = 8
deg4: x0_4 + x1_4 + x2_4 + x3_4 + x4_5 + x4_6 + x4_7 + x4_8 + x4_9 + x4_10 + x4_11 + x4_12 + x4_13 = 8
deg5: x0_5 + x1_5 + x2_5 + x3_5 + x4_5 + x5_6 + x5_7 + x5_8 + x5_9 + x5_10 + x5_11 + x5_12 + x5_13 = 8
deg6: x0_6 + x1_6 + x2_6 + x3_6 + x4_6 + x5_6 + x6_7 + x6_8 + x6_9 + x6_10 + x6_11 + x6_12 + x6_13 = 8
deg7: x0_7 + x1_7 + x2_7 + x3_7 + x4_7 + x5_7 + x6_7 + x7_8 + x7_9 + x7_10 + x7_11 + x7_12 + x7_13 = 8
deg8: x0_8 + x1_8 + x2_8 + x3_8 + x4_8 + x5_8 + x6_8 + x7_8 + x8_9 + x8_10 + x8_11 + x8_12 + x8_13 = 8
deg9: x0_9 + x1_9 + x2_9 + x3_9 + x4_9 + x5_9 + x6_9 + x7_9 + x8_9 + x9_10 + x9_11 + x9_12 + x9_13 = 8
deg10: x0_10 + x1_10 + x2_10 + x3_10 + x4_10 + x5_10 + x6_10 + x7_10 + x8_10 + x9_10 + x10_11 + x10_12 + x10_13 = 8
deg11: x0_11 + x1_11 + x2_11 + x3_11 + x4_11 + x5_11 + x6_11 + x7_11 + x8_11 + x9_11 + x10_11 + x11_12 + x11_13 = 8
deg12: x0_12 + x1_12 + x2_12 + x3_12 + x4_12 + x5_12 + x6_12 + x7_12 + x8_12 + x9_12 + x10_12 + x11_12 + x12_13 = 8
deg13: x0_13 + x1_13 + x2_13 + x3_13 + x4_13 + x5_13 + x6_13 + x7_13 + x8_13 + x9_13 + x10_13 + x11_13 + x12_13 = 8
tri1_0_1_2: t0_1_2 - x0_1 <= 0
tri2_0_1_2: t0_1_2 - x0_2 <= 0
tri3_0_1_2: t0_1_2 - x1_2 <= 0
tri4_0_1_2: t0_1_2 - x0_1 - x0_2 - x1_2 >= -2
tri1_0_1_3: t0_1_3 - x0_1 <= 0
tri2_0_1_3: t0_1_3 - x0_3 <= 0
tri3_0_1_3: t0_1_3 - x1_3 <= 0
tri4_0_1_3: t0_1_3 - x0_1 - x0_3 - x1_3 >= -2
tri1_0_1_4: t0_1_4 - x0_1 <= 0
tri2_0_1_4: t0_1_4 - x0_4 <= 0
tri3_0_1_4: t0_1_4 - x1_4 <= 0
tri4_0_1_4: t0_1_4 - x0_1 - x0_4 - x1_4 >= -2
tri1_0_1_5: t0_1_5 - x0_1 <= 0
tri2_0_1_5: t0_1_5 - x0_5 <= 0
tri3_0_1_5: t0_1_5 - x1_5 <= 0
tri4_0_1_5: t0_1_5 - x0_1 - x0_5 - x1_5 >= -2
tri1_0_1_6: t0_1_6 - x0_1 <= 0
tri2_0_1_6: t0_1_6 - x0_6 <= 0
tri3_0_1_6: t0_1_6 - x1_6 <= 0
tri4_0_1_6: t0_1_6 - x0_1 - x0_6 - x1_6 >= -2
tri1_0_1_7: t0_1_7 - x0_1 <= 0
tri2_0_1_7: t0_1_7 - x0_7 <= 0
tri3_0_1_7: t0_1_7 - x1_7 <= 0
tri4_0_1_7: t0_1_7 - x0_1 - x0_7 - x1_7 >= -2
tri1_0_1_8: t0_1_8 - x0_1 <= 0
tri2_0_1_8: t0_1_8 - x0_8 <= 0
tri3_0_1_8: t0_1_8 - x1_8 <= 0
tri4_0_1_8: t0_1_8 - x0_1 - x0_8 - x1_8 >= -2
tri1_0_1_9: t0_1_9 - x0_1 <= 0
tri2_0_1_9: t0_1_9 - x0_9 <= 0
tri3_0_1_9: t0_1_9 - x1_9 <= 0
tri4_0_1_9: t0_1_9 - x0_1 - x0_9 - x1_9 >= -2
tri1_0_1_10: t0_1_10 - x0_1 <= 0
tri2_0_1_10: t0_1_10 - x0_10 <= 0
tri3_0_1_10: t0_1_10 - x1_10 <= 0
tri4_0_1_10: t0_1_10 - x0_1 - x0_10 - x1_10 >= -2
tri1_0_1_11: t0_1_11 - x0_1 <= 0
tri2_0_1_11: t0_1_11 - x0_11 <= 0
tri3_0_1_11: t0_1_11 - x1_11 <= 0
tri4_0_1_11: t0_1_11 - x0_1 - x0_11 - x1_11 >= -2
tri1_0_1_12: t0_1_12 - x0_1 <= 0
tri2_0_1_12: t0_1_12 - x0_12 <= 0
tri3_0_1_12: t0_1_12 - x1_12 <= 0
tri4_0_1_12: t0_1_12 - x0_1 - x0_12 - x1_12 >= -2
tri1_0_1_13: t0_1_13 - x0_1 <= 0
tri2_0_1_13: t0_1_13 - x0_13 <= 0
tri3_0_1_13: t0_1_13 - x1_13 <= 0
tri4_0_1_13: t0_1_13 - x0_1 - x0_13 - x1_13 >= -2
tri1_0_2_3: t0_2_3 - x0_2 <= 0
tri2_0_2_3: t0_2_3 - x0_3 <= 0
tri3_0_2_3: t0_2_3 - x2_3 <= 0
tri4_0_2_3: t0_2_3 - x0_2 - x0_3 - x2_3 >= -2
tri1_0_2_4: t0_2_4 - x0_2 <= 0
tri2_0_2_4: t0_2_4 - x0_4 <= 0
tri3_0_2_4: t0_2_4 - x2_4 <= 0
tri4_0_2_4: t0_2_4 - x0_2 - x0_4 - x2_4 >= -2
tri1_0_2_5: t0_2_5 - x0_2 <= 0
tri2_0_2_5: t0_2_5 - x0_5 <= 0
tri3_0_2_5: t0_2_5 - x2_5 <= 0
tri4_0_2_5: t0_2_5 - x0_2 - x0_5 - x2_5 >= -2
tri1_0_2_6: t0_2_6 - x0_2 <= 0
tri2_0_2_6: t0_2_6 - x0_6 <= 0
tri3_0_2_6: t0_2_6 - x2_6 <= 0
tri4_0_2_6: t0_2_6 - x0_2 - x0_6 - x2_6 >= -2
tri1_0_2_7: t0_2_7 - x0_2 <= 0
tri2_0_2_7: t0_2_7 - x0_7 <= 0
tri3_0_2_7: t0_2_7 - x2_7 <= 0
tri4_0_2_7: t0_2_7 - x0_2 - x0_7 - x2_7 >= -2
tri1_0_2_8: t0_2_8 - x0_2 <= 0
tri2_0_2_8: t0_2_8 - x0_8 <= 0
tri3_0_2_8: t0_2_8 - x2_8 <= 0
tri4_0_2_8: t0_2_8 - x0_2 - x0_8 - x2_8 >= -2
tri1_0_2_9: t0_2_9 - x0_2 <= 0
tri2_0_2_9: t0_2_9 - x0_9 <= 0
tri3_0_2_9: t0_2_9 - x2_9 <= 0
tri4_0_2_9: t0_2_9 - x0_2 - x0_9 - x2_9 >= -2
tri1_0_2_10: t0_2_10 - x0_2 <= 0
tri2_0_2_10: t0_2_10 - x0_10 <= 0
tri3_0_2_10: t0_2_10 - x2_10 <= 0
tri4_0_2_10: t0_2_10 - x0_2 - x0_10 - x2_10 >= -2
tri1_0_2_11: t0_2_11 - x0_2 <= 0
tri2_0_2_11: t0_2_11 - x0_11 <= 0
tri3_0_2_11: t0_2_11 - x2_11 <= 0
tri4_0_2_11: t0_2_11 - x0_2 - x0_11 - x2_11 >= -2
tri1_0_2_12: t0_2_12 - x0_2 <= 0
tri2_0_2_12: t0_2_12 - x0_12 <= 0
tri3_0_2_12: t0_2_12 - x2_12 <= 0
tri4_0_2_12: t0_2_12 - x0_2 - x0_12 - x2_12 >= -2
tri1_0_2_13: t0_2_13 - x0_2 <= 0
tri2_0_2_13: t0_2_13 - x0_13 <= 0
tri3_0_2_13: t0_2_13 - x2_13 <= 0
tri4_0_2_13: t0_2_13 - x0_2 - x0_13 - x2_13 >= -2
tri1_0_3_4: t0_3_4 - x0_3 <= 0
tri2_0_3_4: t0_3_4 - x0_4 <= 0
tri3_0_3_4: t0_3_4 - x3_4 <= 0
tri4_0_3_4: t0_3_4 - x0_3 - x0_4 - x3_4 >= -2
tri1_0_3_5: t0_3_5 - x0_3 <= 0
tri2_0_3_5: t0_3_5 - x0_5 <= 0
tri3_0_3_5: t0_3_5 - x3_5 <= 0
tri4_0_3_5: t0_3_5 - x0_3 - x0_5 - x3_5 >= -2
tri1_0_3_6: t0_3_6 - x0_3 <= 0
tri2_0_3_6: t0_3_6 - x0_6 <= 0
tri3_0_3_6: t0_3_6 - x3_6 <= 0
tri4_0_3_6: t0_3_6 - x0_3 - x0_6 - x3_6 >= -2
tri1_0_3_7: t0_3_7 - x0_3 <= 0
tri2_0_3_7: t0_3_7 - x0_7 <= 0
tri3_0_3_7: t0_3_7 - x3_7 <= 0
tri4_0_3_7: t0_3_7 - x0_3 - x0_7 - x3_7 >= -2
tri1_0_3_8: t0_3_8 - x0_3 <= 0
tri2_0_3_8: t0_3_8 - x0_8 <= 0
tri3_0_3_8: t0_3_8 - x3_8 <= 0
tri4_0_3_8: t0_3_8 - x0_3 - x0_8 - x3_8 >= -2
tri1_0_3_9: t0_3_9 - x0_3 <= 0
tri2_0_3_9: t0_3_9 - x0_9 <= 0
tri3_0_3_9: t0_3_9 - x3_9 <= 0
tri4_0_3_9: t0_3_9 - x0_3 - x0_9 - x3_9 >= -2
tri1_0_3_10: t0_3_10 - x0_3 <= 0
tri2_0_3_10: t0_3_10 - x0_10 <= 0
tri3_0_3_10: t0_3_10 - x3_10 <= 0
tri4_0_3_10: t0_3_10 - x0_3 - x0_10 - x3_10 >= -2
tri1_0_3_11: t0_3_11 - x0_3 <= 0
tri2_0_3_11: t0_3_11 - x0_11 <= 0
tri3_0_3_11: t0_3_11 - x3_11 <= 0
tri4_0_3_11: t0_3_11 - x0_3 - x0_11 - x3_11 >= -2
tri1_0_3_12: t0_3_12 - x0_3 <= 0
tri2_0_3_12: t0_3_12 - x0_12 <= 0
tri3_0_3_12: t0_3_12 - x3_12 <= 0
tri4_0_3_12: t0_3_12 - x0_3 - x0_12 - x3_12 >= -2
tri1_0_3_13: t0_3_13 - x0_3 <= 0
tri2_0_3_13: t0_3_13 - x0_13 <= 0
tri3_0_3_13: t0_3_13 - x3_13 <= 0
tri4_0_3_13: t0_3_13 - x0_3 - x0_13 - x3_13 >= -2
tri1_0_4_5: t0_4_5 - x0_4 <= 0
tri2_0_4_5: t0_4_5 - x0_5 <= 0
tri3_0_4_5: t0_4_5 - x4_5 <= 0
tri4_0_4_5: t0_4_5 - x0_4 - x0_5 - x4_5 >= -2
tri1_0_4_6: t0_4_6 - x0_4 <= 0
tri2_0_4_6: t0_4_6 - x0_6 <= 0
tri3_0_4_6: t0_4_6 - x4_6 <= 0
tri4_0_4_6: t0_4_6 - x0_4 - x0_6 - x4_6 >= -2
tri1_0_4_7: t0_4_7 - x0_4 <= 0
tri2_0_4_7: t0_4_7 - x0_7 <= 0
tri3_0_4_7: t0_4_7 - x4_7 <= 0
tri4_0_4_7: t0_4_7 - x0_4 - x0_7 - x4_7 >= -2
tri1_0_4_8: t0_4_8 - x0_4 <= 0
tri2_0_4_8: t0_4_8 - x0_8 <= 0
tri3_0_4_8: t0_4_8 - x4_8 <= 0
tri4_0_4_8: t0_4_8 - x0_4 - x0_8 - x4_8 >= -2
tri1_0_4_9: t0_4_9 - x0_4 <= 0
tri2_0_4_9: t0_4_9 - x0_9 <= 0
tri3_0_4_9: t0_4_9 - x4_9 <= 0
tri4_0_4_9: t0_4_9 - x0_4 - x0_9 - x4_9 >= -2
tri1_0_4_10: t0_4_10 - x0_4 <= 0
tri2_0_4_10: t0_4_10 - x0_10 <= 0
tri3_0_4_10: t0_4_10 - x4_10 <= 0
tri4_0_4_10: t0_4_10 - x0_4 - x0_10 - x4_10 >= -2
tri1_0_4_11: t0_4_11 - x0_4 <= 0
tri2_0_4_11: t0_4_11 - x0_11 <= 0
tri3_0_4_11: t0_4_11 - x4_11 <= 0
tri4_0_4_11: t0_4_11 - x0_4 - x0_11 - x4_11 >= -2
tri1_0_4_12: t0_4_12 - x0_4 <= 0
tri2_0_4_12: t0_4_12 - x0_12 <= 0
tri3_0_4_12: t0_4_12 - x4_12 <= 0
tri4_0_4_12: t0_4_12 - x0_4 - x0_12 - x4_12 >= -2
tri1_0_4_13: t0_4_13 - x0_4 <= 0
tri2_0_4_13: t0_4_13 - x0_13 <= 0
tri3_0_4_13: t0_4_13 - x4_13 <= 0
tri4_0_4_13: t0_4_13 - x0_4 - x0_13 - x4_13 >= -2
tri1_0_5_6: t0_5_6 - x0_5 <= 0
tri2_0_5_6: t0_5_6 - x0_6 <= 0
tri3_0_5_6: t0_5_6 - x5_6 <= 0
tri4_0_5_6: t0_5_6 - x0_5 - x0_6 - x5_6 >= -2
tri1_0_5_7: t0_5_7 - x0_5 <= 0
tri2_0_5_7: t0_5_7 - x0_7 <= 0
tri3_0_5_7: t0_5_7 - x5_7 <= 0
tri4_0_5_7: t0_5_7 - x0_5 - x0_7 - x5_7 >= -2
tri1_0_5_8: t0_5_8 - x0_5 <= 0
tri2_0_5_8: t0_5_8 - x0_8 <= 0
tri3_0_5_8: t0_5_8 - x5_8 <= 0
tri4_0_5_8: t0_5_8 - x0_5 - x0_8 - x5_8 >= -2
tri1_0_5_9: t0_5_9 - x0_5 <= 0
tri2_0_5_9: t0_5_9 - x0_9 <= 0
tri3_0_5_9: t0_5_9 - x5_9 <= 0
tri4_0_5_9: t0_5_9 - x0_5 - x0_9 - x5_9 >= -2
tri1_0_5_10: t0_5_10 - x0_5 <= 0
tri2_0_5_10: t0_5_10 - x0_10 <= 0
tri3_0_5_10: t0_5_10 - x5_10 <= 0
tri4_0_5_10: t0_5_10 - x0_5 - x0_10 - x5_10 >= -2
tri1_0_5_11: t0_5_11 - x0_5 <= 0
tri2_0_5_11: t0_5_11 - x0_11 <= 0
tri3_0_5_11: t0_5_11 - x5_11 <= 0
tri4_0_5_11: t0_5_11 - x0_5 - x0_11 - x5_11 >= -2
tri1_0_5_12: t0_5_12 - x0_5 <= 0
tri2_0_5_12: t0_5_12 - x0_12 <= 0
tri3_0_5_12: t0_5_12 - x5_12 <= 0
tri4_0_5_12: t0_5_12 - x0_5 - x0_12 - x5_12 >= -2
tri1_0_5_13: t0_5_13 - x0_5 <= 0
tri2_0_5_13: t0_5_13 - x0_13 <= 0
tri3_0_5_13: t0_5_13 - x5_13 <= 0
tri4_0_5_13: t0_5_13 - x0_5 - x0_13 - x5_13 >= -2
tri1_0_6_7: t0_6_7 - x0_6 <= 0
tri2_0_6_7: t0_6_7 - x0_7 <= 0
tri3_0_6_7: t0_6_7 - x6_7 <= 0
tri4_0_6_7: t0_6_7 - x0_6 - x0_7 - x6_7 >= -2
tri1_0_6_8: t0_6_8 - x0_6 <= 0
tri2_0_6_8: t0_6_8 - x0_8 <= 0
tri3_0_6_8: t0_6_8 - x6_8 <= 0
tri4_0_6_8: t0_6_8 - x0_6 - x0_8 - x6_8 >= -2
tri1_0_6_9: t0_6_9 - x0_6 <= 0
tri2_0_6_9: t0_6_9 - x0_9 <= 0
tri3_0_6_9: t0_6_9 - x6_9 <= 0
tri4_0_6_9: t0_6_9 - x0_6 - x0_9 - x6_9 >= -2
tri1_0_6_10: t0_6_10 - x0_6 <= 0
tri2_0_6_10: t0_6_10 - x0_10 <= 0
tri3_0_6_10: t0_6_10 - x6_10 <= 0
tri4_0_6_10: t0_6_10 - x0_6 - x0_10 - x6_10 >= -2
tri1_0_6_11: t0_6_11 - x0_6 <= 0
tri2_0_6_11: t0_6_11 - x0_11 <= 0
tri3_0_6_11: t0_6_11 - x6_11 <= 0
tri4_0_6_11: t0_6_11 - x0_6 - x0_11 - x6_11 >= -2
tri1_0_6_12: t0_6_12 - x0_6 <= 0
tri2_0_6_12: t0_6_12 - x0_12 <= 0
tri3_0_6_12: t0_6_12 - x6_12 <= 0
tri4_0_6_12: t0_6_12 - x0_6 - x0_12 - x6_12 >= -2
tri1_0_6_13: t0_6_13 - x0_6 <= 0
tri2_0_6_13: t0_6_13 - x0_13 <= 0
tri3_0_6_13: t0_6_13 - x6_13 <= 0
tri4_0_6_13: t0_6_13 - x0_6 - x0_13 - x6_13 >= -2
tri1_0_7_8: t0_7_8 - x0_7 <= 0
tri2_0_7_8: t0_7_8 - x0_8 <= 0
tri3_0_7_8: t0_7_8 - x7_8 <= 0
tri4_0_7_8: t0_7_8 - x0_7 - x0_8 - x7_8 >= -2
tri1_0_7_9: t0_7_9 - x0_7 <= 0
tri2_0_7_9: t0_7_9 - x0_9 <= 0
tri3_0_7_9: t0_7_9 - x7_9 <= 0
tri4_0_7_9: t0_7_9 - x0_7 - x0_9 - x7_9 >= -2
tri1_0_7_10: t0_7_10 - x0_7 <= 0
tri2_0_7_10: t0_7_10 - x0_10 <= 0
tri3_0_7_10: t0_7_10 - x7_10 <= 0
tri4_0_7_10: t0_7_10 - x0_7 - x0_10 - x7_10 >= -2
tri1_0_7_11: t0_7_11 - x0_7 <= 0
tri2_0_7_11: t0_7_11 - x0_11 <= 0
tri3_0_7_11: t0_7_11 - x7_11 <= 0
tri4_0_7_11: t0_7_11 - x0_7 - x0_11 - x7_11 >= -2
tri1_0_7_12: t0_7_12 - x0_7 <= 0
tri2_0_7_12: t0_7_12 - x0_12 <= 0
tri3_0_7_12: t0_7_12 - x7_12 <= 0
tri4_0_7_12: t0_7_12 - x0_7 - x0_12 - x7_12 >= -2
tri1_0_7_13: t0_7_13 - x0_7 <= 0
tri2_0_7_13: t0_7_13 - x0_13 <= 0
tri3_0_7_13: t0_7_13 - x7_13 <= 0
tri4_0_7_13: t0_7_13 - x0_7 - x0_13 - x7_13 >= -2
tri1_0_8_9: t0_8_9 - x0_8 <= 0
tri2_0_8_9: t0_8_9 - x0_9 <= 0
tri3_0_8_9: t0_8_9 - x8_9 <= 0
tri4_0_8_9: t0_8_9 - x0_8 - x0_9 - x8_9 >= -2
tri1_0_8_10: t0_8_10 - x0_8 <= 0
tri2_0_8_10: t0_8_10 - x0_10 <= 0
tri3_0_8_10: t0_8_10 - x8_10 <= 0
tri4_0_8_10: t0_8_10 - x0_8 - x0_10 - x8_10 >= -2
tri1_0_8_11: t0_8_11 - x0_8 <= 0
tri2_0_8_11: t0_8_11 - x0_11 <= 0
tri3_0_8_11: t0_8_11 - x8_11 <= 0
tri4_0_8_11: t0_8_11 - x0_8 - x0_11 - x8_11 >= -2
tri1_0_8_12: t0_8_12 - x0_8 <= 0
tri2_0_8_12: t0_8_12 - x0_12 <= 0
tri3_0_8_12: t0_8_12 - x8_12 <= 0
tri4_0_8_12: t0_8_12 - x0_8 - x0_12 - x8_12 >= -2
tri1_0_8_13: t0_8_13 - x0_8 <= 0
tri2_0_8_13: t0_8_13 - x0_13 <= 0
tri3_0_8_13: t0_8_13 - x8_13 <= 0
tri4_0_8_13: t0_8_13 - x0_8 - x0_13 - x8_13 >= -2
tri1_0_9_10: t0_9_10 - x0_9 <= 0
tri2_0_9_10: t0_9_10 - x0_10 <= 0
tri3_0_9_10: t0_9_10 - x9_10 <= 0
tri4_0_9_10: t0_9_10 - x0_9 - x0_10 - x9_10 >= -2
tri1_0_9_11: t0_9_11 - x0_9 <= 0
tri2_0_9_11: t0_9_11 - x0_11 <= 0
tri3_0_9_11: t0_9_11 - x9_11 <= 0
tri4_0_9_11: t0_9_11 - x0_9 - x0_11 - x9_11 >= -2
tri1_0_9_12: t0_9_12 - x0_9 <= 0
tri2_0_9_12: t0_9_12 - x0_12 <= 0
tri3_0_9_12: t0_9_12 - x9_12 <= 0
tri4_0_9_12: t0_9_12 - x0_9 - x0_12 - x9_12 >= -2
tri1_0_9_13: t0_9_13 - x0_9 <= 0
tri2_0_9_13: t0_9_13 - x0_13 <= 0
tri3_0_9_13: t0_9_13 - x9_13 <= 0
tri4_0_9_13: t0_9_13 - x0_9 - x0_13 - x9_13 >= -2
tri1_0_10_11: t0_10_11 - x0_10 <= 0
tri2_0_10_11: t0_10_11 - x0_11 <= 0
tri3_0_10_11: t0_10_11 - x10_11 <= 0
tri4_0_10_11: t0_10_11 - x0_10 - x0_11 - x10_11 >= -2
tri1_0_10_12: t0_10_12 - x0_10 <= 0
tri2_0_10_12: t0_10_12 - x0_12 <= 0
tri3_0_10_12: t0_10_12 - x10_12 <= 0
tri4_0_10_12: t0_10_12 - x0_10 - x0_12 - x10_12 >= -2
tri1_0_10_13: t0_10_13 - x0_10 <= 0
tri2_0_10_13: t0_10_13 - x0_13 <= 0
tri3_0_10_13: t0_10_13 - x10_13 <= 0
tri4_0_10_13: t0_10_13 - x0_10 - x0_13 - x10_13 >= -2
tri1_0_11_12: t0_11_12 - x0_11 <= 0
tri2_0_11_12: t0_11_12 - x0_12 <= 0
tri3_0_11_12: t0_11_12 - x11_12 <= 0
tri4_0_11_12: t0_11_12 - x0_11 - x0_12 - x11_12 >= -2
tri1_0_11_13: t0_11_13 - x0_11 <= 0
tri2_0_11_13: t0_11_13 - x0_13 <= 0
tri3_0_11_13: t0_11_13 - x11_13 <= 0
tri4_0_11_13: t0_11_13 - x0_11 - x0_13 - x11_13 >= -2
tri1_0_12_13: t0_12_13 - x0_12 <= 0
tri2_0_12_13: t0_12_13 - x0_13 <= 0
tri3_0_12_13: t0_12_13 - x12_13 <= 0
tri4_0_12_13: t0_12_13 - x0_12 - x0_13 - x12_13 >= -2
tri1_1_2_3: t1_2_3 - x1_2 <= 0
tri2_1_2_3: t1_2_3 - x1_3 <= 0
tri3_1_2_3: t1_2_3 - x2_3 <= 0
tri4_1_2_3: t1_2_3 - x1_2 - x1_3 - x2_3 >= -2
tri1_1_2_4: t1_2_4 - x1_2 <= 0
tri2_1_2_4: t1_2_4 - x1_4 <= 0
tri3_1_2_4: t1_2_4 - x2_4 <= 0
tri4_1_2_4: t1_2_4 - x1_2 - x1_4 - x2_4 >= -2
tri1_1_2_5: t1_2_5 - x1_2 <= 0
tri2_1_2_5: t1_2_5 - x1_5 <= 0
tri3_1_2_5: t1_2_5 - x2_5 <= 0
tri4_1_2_5: t1_2_5 - x1_2 - x1_5 - x2_5 >= -2
tri1_1_2_6: t1_2_6 - x1_2 <= 0
tri2_1_2_6: t1_2_6 - x1_6 <= 0
tri3_1_2_6: t1_2_6 - x2_6 <= 0
tri4_1_2_6: t1_2_6 - x1_2 - x1_6 - x2_6 >= -2
tri1_1_2_7: t1_2_7 - x1_2 <= 0
tri2_1_2_7: t1_2_7 - x1_7 <= 0
tri3_1_2_7: t1_2_7 - x2_7 <= 0
tri4_1_2_7: t1_2_7 - x1_2 - x1_7 - x2_7 >= -2
tri1_1_2_8: t1_2_8 - x1_2 <= 0
tri2_1_2_8: t1_2_8 - x1_8 <= 0
tri3_1_2_8: t1_2_8 - x2_8 <= 0
tri4_1_2_8: t1_2_8 - x1_2 - x1_8 - x2_8 >= -2
tri1_1_2_9: t1_2_9 - x1_2 <= 0
tri2_1_2_9: t1_2_9 - x1_9 <= 0
tri3_1_2_9: t1_2_9 - x2_9 <= 0
tri4_1_2_9: t1_2_9 - x1_2 - x1_9 - x2_9 >= -2
tri1_1_2_10: t1_2_10 - x1_2 <= 0
tri2_1_2_10: t1_2_10 - x1_10 <= 0
tri3_1_2_10: t1_2_10 - x2_10 <= 0
tri4_1_2_10: t1_2_10 - x1_2 - x1_10 - x2_10 >= -2
tri1_1_2_11: t1_2_11 - x1_2 <= 0
tri2_1_2_11: t1_2_11 - x1_11 <= 0
tri3_1_2_11: t1_2_11 - x2_11 <= 0
tri4_1_2_11: t1_2_11 - x1_2 - x1_11 - x2_11 >= -2
tri1_1_2_12: t1_2_12 - x1_2 <= 0
tri2_1_2_12: t1_2_12 - x1_12 <= 0
tri3_1_2_12: t1_2_12 - x2_12 <= 0
tri4_1_2_12: t1_2_12 - x1_2 - x1_12 - x2_12 >= -2
tri1_1_2_13: t1_2_13 - x1_2 <= 0
tri2_1_2_13: t1_2_13 - x1_13 <= 0
tri3_1_2_13: t1_2_13 - x2_13 <= 0
tri4_1_2_13: t1_2_13 - x1_2 - x1_13 - x2_13 >= -2
tri1_1_3_4: t1_3_4 - x1_3 <= 0
tri2_1_3_4: t1_3_4 - x1_4 <= 0
tri3_1_3_4: t1_3_4 - x3_4 <= 0
tri4_1_3_4: t1_3_4 - x1_3 - x1_4 - x3_4 >= -2
tri1_1_3_5: t1_3_5 - x1_3 <= 0
tri2_1_3_5: t1_3_5 - x1_5 <= 0
tri3_1_3_5: t1_3_5 - x3_5 <= 0
tri4_1_3_5: t1_3_5 - x1_3 - x1_5 - x3_5 >= -2
tri1_1_3_6: t1_3_6 - x1_3 <= 0
tri2_1_3_6: t1_3_6 - x1_6 <= 0
tri3_1_3_6: t1_3_6 - x3_6 <= 0
tri4_1_3_6: t1_3_6 - x1_3 - x1_6 - x3_6 >= -2
tri1_1_3_7: t1_3_7 - x1_3 <= 0
tri2_1_3_7: t1_3_7 - x1_7 <= 0
tri3_1_3_7: t1_3_7 - x3_7 <= 0
tri4_1_3_7: t1_3_7 - x1_3 - x1_7 - x3_7 >= -2
tri1_1_3_8: t1_3_8 - x1_3 <= 0
tri2_1_3_8: t1_3_8 - x1_8 <= 0
tri3_1_3_8: t1_3_8 - x3_8 <= 0
tri4_1_3_8: t1_3_8 - x1_3 - x1_8 - x3_8 >= -2
tri1_1_3_9: t1_3_9 - x1_3 <= 0
tri2_1_3_9: t1_3_9 - x1_9 <= 0
tri3_1_3_9: t1_3_9 - x3_9 <= 0
tri4_1_3_9: t1_3_9 - x1_3 - x1_9 - x3_9 >= -2
tri1_1_3_10: t1_3_10 - x1_3 <= 0
tri2_1_3_10: t1_3_10 - x1_10 <= 0
tri3_1_3_10: t1_3_10 - x3_10 <= 0
tri4_1_3_10: t1_3_10 - x1_3 - x1_10 - x3_10 >= -2
tri1_1_3_11: t1_3_11 - x1_3 <= 0
tri2_1_3_11: t1_3_11 - x1_11 <= 0
tri3_1_3_11: t1_3_11 - x3_11 <= 0
tri4_1_3_11: t1_3_11 - x1_3 - x1_11 - x3_11 >= -2
tri1_1_3_12: t1_3_12 - x1_3 <= 0
tri2_1_3_12: t1_3_12 - x1_12 <= 0
tri3_1_3_12: t1_3_12 - x3_12 <= 0
tri4_1_3_12: t1_3_12 - x1_3 - x1_12 - x3_12 >= -2
tri1_1_3_13: t1_3_13 - x1_3 <= 0
tri2_1_3_13: t1_3_13 - x1_13 <= 0
tri3_1_3_13: t1_3_13 - x3_13 <= 0
tri4_1_3_13: t1_3_13 - x1_3 - x1_13 - x3_13 >= -2
tri1_1_4_5: t1_4_5 - x1_4 <= 0
tri2_1_4_5: t1_4_5 - x1_5 <= 0
tri3_1_4_5: t1_4_5 - x4_5 <= 0
tri4_1_4_5: t1_4_5 - x1_4 - x1_5 - x4_5 >= -2
tri1_1_4_6: t1_4_6 - x1_4 <= 0
tri2_1_4_6: t1_4_6 - x1_6 <= 0
tri3_1_4_6: t1_4_6 - x4_6 <= 0
tri4_1_4_6: t1_4_6 - x1_4 - x1_6 - x4_6 >= -2
tri1_1_4_7: t1_4_7 - x1_4 <= 0
tri2_1_4_7: t1_4_7 - x1_7 <= 0
tri3_1_4_7: t1_4_7 - x4_7 <= 0
tri4_1_4_7: t1_4_7 - x1_4 - x1_7 - x4_7 >= -2
tri1_1_4_8: t1_4_8 - x1_4 <= 0
tri2_1_4_8: t1_4_8 - x1_8 <= 0
tri3_1_4_8: t1_4_8 - x4_8 <= 0
tri4_1_4_8: t1_4_8 - x1_4 - x1_8 - x4_8 >= -2
tri1_1_4_9: t1_4_9 - x1_4 <= 0
tri2_1_4_9: t1_4_9 - x1_9 <= 0
tri3_1_4_9: t1_4_9 - x4_9 <= 0
tri4_1_4_9: t1_4_9 - x1_4 - x1_9 - x4_9 >= -2
tri1_1_4_10: t1_4_10 - x1_4 <= 0
tri2_1_4_10: t1_4_10 - x1_10 <= 0
tri3_1_4_10: t1_4_10 - x4_10 <= 0
tri4_1_4_10: t1_4_10 - x1_4 - x1_10 - x4_10 >= -2
tri1_1_4_11: t1_4_11 - x1_4 <= 0
tri2_1_4_11: t1_4_11 - x1_11 <= 0
tri3_1_4_11: t1_4_11 - x4_11 <= 0
tri4_1_4_11: t1_4_11 - x1_4 - x1_11 - x4_11 >= -2
tri1_1_4_12: t1_4_12 - x1_4 <= 0
tri2_1_4_12: t1_4_12 - x1_12 <= 0
tri3_1_4_12: t1_4_12 - x4_12 <= 0
tri4_1_4_12: t1_4_12 - x1_4 - x1_12 - x4_12 >= -2
tri1_1_4_13: t1_4_13 - x1_4 <= 0
tri2_1_4_13: t1_4_13 - x1_13 <= 0
tri3_1_4_13: t1_4_13 - x4_13 <= 0
tri4_1_4_13: t1_4_13 - x1_4 - x1_13 - x4_13 >= -2
tri1_1_5_6: t1_5_6 - x1_5 <= 0
tri2_1_5_6: t1_5_6 - x1_6 <= 0
tri3_1_5_6: t1_5_6 - x5_6 <= 0
tri4_1_5_6: t1_5_6 - x1_5 - x1_6 - x5_6 >= -2
tri1_1_5_7: t1_5_7 - x1_5 <= 0
tri2_1_5_7: t1_5_7 - x1_7 <= 0
tri3_1_5_7: t1_5_7 - x5_7 <= 0
tri4_1_5_7: t1_5_7 - x1_5 - x1_7 - x5_7 >= -2
tri1_1_5_8: t1_5_8 - x1_5 <= 0
tri2_1_5_8: t1_5_8 - x1_8 <= 0
tri3_1_5_8: t1_5_8 - x5_8 <= 0
tri4_1_5_8: t1_5_8 - x1_5 - x1_8 - x5_8 >= -2
tri1_1_5_9: t1_5_9 - x1_5 <= 0
tri2_1_5_9: t1_5_9 - x1_9 <= 0
tri3_1_5_9: t1_5_9 - x5_9 <= 0
tri4_1_5_9: t1_5_9 - x1_5 - x1_9 - x5_9 >= -2
tri1_1_5_10: t1_5_10 - x1_5 <= 0
tri2_1_5_10: t1_5_10 - x1_10 <= 0
tri3_1_5_10: t1_5_10 - x5_10 <= 0
tri4_1_5_10: t1_5_10 - x1_5 - x1_10 - x5_10 >= -2
tri1_1_5_11: t1_5_11 - x1_5 <= 0
tri2_1_5_11: t1_5_11 - x1_11 <= 0
tri3_1_5_11: t1_5_11 - x5_11 <= 0
tri4_1_5_11: t1_5_11 - x1_5 - x1_11 - x5_11 >= -2
tri1_1_5_12: t1_5_12 - x1_5 <= 0
tri2_1_5_12: t1_5_12 - x1_12 <= 0
tri3_1_5_12: t1_5_12 - x5_12 <= 0
tri4_1_5_12: t1_5_12 - x1_5 - x1_12 - x5_12 >= -2
tri1_1_5_13: t1_5_13 - x1_5 <= 0
tri2_1_5_13: t1_5_13 - x1_13 <= 0
tri3_1_5_13: t1_5_13 - x5_13 <= 0
tri4_1_5_13: t1_5_13 - x1_5 - x1_13 - x5_13 >= -2
tri1_1_6_7: t1_6_7 - x1_6 <= 0
tri2_1_6_7: t1_6_7 - x1_7 <= 0
tri3_1_6_7: t1_6_7 - x6_7 <= 0
tri4_1_6_7: t1_6_7 - x1_6 - x1_7 - x6_7 >= -2
tri1_1_6_8: t1_6_8 - x1_6 <= 0
tri2_1_6_8: t1_6_8 - x1_8 <= 0
tri3_1_6_8: t1_6_8 - x6_8 <= 0
tri4_1_6_8: t1_6_8 - x1_6 - x1_8 - x6_8 >= -2
tri1_1_6_9: t1_6_9 - x1_6 <= 0
tri2_1_6_9: t1_6_9 - x1_9 <= 0
tri3_1_6_9: t1_6_9 - x6_9 <= 0
tri4_1_6_9: t1_6_9 - x1_6 - x1_9 - x6_9 >= -2
tri1_1_6_10: t1_6_10 - x1_6 <= 0
tri2_1_6_10: t1_6_10 - x1_10 <= 0
tri3_1_6_10: t1_6_10 - x6_10 <= 0
tri4_1_6_10: t1_6_10 - x1_6 - x1_10 - x6_10 >= -2
tri1_1_6_11: t1_6_11 - x1_6 <= 0
tri2_1_6_11: t1_6_11 - x1_11 <= 0
tri3_1_6_11: t1_6_11 - x6_11 <= 0
tri4_1_6_11: t1_6_11 - x1_6 - x1_11 - x6_11 >= -2
tri1_1_6_12: t1_6_12 - x1_6 <= 0
tri2_1_6_12: t1_6_12 - x1_12 <= 0
tri3_1_6_12: t1_6_12 - x6_12 <= 0
tri4_1_6_12: t1_6_12 - x1_6 - x1_12 - x6_12 >= -2
tri1_1_6_13: t1_6_13 - x1_6 <= 0
tri2_1_6_13: t1_6_13 - x1_13 <= 0
tri3_1_6_13: t1_6_13 - x6_13 <= 0
tri4_1_6_13: t1_6_13 - x1_6 - x1_13 - x6_13 >= -2
tri1_1_7_8: t1_7_8 - x1_7 <= 0
tri2_1_7_8: t1_7_8 - x1_8 <= 0
tri3_1_7_8: t1_7_8 - x7_8 <= 0
tri4_1_7_8: t1_7_8 - x1_7 - x1_8 - x7_8 >= -2
tri1_1_7_9: t1_7_9 - x1_7 <= 0
tri2_1_7_9: t1_7_9 - x1_9 <= 0
tri3_1_7_9: t1_7_9 - x7_9 <= 0
tri4_1_7_9: t1_7_9 - x1_7 - x1_9 - x7_9 >= -2
tri1_1_7_10: t1_7_10 - x1_7 <= 0
tri2_1_7_10: t1_7_10 - x1_10 <= 0
tri3_1_7_10: t1_7_10 - x7_10 <= 0
tri4_1_7_10: t1_7_10 - x1_7 - x1_10 - x7_10 >= -2
tri1_1_7_11: t1_7_11 - x1_7 <= 0
tri2_1_7_11: t1_7_11 - x1_11 <= 0
tri3_1_7_11: t1_7_11 - x7_11 <= 0
tri4_1_7_11: t1_7_11 - x1_7 - x1_11 - x7_11 >= -2
tri1_1_7_12: t1_7_12 - x1_7 <= 0
tri2_1_7_12: t1_7_12 - x1_12 <= 0
tri3_1_7_12: t1_7_12 - x7_12 <= 0
tri4_1_7_12: t1_7_12 - x1_7 - x1_12 - x7_12 >= -2
tri1_1_7_13: t1_7_13 - x1_7 <= 0
tri2_1_7_13: t1_7_13 - x1_13 <= 0
tri3_1_7_13: t1_7_13 - x7_13 <= 0
tri4_1_7_13: t1_7_13 - x1_7 - x1_13 - x7_13 >= -2
tri1_1_8_9: t1_8_9 - x1_8 <= 0
tri2_1_8_9: t1_8_9 - x1_9 <= 0
tri3_1_8_9: t1_8_9 - x8_9 <= 0
tri4_1_8_9: t1_8_9 - x1_8 - x1_9 - x8_9 >= -2
tri1_1_8_10: t1_8_10 - x1_8 <= 0
tri2_1_8_10: t1_8_10 - x1_10 <= 0
tri3_1_8_10: t1_8_10 - x8_10 <= 0
tri4_1_8_10: t1_8_10 - x1_8 - x1_10 - x8_10 >= -2
tri1_1_8_11: t1_8_11 - x1_8 <= 0
tri2_1_8_11: t1_8_11 - x1_11 <= 0
tri3_1_8_11: t1_8_11 - x8_11 <= 0
tri4_1_8_11: t1_8_11 - x1_8 - x1_11 - x8_11 >= -2
tri1_1_8_12: t1_8_12 - x1_8 <= 0
tri2_1_8_12: t1_8_12 - x1_12 <= 0
tri3_1_8_12: t1_8_12 - x8_12 <= 0
tri4_1_8_12: t1_8_12 - x1_8 - x1_12 - x8_12 >= -2
tri1_1_8_13: t1_8_13 - x1_8 <= 0
tri2_1_8_13: t1_8_13 - x1_13 <= 0
tri3_1_8_13: t1_8_13 - x8_13 <= 0
tri4_1_8_13: t1_8_13 - x1_8 - x1_13 - x8_13 >= -2
tri1_1_9_10: t1_9_10 - x1_9 <= 0
tri2_1_9_10: t1_9_10 - x1_10 <= 0
tri3_1_9_10: t1_9_10 - x9_10 <= 0
tri4_1_9_10: t1_9_10 - x1_9 - x1_10 - x9_10 >= -2
tri1_1_9_11: t1_9_11 - x1_9 <= 0
tri2_1_9_11: t1_9_11 - x1_11 <= 0
tri3_1_9_11: t1_9_11 - x9_11 <= 0
tri4_1_9_11: t1_9_11 - x1_9 - x1_11 - x9_11 >= -2
tri1_1_9_12: t1_9_12 - x1_9 <= 0
tri2_1_9_12: t1_9_12 - x1_12 <= 0
tri3_1_9_12: t1_9_12 - x9_12 <= 0
tri4_1_9_12: t1_9_12 - x1_9 - x1_12 - x9_12 >= -2
tri1_1_9_13: t1_9_13 - x1_9 <= 0
tri2_1_9_13: t1_9_13 - x1_13 <= 0
tri3_1_9_13: t1_9_13 - x9_13 <= 0
tri4_1_9_13: t1_9_13 - x1_9 - x1_13 - x9_13 >= -2
tri1_1_10_11: t1_10_11 - x1_10 <= 0
tri2_1_10_11: t1_10_11 - x1_11 <= 0
tri3_1_10_11: t1_10_11 - x10_11 <= 0
tri4_1_10_11: t1_10_11 - x1_10 - x1_11 - x10_11 >= -2
tri1_1_10_12: t1_10_12 - x1_10 <= 0
tri2_1_10_12: t1_10_12 - x1_12 <= 0
tri3_1_10_12: t1_10_12 - x10_12 <= 0
tri4_1_10_12: t1_10_12 - x1_10 - x1_12 - x10_12 >= -2
tri1_1_10_13: t1_10_13 - x1_10 <= 0
tri2_1_10_13: t1_10_13 - x1_13 <= 0
tri3_1_10_13: t1_10_13 - x10_13 <= 0
tri4_1_10_13: t1_10_13 - x1_10 - x1_13 - x10_13 >= -2
tri1_1_11_12: t1_11_12 - x1_11 <= 0
tri2_1_11_12: t1_11_12 - x1_12 <= 0
tri3_1_11_12: t1_11_12 - x11_12 <= 0
tri4_1_11_12: t1_11_12 - x1_11 - x1_12 - x11_12 >= -2
tri1_1_11_13: t1_11_13 - x1_11 <= 0
tri2_1_11_13: t1_11_13 - x1_13 <= 0
tri3_1_11_13: t1_11_13 - x11_13 <= 0
tri4_1_11_13: t1_11_13 - x1_11 - x1_13 - x11_13 >= -2
tri1_1_12_13: t1_12_13 - x1_12 <= 0
tri2_1_12_13: t1_12_13 - x1_13 <= 0
tri3_1_12_13: t1_12_13 - x12_13 <= 0
tri4_1_12_13: t1_12_13 - x1_12 - x1_13 - x12_13 >= -2
tri1_2_3_4: t2_3_4 - x2_3 <= 0
tri2_2_3_4: t2_3_4 - x2_4 <= 0
tri3_2_3_4: t2_3_4 - x3_4 <= 0
tri4_2_3_4: t2_3_4 - x2_3 - x2_4 - x3_4 >= -2
tri1_2_3_5: t2_3_5 - x2_3 <= 0
tri2_2_3_5: t2_3_5 - x2_5 <= 0
tri3_2_3_5: t2_3_5 - x3_5 <= 0
tri4_2_3_5: t2_3_5 - x2_3 - x2_5 - x3_5 >= -2
tri1_2_3_6: t2_3_6 - x2_3 <= 0
tri2_2_3_6: t2_3_6 - x2_6 <= 0
tri3_2_3_6: t2_3_6 - x3_6 <= 0
tri4_2_3_6: t2_3_6 - x2_3 - x2_6 - x3_6 >= -2
tri1_2_3_7: t2_3_7 - x2_3 <= 0
tri2_2_3_7: t2_3_7 - x2_7 <= 0
tri3_2_3_7: t2_3_7 - x3_7 <= 0
tri4_2_3_7: t2_3_7 - x2_3 - x2_7 - x3_7 >= -2
tri1_2_3_8: t2_3_8 - x2_3 <= 0
tri2_2_3_8: t2_3_8 - x2_8 <= 0
tri3_2_3_8: t2_3_8 - x3_8 <= 0
tri4_2_3_8: t2_3_8 - x2_3 - x2_8 - x3_8 >= -2
tri1_2_3_9: t2_3_9 - x2_3 <= 0
tri2_2_3_9: t2_3_9 - x2_9 <= 0
tri3_2_3_9: t2_3_9 - x3_9 <= 0
tri4_2_3_9: t2_3_9 - x2_3 - x2_9 - x3_9 >= -2
tri1_2_3_10: t2_3_10 - x2_3 <= 0
tri2_2_3_10: t2_3_10 - x2_10 <= 0
tri3_2_3_10: t2_3_10 - x3_10 <= 0
tri4_2_3_10: t2_3_10 - x2_3 - x2_10 - x3_10 >= -2
tri1_2_3_11: t2_3_11 - x2_3 <= 0
tri2_2_3_11: t2_3_11 - x2_11 <= 0
tri3_2_3_11: t2_3_11 - x3_11 <= 0
tri4_2_3_11: t2_3_11 - x2_3 - x2_11 - x3_11 >= -2
tri1_2_3_12: t2_3_12 - x2_3 <= 0
tri2_2_3_12: t2_3_12 - x2_12 <= 0
tri3_2_3_12: t2_3_12 - x3_12 <= 0
tri4_2_3_12: t2_3_12 - x2_3 - x2_12 - x3_12 >= -2
tri1_2_3_13: t2_3_13 - x2_3 <= 0
tri2_2_3_13: t2_3_13 - x2_13 <= 0
tri3_2_3_13: t2_3_13 - x3_13 <= 0
tri4_2_3_13: t2_3_13 - x2_3 - x2_13 - x3_13 >= -2
tri1_2_4_5: t2_4_5 - x2_4 <= 0
tri2_2_4_5: t2_4_5 - x2_5 <= 0
tri3_2_4_5: t2_4_5 - x4_5 <= 0
tri4_2_4_5: t2_4_5 - x2_4 - x2_5 - x4_5 >= -2
tri1_2_4_6: t2_4_6 - x2_4 <= 0
tri2_2_4_6: t2_4_6 - x2_6 <= 0
tri3_2_4_6: t2_4_6 - x4_6 <= 0
tri4_2_4_6: t2_4_6 - x2_4 - x2_6 - x4_6 >= -2
tri1_2_4_7: t2_4_7 - x2_4 <= 0
tri2_2_4_7: t2_4_7 - x2_7 <= 0
tri3_2_4_7: t2_4_7 - x4_7 <= 0
tri4_2_4_7: t2_4_7 - x2_4 - x2_7 - x4_7 >= -2
tri1_2_4_8: t2_4_8 - x2_4 <= 0
tri2_2_4_8: t2_4_8 - x2_8 <= 0
tri3_2_4_8: t2_4_8 - x4_8 <= 0
tri4_2_4_8: t2_4_8 - x2_4 - x2_8 - x4_8 >= -2
tri1_2_4_9: t2_4_9 - x2_4 <= 0
tri2_2_4_9: t2_4_9 - x2_9 <= 0
tri3_2_4_9: t2_4_9 - x4_9 <= 0
tri4_2_4_9: t2_4_9 - x2_4 - x2_9 - x4_9 >= -2
tri1_2_4_10: t2_4_10 - x2_4 <= 0
tri2_2_4_10: t2_4_10 - x2_10 <= 0
tri3_2_4_10: t2_4_10 - x4_10 <= 0
tri4_2_4_10: t2_4_10 - x2_4 - x2_10 - x4_10 >= -2
tri1_2_4_11: t2_4_11 - x2_4 <= 0
tri2_2_4_11: t2_4_11 - x2_11 <= 0
tri3_2_4_11: t2_4_11 - x4_11 <= 0
tri4_2_4_11: t2_4_11 - x2_4 - x2_11 - x4_11 >= -2
tri1_2_4_12: t2_4_12 - x2_4 <= 0
tri2_2_4_12: t2_4_12 - x2_12 <= 0
tri3_2_4_12: t2_4_12 - x4_12 <= 0
tri4_2_4_12: t2_4_12 - x2_4 - x2_12 - x4_12 >= -2
tri1_2_4_13: t2_4_13 - x2_4 <= 0
tri2_2_4_13: t2_4_13 - x2_13 <= 0
tri3_2_4_13: t2_4_13 - x4_13 <= 0
tri4_2_4_13: t2_4_13 - x2_4 - x2_13 - x4_13 >= -2
tri1_2_5_6: t2_5_6 - x2_5 <= 0
tri2_2_5_6: t2_5_6 - x2_6 <= 0
tri3_2_5_6: t2_5_6 - x5_6 <= 0
tri4_2_5_6: t2_5_6 - x2_5 - x2_6 - x5_6 >= -2
tri1_2_5_7: t2_5_7 - x2_5 <= 0
tri2_2_5_7: t2_5_7 - x2_7 <= 0
tri3_2_5_7: t2_5_7 - x5_7 <= 0
tri4_2_5_7: t2_5_7 - x2_5 - x2_7 - x5_7 >= -2
tri1_2_5_8: t2_5_8 - x2_5 <= 0
tri2_2_5_8: t2_5_8 - x2_8 <= 0
tri3_2_5_8: t2_5_8 - x5_8 <= 0
tri4_2_5_8: t2_5_8 - x2_5 - x2_8 - x5_8 >= -2
tri1_2_5_9: t2_5_9 - x2_5 <= 0
tri2_2_5_9: t2_5_9 - x2_9 <= 0
tri3_2_5_9: t2_5_9 - x5_9 <= 0
tri4_2_5_9: t2_5_9 - x2_5 - x2_9 - x5_9 >= -2
tri1_2_5_10: t2_5_10 - x2_5 <= 0
tri2_2_5_10: t2_5_10 - x2_10 <= 0
tri3_2_5_10: t2_5_10 - x5_10 <= 0
tri4_2_5_10: t2_5_10 - x2_5 - x2_10 - x5_10 >= -2
tri1_2_5_11: t2_5_11 - x2_5 <= 0
tri2_2_5_11: t2_5_11 - x2_11 <= 0
tri3_2_5_11: t2_5_11 - x5_11 <= 0
tri4_2_5_11: t2_5_11 - x2_5 - x2_11 - x5_11 >= -2
tri1_2_5_12: t2_5_12 - x2_5 <= 0
tri2_2_5_12: t2_5_12 - x2_12 <= 0
tri3_2_5_12: t2_5_12 - x5_12 <= 0
tri4_2_5_12: t2_5_12 - x2_5 - x2_12 - x5_12 >= -2
tri1_2_5_13: t2_5_13 - x2_5 <= 0
tri2_2_5_13: t2_5_13 - x2_13 <= 0
tri3_2_5_13: t2_5_13 - x5_13 <= 0
tri4_2_5_13: t2_5_13 - x2_5 - x2_13 - x5_13 >= -2
tri1_2_6_7: t2_6_7 - x2_6 <= 0
tri2_2_6_7: t2_6_7 - x2_7 <= 0
tri3_2_6_7: t2_6_7 - x6_7 <= 0
tri4_2_6_7: t2_6_7 - x2_6 - x2_7 - x6_7 >= -2
tri1_2_6_8: t2_6_8 - x2_6 <= 0
tri2_2_6_8: t2_6_8 - x2_8 <= 0
tri3_2_6_8: t2_6_8 - x6_8 <= 0
tri4_2_6_8: t2_6_8 - x2_6 - x2_8 - x6_8 >= -2
tri1_2_6_9: t2_6_9 - x2_6 <= 0
tri2_2_6_9: t2_6_9 - x2_9 <= 0
tri3_2_6_9: t2_6_9 - x6_9 <= 0
tri4_2_6_9: t2_6_9 - x2_6 - x2_9 - x6_9 >= -2
tri1_2_6_10: t2_6_10 - x2_6 <= 0
tri2_2_6_10: t2_6_10 - x2_10 <= 0
tri3_2_6_10: t2_6_10 - x6_10 <= 0
tri4_2_6_10: t2_6_10 - x2_6 - x2_10 - x6_10 >= -2
tri1_2_6_11: t2_6_11 - x2_6 <= 0
tri2_2_6_11: t2_6_11 - x2_11 <= 0
tri3_2_6_11: t2_6_11 - x6_11 <= 0
tri4_2_6_11: t2_6_11 - x2_6 - x2_11 - x6_11 >= -2
tri1_2_6_12: t2_6_12 - x2_6 <= 0
tri2_2_6_12: t2_6_12 - x2_12 <= 0
tri3_2_6_12: t2_6_12 - x6_12 <= 0
tri4_2_6_12: t2_6_12 - x2_6 - x2_12 - x6_12 >= -2
tri1_2_6_13: t2_6_13 - x2_6 <= 0
tri2_2_6_13: t2_6_13 - x2_13 <= 0
tri3_2_6_13: t2_6_13 - x6_13 <= 0
tri4_2_6_13: t2_6_13 - x2_6 - x2_13 - x6_13 >= -2
tri1_2_7_8: t2_7_8 - x2_7 <= 0
tri2_2_7_8: t2_7_8 - x2_8 <= 0
tri3_2_7_8: t2_7_8 - x7_8 <= 0
tri4_2_7_8: t2_7_8 - x2_7 - x2_8 - x7_8 >= -2
tri1_2_7_9: t2_7_9 - x2_7 <= 0
tri2_2_7_9: t2_7_9 - x2_9 <= 0
tri3_2_7_9: t2_7_9 - x7_9 <= 0
tri4_2_7_9: t2_7_9 - x2_7 - x2_9 - x7_9 >= -2
tri1_2_7_10: t2_7_10 - x2_7 <= 0
tri2_2_7_10: t2_7_10 - x2_10 <= 0
tri3_2_7_10: t2_7_10 - x7_10 <= 0
tri4_2_7_10: t2_7_10 - x2_7 - x2_10 - x7_10 >= -2
tri1_2_7_11: t2_7_11 - x2_7 <= 0
tri2_2_7_11: t2_7_11 - x2_11 <= 0
tri3_2_7_11: t2_7_11 - x7_11 <= 0
tri4_2_7_11: t2_7_11 - x2_7 - x2_11 - x7_11 >= -2
tri1_2_7_12: t2_7_12 - x2_7 <= 0
tri2_2_7_12: t2_7_12 - x2_12 <= 0
tri3_2_7_12: t2_7_12 - x7_12 <= 0
tri4_2_7_12: t2_7_12 - x2_7 - x2_12 - x7_12 >= -2
tri1_2_7_13: t2_7_13 - x2_7 <= 0
tri2_2_7_13: t2_7_13 - x2_13 <= 0
tri3_2_7_13: t2_7_13 - x7_13 <= 0
tri4_2_7_13: t2_7_13 - x2_7 - x2_13 - x7_13 >= -2
tri1_2_8_9: t2_8_9 - x2_8 <= 0
tri2_2_8_9: t2_8_9 - x2_9 <= 0
tri3_2_8_9: t2_8_9 - x8_9 <= 0
tri4_2_8_9: t2_8_9 - x2_8 - x2_9 - x8_9 >= -2
tri1_2_8_10: t2_8_10 - x2_8 <= 0
tri2_2_8_10: t2_8_10 - x2_10 <= 0
tri3_2_8_10: t2_8_10 - x8_10 <= 0
tri4_2_8_10: t2_8_10 - x2_8 - x2_10 - x8_10 >= -2
tri1_2_8_11: t2_8_11 - x2_8 <= 0
tri2_2_8_11: t2_8_11 - x2_11 <= 0
tri3_2_8_11: t2_8_11 - x8_11 <= 0
tri4_2_8_11: t2_8_11 - x2_8 - x2_11 - x8_11 >= -2
tri1_2_8_12: t2_8_12 - x2_8 <= 0
tri2_2_8_12: t2_8_12 - x2_12 <= 0
tri3_2_8_12: t2_8_12 - x8_12 <= 0
tri4_2_8_12: t2_8_12 - x2_8 - x2_12 - x8_12 >= -2
tri1_2_8_13: t2_8_13 - x2_8 <= 0
tri2_2_8_13: t2_8_13 - x2_13 <= 0
tri3_2_8_13: t2_8_13 - x8_13 <= 0
tri4_2_8_13: t2_8_13 - x2_8 - x2_13 - x8_13 >= -2
tri1_2_9_10: t2_9_10 - x2_9 <= 0
tri2_2_9_10: t2_9_10 - x2_10 <= 0
tri3_2_9_10: t2_9_10 - x9_10 <= 0
tri4_2_9_10: t2_9_10 - x2_9 - x2_10 - x9_10 >= -2
tri1_2_9_11: t2_9_11 - x2_9 <= 0
tri2_2_9_11: t2_9_11 - x2_11 <= 0
tri3_2_9_11: t2_9_11 - x9_11 <= 0
tri4_2_9_11: t2_9_11 - x2_9 - x2_11 - x9_11 >= -2
tri1_2_9_12: t2_9_12 - x2_9 <= 0
tri2_2_9_12: t2_9_12 - x2_12 <= 0
tri3_2_9_12: t2_9_12 - x9_12 <= 0
tri4_2_9_12: t2_9_12 - x2_9 - x2_12 - x9_12 >= -2
tri1_2_9_13: t2_9_13 - x2_9 <= 0
tri2_2_9_13: t2_9_13 - x2_13 <= 0
tri3_2_9_13: t2_9_13 - x9_13 <= 0
tri4_2_9_13: t2_9_13 - x2_9 - x2_13 - x9_13 >= -2
tri1_2_10_11: t2_10_11 - x2_10 <= 0
tri2_2_10_11: t2_10_11 - x2_11 <= 0
tri3_2_10_11: t2_10_11 - x10_11 <= 0
tri4_2_10_11: t2_10_11 - x2_10 - x2_11 - x10_11 >= -2
tri1_2_10_12: t2_10_12 - x2_10 <= 0
tri2_2_10_12: t2_10_12 - x2_12 <= 0
tri3_2_10_12: t2_10_12 - x10_12 <= 0
tri4_2_10_12: t2_10_12 - x2_10 - x2_12 - x10_12 >= -2
tri1_2_10_13: t2_10_13 - x2_10 <= 0
tri2_2_10_13: t2_10_13 - x2_13 <= 0
tri3_2_10_13: t2_10_13 - x10_13 <= 0
tri4_2_10_13: t2_10_13 - x2_10 - x2_13 - x10_13 >= -2
tri1_2_11_12: t2_11_12 - x2_11 <= 0
tri2_2_11_12: t2_11_12 - x2_12 <= 0
tri3_2_11_12: t2_11_12 - x11_12 <= 0
tri4_2_11_12: t2_11_12 - x2_11 - x2_12 - x11_12 >= -2
tri1_2_11_13: t2_11_13 - x2_11 <= 0
tri2_2_11_13: t2_11_13 - x2_13 <= 0
tri3_2_11_13: t2_11_13 - x11_13 <= 0
tri4_2_11_13: t2_11_13 - x2_11 - x2_13 - x11_13 >= -2
tri1_2_12_13: t2_12_13 - x2_12 <= 0
tri2_2_12_13: t2_12_13 - x2_13 <= 0
tri3_2_12_13: t2_12_13 - x12_13 <= 0
tri4_2_12_13: t2_12_13 - x2_12 - x2_13 - x12_13 >= -2
tri1_3_4_5: t3_4_5 - x3_4 <= 0
tri2_3_4_5: t3_4_5 - x3_5 <= 0
tri3_3_4_5: t3_4_5 - x4_5 <= 0
tri4_3_4_5: t3_4_5 - x3_4 - x3_5 - x4_5 >= -2
tri1_3_4_6: t3_4_6 - x3_4 <= 0
tri2_3_4_6: t3_4_6 - x3_6 <= 0
tri3_3_4_6: t3_4_6 - x4_6 <= 0
tri4_3_4_6: t3_4_6 - x3_4 - x3_6 - x4_6 >= -2
tri1_3_4_7: t3_4_7 - x3_4 <= 0
tri2_3_4_7: t3_4_7 - x3_7 <= 0
tri3_3_4_7: t3_4_7 - x4_7 <= 0
tri4_3_4_7: t3_4_7 - x3_4 - x3_7 - x4_7 >= -2
tri1_3_4_8: t3_4_8 - x3_4 <= 0
tri2_3_4_8: t3_4_8 - x3_8 <= 0
tri3_3_4_8: t3_4_8 - x4_8 <= 0
tri4_3_4_8: t3_4_8 - x3_4 - x3_8 - x4_8 >= -2
tri1_3_4_9: t3_4_9 - x3_4 <= 0
tri2_3_4_9: t3_4_9 - x3_9 <= 0
tri3_3_4_9: t3_4_9 - x4_9 <= 0
tri4_3_4_9: t3_4_9 - x3_4 - x3_9 - x4_9 >= -2
tri1_3_4_10: t3_4_10 - x3_4 <= 0
tri2_3_4_10: t3_4_10 - x3_10 <= 0
tri3_3_4_10: t3_4_10 - x4_10 <= 0
tri4_3_4_10: t3_4_10 - x3_4 - x3_10 - x4_10 >= -2
tri1_3_4_11: t3_4_11 - x3_4 <= 0
tri2_3_4_11: t3_4_11 - x3_11 <= 0
tri3_3_4_11: t3_4_11 - x4_11 <= 0
tri4_3_4_11: t3_4_11 - x3_4 - x3_11 - x4_11 >= -2
tri1_3_4_12: t3_4_12 - x3_4 <= 0
tri2_3_4_12: t3_4_12 - x3_12 <= 0
tri3_3_4_12: t3_4_12 - x4_12 <= 0
tri4_3_4_12: t3_4_12 - x3_4 - x3_12 - x4_12 >= -2
tri1_3_4_13: t3_4_13 - x3_4 <= 0
tri2_3_4_13: t3_4_13 - x3_13 <= 0
tri3_3_4_13: t3_4_13 - x4_13 <= 0
tri4_3_4_13: t3_4_13 - x3_4 - x3_13 - x4_13 >= -2
tri1_3_5_6: t3_5_6 - x3_5 <= 0
tri2_3_5_6: t3_5_6 - x3_6 <= 0
tri3_3_5_6: t3_5_6 - x5_6 <= 0
tri4_3_5_6: t3_5_6 - x3_5 - x3_6 - x5_6 >= -2
tri1_3_5_7: t3_5_7 - x3_5 <= 0
tri2_3_5_7: t3_5_7 - x3_7 <= 0
tri3_3_5_7: t3_5_7 - x5_7 <= 0
tri4_3_5_7: t3_5_7 - x3_5 - x3_7 - x5_7 >= -2
tri1_3_5_8: t3_5_8 - x3_5 <= 0
tri2_3_5_8: t3_5_8 - x3_8 <= 0
tri3_3_5_8: t3_5_8 - x5_8 <= 0
tri4_3_5_8: t3_5_8 - x3_5 - x3_8 - x5_8 >= -2
tri1_3_5_9: t3_5_9 - x3_5 <= 0
tri2_3_5_9: t3_5_9 - x3_9 <= 0
tri3_3_5_9: t3_5_9 - x5_9 <= 0
tri4_3_5_9: t3_5_9 - x3_5 - x3_9 - x5_9 >= -2
tri1_3_5_10: t3_5_10 - x3_5 <= 0
tri2_3_5_10: t3_5_10 - x3_10 <= 0
tri3_3_5_10: t3_5_10 - x5_10 <= 0
tri4_3_5_10: t3_5_10 - x3_5 - x3_10 - x5_10 >= -2
tri1_3_5_11: t3_5_11 - x3_5 <= 0
tri2_3_5_11: t3_5_11 - x3_11 <= 0
tri3_3_5_11: t3_5_11 - x5_11 <= 0
tri4_3_5_11: t3_5_11 - x3_5 - x3_11 - x5_11 >= -2
tri1_3_5_12: t3_5_12 - x3_5 <= 0
tri2_3_5_12: t3_5_12 - x3_12 <= 0
tri3_3_5_12: t3_5_12 - x5_12 <= 0
tri4_3_5_12: t3_5_12 - x3_5 - x3_12 - x5_12 >= -2
tri1_3_5_13: t3_5_13 - x3_5 <= 0
tri2_3_5_13: t3_5_13 - x3_13 <= 0
tri3_3_5_13: t3_5_13 - x5_13 <= 0
tri4_3_5_13: t3_5_13 - x3_5 - x3_13 - x5_13 >= -2
tri1_3_6_7: t3_6_7 - x3_6 <= 0
tri2_3_6_7: t3_6_7 - x3_7 <= 0
tri3_3_6_7: t3_6_7 - x6_7 <= 0
tri4_3_6_7: t3_6_7 - x3_6 - x3_7 - x6_7 >= -2
tri1_3_6_8: t3_6_8 - x3_6 <= 0
tri2_3_6_8: t3_6_8 - x3_8 <= 0
tri3_3_6_8: t3_6_8 - x6_8 <= 0
tri4_3_6_8: t3_6_8 - x3_6 - x3_8 - x6_8 >= -2
tri1_3_6_9: t3_6_9 - x3_6 <= 0
tri2_3_6_9: t3_6_9 - x3_9 <= 0
tri3_3_6_9: t3_6_9 - x6_9 <= 0
tri4_3_6_9: t3_6_9 - x3_6 - x3_9 - x6_9 >= -2
tri1_3_6_10: t3_6_10 - x3_6 <= 0
tri2_3_6_10: t3_6_10 - x3_10 <= 0
tri3_3_6_10: t3_6_10 - x6_10 <= 0
tri4_3_6_10: t3_6_10 - x3_6 - x3_10 - x6_10 >= -2
tri1_3_6_11: t3_6_11 - x3_6 <= 0
tri2_3_6_11: t3_6_11 - x3_11 <= 0
tri3_3_6_11: t3_6_11 - x6_11 <= 0
tri4_3_6_11: t3_6_11 - x3_6 - x3_11 - x6_11 >= -2
tri1_3_6_12: t3_6_12 - x3_6 <= 0
tri2_3_6_12: t3_6_12 - x3_12 <= 0
tri3_3_6_12: t3_6_12 - x6_12 <= 0
tri4_3_6_12: t3_6_12 - x3_6 - x3_12 - x6_12 >= -2
tri1_3_6_13: t3_6_13 - x3_6 <= 0
tri2_3_6_13: t3_6_13 - x3_13 <= 0
tri3_3_6_13: t3_6_13 - x6_13 <= 0
tri4_3_6_13: t3_6_13 - x3_6 - x3_13 - x6_13 >= -2
tri1_3_7_8: t3_7_8 - x3_7 <= 0
tri2_3_7_8: t3_7_8 - x3_8 <= 0
tri3_3_7_8: t3_7_8 - x7_8 <= 0
tri4_3_7_8: t3_7_8 - x3_7 - x3_8 - x7_8 >= -2
tri1_3_7_9: t3_7_9 - x3_7 <= 0
tri2_3_7_9: t3_7_9 - x3_9 <= 0
tri3_3_7_9: t3_7_9 - x7_9 <= 0
tri4_3_7_9: t3_7_9 - x3_7 - x3_9 - x7_9 >= -2
tri1_3_7_10: t3_7_10 - x3_7 <= 0
tri2_3_7_10: t3_7_10 - x3_10 <= 0
tri3_3_7_10: t3_7_10 - x7_10 <= 0
tri4_3_7_10: t3_7_10 - x3_7 - x3_10 - x7_10 >= -2
tri1_3_7_11: t3_7_11 - x3_7 <= 0
tri2_3_7_11: t3_7_11 - x3_11 <= 0
tri3_3_7_11: t3_7_11 - x7_11 <= 0
tri4_3_7_11: t3_7_11 - x3_7 - x3_11 - x7_11 >= -2
tri1_3_7_12: t3_7_12 - x3_7 <= 0
tri2_3_7_12: t3_7_12 - x3_12 <= 0
tri3_3_7_12: t3_7_12 - x7_12 <= 0
tri4_3_7_12: t3_7_12 - x3_7 - x3_12 - x7_12 >= -2
tri1_3_7_13: t3_7_13 - x3_7 <= 0
tri2_3_7_13: t3_7_13 - x3_13 <= 0
tri3_3_7_13: t3_7_13 - x7_13 <= 0
tri4_3_7_13: t3_7_13 - x3_7 - x3_13 - x7_13 >= -2
tri1_3_8_9: t3_8_9 - x3_8 <= 0
tri2_3_8_9: t3_8_9 - x3_9 <= 0
tri3_3_8_9: t3_8_9 - x8_9 <= 0
tri4_3_8_9: t3_8_9 - x3_8 - x3_9 - x8_9 >= -2
tri1_3_8_10: t3_8_10 - x3_8 <= 0
tri2_3_8_10: t3_8_10 - x3_10 <= 0
tri3_3_8_10: t3_8_10 - x8_10 <= 0
tri4_3_8_10: t3_8_10 - x3_8 - x3_10 - x8_10 >= -2
tri1_3_8_11: t3_8_11 - x3_8 <= 0
tri2_3_8_11: t3_8_11 - x3_11 <= 0
tri3_3_8_11: t3_8_11 - x8_11 <= 0
tri4_3_8_11: t3_8_11 - x3_8 - x3_11 - x8_11 >= -2
tri1_3_8_12: t3_8_12 - x3_8 <= 0
tri2_3_8_12: t3_8_12 - x3_12 <= 0
tri3_3_8_12: t3_8_12 - x8_12 <= 0
tri4_3_8_12: t3_8_12 - x3_8 - x3_12 - x8_12 >= -2
tri1_3_8_13: t3_8_13 - x3_8 <= 0
tri2_3_8_13: t3_8_13 - x3_13 <= 0
tri3_3_8_13: t3_8_13 - x8_13 <= 0
tri4_3_8_13: t3_8_13 - x3_8 - x3_13 - x8_13 >= -2
tri1_3_9_10: t3_9_10 - x3_9 <= 0
tri2_3_9_10: t3_9_10 - x3_10 <= 0
tri3_3_9_10: t3_9_10 - x9_10 <= 0
tri4_3_9_10: t3_9_10 - x3_9 - x3_10 - x9_10 >= -2
tri1_3_9_11: t3_9_11 - x3_9 <= 0
tri2_3_9_11: t3_9_11 - x3_11 <= 0
tri3_3_9_11: t3_9_11 - x9_11 <= 0
tri4_3_9_11: t3_9_11 - x3_9 - x3_11 - x9_11 >= -2
tri1_3_9_12: t3_9_12 - x3_9 <= 0
tri2_3_9_12: t3_9_12 - x3_12 <= 0
tri3_3_9_12: t3_9_12 - x9_12 <= 0
tri4_3_9_12: t3_9_12 - x3_9 - x3_12 - x9_12 >= -2
tri1_3_9_13: t3_9_13 - x3_9 <= 0
tri2_3_9_13: t3_9_13 - x3_13 <= 0
tri3_3_9_13: t3_9_13 - x9_13 <= 0
tri4_3_9_13: t3_9_13 - x3_9 - x3_13 - x9_13 >= -2
tri1_3_10_11: t3_10_11 - x3_10 <= 0
tri2_3_10_11: t3_10_11 - x3_11 <= 0
tri3_3_10_11: t3_10_11 - x10_11 <= 0
tri4_3_10_11: t3_10_11 - x3_10 - x3_11 - x10_11 >= -2
tri1_3_10_12: t3_10_12 - x3_10 <= 0
tri2_3_10_12: t3_10_12 - x3_12 <= 0
tri3_3_10_12: t3_10_12 - x10_12 <= 0
tri4_3_10_12: t3_10_12 - x3_10 - x3_12 - x10_12 >= -2
tri1_3_10_13: t3_10_13 - x3_10 <= 0
tri2_3_10_13: t3_10_13 - x3_13 <= 0
tri3_3_10_13: t3_10_13 - x10_13 <= 0
tri4_3_10_13: t3_10_13 - x3_10 - x3_13 - x10_13 >= -2
tri1_3_11_12: t3_11_12 - x3_11 <= 0
tri2_3_11_12: t3_11_12 - x3_12 <= 0
tri3_3_11_12: t3_11_12 - x11_12 <= 0
tri4_3_11_12: t3_11_12 - x3_11 - x3_12 - x11_12 >= -2
tri1_3_11_13: t3_11_13 - x3_11 <= 0
tri2_3_11_13: t3_11_13 - x3_13 <= 0
tri3_3_11_13: t3_11_13 - x11_13 <= 0
tri4_3_11_13: t3_11_13 - x3_11 - x3_13 - x11_13 >= -2
tri1_3_12_13: t3_12_13 - x3_12 <= 0
tri2_3_12_13: t3_12_13 - x3_13 <= 0
tri3_3_12_13: t3_12_13 - x12_13 <= 0
tri4_3_12_13: t3_12_13 - x3_12 - x3_13 - x12_13 >= -2
tri1_4_5_6: t4_5_6 - x4_5 <= 0
tri2_4_5_6: t4_5_6 - x4_6 <= 0
tri3_4_5_6: t4_5_6 - x5_6 <= 0
tri4_4_5_6: t4_5_6 - x4_5 - x4_6 - x5_6 >= -2
tri1_4_5_7: t4_5_7 - x4_5 <= 0
tri2_4_5_7: t4_5_7 - x4_7 <= 0
tri3_4_5_7: t4_5_7 - x5_7 <= 0
tri4_4_5_7: t4_5_7 - x4_5 - x4_7 - x5_7 >= -2
tri1_4_5_8: t4_5_8 - x4_5 <= 0
tri2_4_5_8: t4_5_8 - x4_8 <= 0
tri3_4_5_8: t4_5_8 - x5_8 <= 0
tri4_4_5_8: t4_5_8 - x4_5 - x4_8 - x5_8 >= -2
tri1_4_5_9: t4_5_9 - x4_5 <= 0
tri2_4_5_9: t4_5_9 - x4_9 <= 0
tri3_4_5_9: t4_5_9 - x5_9 <= 0
tri4_4_5_9: t4_5_9 - x4_5 - x4_9 - x5_9 >= -2
tri1_4_5_10: t4_5_10 - x4_5 <= 0
tri2_4_5_10: t4_5_10 - x4_10 <= 0
tri3_4_5_10: t4_5_10 - x5_10 <= 0
tri4_4_5_10: t4_5_10 - x4_5 - x4_10 - x5_10 >= -2
tri1_4_5_11: t4_5_11 - x4_5 <= 0
tri2_4_5_11: t4_5_11 - x4_11 <= 0
tri3_4_5_11: t4_5_11 - x5_11 <= 0
tri4_4_5_11: t4_5_11 - x4_5 - x4_11 - x5_11 >= -2
tri1_4_5_12: t4_5_12 - x4_5 <= 0
tri2_4_5_12: t4_5_12 - x4_12 <= 0
tri3_4_5_12: t4_5_12 - x5_12 <= 0
tri4_4_5_12: t4_5_12 - x4_5 - x4_12 - x5_12 >= -2
tri1_4_5_13: t4_5_13 - x4_5 <= 0
tri2_4_5_13: t4_5_13 - x4_13 <= 0
tri3_4_5_13: t4_5_13 - x5_13 <= 0
tri4_4_5_13: t4_5_13 - x4_5 - x4_13 - x5_13 >= -2
tri1_4_6_7: t4_6_7 - x4_6 <= 0
tri2_4_6_7: t4_6_7 - x4_7 <= 0
tri3_4_6_7: t4_6_7 - x6_7 <= 0
tri4_4_6_7: t4_6_7 - x4_6 - x4_7 - x6_7 >= -2
tri1_4_6_8: t4_6_8 - x4_6 <= 0
tri2_4_6_8: t4_6_8 - x4_8 <= 0
tri3_4_6_8: t4_6_8 - x6_8 <= 0
tri4_4_6_8: t4_6_8 - x4_6 - x4_8 - x6_8 >= -2
tri1_4_6_9: t4_6_9 - x4_6 <= 0
tri2_4_6_9: t4_6_9 - x4_9 <= 0
tri3_4_6_9: t4_6_9 - x6_9 <= 0
tri4_4_6_9: t4_6_9 - x4_6 - x4_9 - x6_9 >= -2
tri1_4_6_10: t4_6_10 - x4_6 <= 0
tri2_4_6_10: t4_6_10 - x4_10 <= 0
tri3_4_6_10: t4_6_10 - x6_10 <= 0
tri4_4_6_10: t4_6_10 - x4_6 - x4_10 - x6_10 >= -2
tri1_4_6_11: t4_6_11 - x4_6 <= 0
tri2_4_6_11: t4_6_11 - x4_11 <= 0
tri3_4_6_11: t4_6_11 - x6_11 <= 0
tri4_4_6_11: t4_6_11 - x4_6 - x4_11 - x6_11 >= -2
tri1_4_6_12: t4_6_12 - x4_6 <= 0
tri2_4_6_12: t4_6_12 - x4_12 <= 0
tri3_4_6_12: t4_6_12 - x6_12 <= 0
tri4_4_6_12: t4_6_12 - x4_6 - x4_12 - x6_12 >= -2
tri1_4_6_13: t4_6_13 - x4_6 <= 0
tri2_4_6_13: t4_6_13 - x4_13 <= 0
tri3_4_6_13: t4_6_13 - x6_13 <= 0
tri4_4_6_13: t4_6_13 - x4_6 - x4_13 - x6_13 >= -2
tri1_4_7_8: t4_7_8 - x4_7 <= 0
tri2_4_7_8: t4_7_8 - x4_8 <= 0
tri3_4_7_8: t4_7_8 - x7_8 <= 0
tri4_4_7_8: t4_7_8 - x4_7 - x4_8 - x7_8 >= -2
tri1_4_7_9: t4_7_9 - x4_7 <= 0
tri2_4_7_9: t4_7_9 - x4_9 <= 0
tri3_4_7_9: t4_7_9 - x7_9 <= 0
tri4_4_7_9: t4_7_9 - x4_7 - x4_9 - x7_9 >= -2
tri1_4_7_10: t4_7_10 - x4_7 <= 0
tri2_4_7_10: t4_7_10 - x4_10 <= 0
tri3_4_7_10: t4_7_10 - x7_10 <= 0
tri4_4_7_10: t4_7_10 - x4_7 - x4_10 - x7_10 >= -2
tri1_4_7_11: t4_7_11 - x4_7 <= 0
tri2_4_7_11: t4_7_11 - x4_11 <= 0
tri3_4_7_11: t4_7_11 - x7_11 <= 0
tri4_4_7_11: t4_7_11 - x4_7 - x4_11 - x7_11 >= -2
tri1_4_7_12: t4_7_12 - x4_7 <= 0
tri2_4_7_12: t4_7_12 - x4_12 <= 0
tri3_4_7_12: t4_7_12 - x7_12 <= 0
tri4_4_7_12: t4_7_12 - x4_7 - x4_12 - x7_12 >= -2
tri1_4_7_13: t4_7_13 - x4_7 <= 0
tri2_4_7_13: t4_7_13 - x4_13 <= 0
tri3_4_7_13: t4_7_13 - x7_13 <= 0
tri4_4_7_13: t4_7_13 - x4_7 - x4_13 - x7_13 >= -2
tri1_4_8_9: t4_8_9 - x4_8 <= 0
tri2_4_8_9: t4_8_9 - x4_9 <= 0
tri3_4_8_9: t4_8_9 - x8_9 <= 0
tri4_4_8_9: t4_8_9 - x4_8 - x4_9 - x8_9 >= -2
tri1_4_8_10: t4_8_10 - x4_8 <= 0
tri2_4_8_10: t4_8_10 - x4_10 <= 0
tri3_4_8_10: t4_8_10 - x8_10 <= 0
tri4_4_8_10: t4_8_10 - x4_8 - x4_10 - x8_10 >= -2
tri1_4_8_11: t4_8_11 - x4_8 <= 0
tri2_4_8_11: t4_8_11 - x4_11 <= 0
tri3_4_8_11: t4_8_11 - x8_11 <= 0
tri4_4_8_11: t4_8_11 - x4_8 - x4_11 - x8_11 >= -2
tri1_4_8_12: t4_8_12 - x4_8 <= 0
tri2_4_8_12: t4_8_12 - x4_12 <= 0
tri3_4_8_12: t4_8_12 - x8_12 <= 0
tri4_4_8_12: t4_8_12 - x4_8 - x4_12 - x8_12 >= -2
tri1_4_8_13: t4_8_13 - x4_8 <= 0
tri2_4_8_13: t4_8_13 - x4_13 <= 0
tri3_4_8_13: t4_8_13 - x8_13 <= 0
tri4_4_8_13: t4_8_13 - x4_8 - x4_13 - x8_13 >= -2
tri1_4_9_10: t4_9_10 - x4_9 <= 0
tri2_4_9_10: t4_9_10 - x4_10 <= 0
tri3_4_9_10: t4_9_10 - x9_10 <= 0
tri4_4_9_10: t4_9_10 - x4_9 - x4_10 - x9_10 >= -2
tri1_4_9_11: t4_9_11 - x4_9 <= 0
tri2_4_9_11: t4_9_11 - x4_11 <= 0
tri3_4_9_11: t4_9_11 - x9_11 <= 0
tri4_4_9_11: t4_9_11 - x4_9 - x4_11 - x9_11 >= -2
tri1_4_9_12: t4_9_12 - x4_9 <= 0
tri2_4_9_12: t4_9_12 - x4_12 <= 0
tri3_4_9_12: t4_9_12 - x9_12 <= 0
tri4_4_9_12: t4_9_12 - x4_9 - x4_12 - x9_12 >= -2
tri1_4_9_13: t4_9_13 - x4_9 <= 0
tri2_4_9_13: t4_9_13 - x4_13 <= 0
tri3_4_9_13: t4_9_13 - x9_13 <= 0
tri4_4_9_13: t4_9_13 - x4_9 - x4_13 - x9_13 >= -2
tri1_4_10_11: t4_10_11 - x4_10 <= 0
tri2_4_10_11: t4_10_11 - x4_11 <= 0
tri3_4_10_11: t4_10_11 - x10_11 <= 0
tri4_4_10_11: t4_10_11 - x4_10 - x4_11 - x10_11 >= -2
tri1_4_10_12: t4_10_12 - x4_10 <= 0
tri2_4_10_12: t4_10_12 - x4_12 <= 0
tri3_4_10_12: t4_10_12 - x10_12 <= 0
tri4_4_10_12: t4_10_12 - x4_10 - x4_12 - x10_12 >= -2
tri1_4_10_13: t4_10_13 - x4_10 <= 0
tri2_4_10_13: t4_10_13 - x4_13 <= 0
tri3_4_10_13: t4_10_13 - x10_13 <= 0
tri4_4_10_13: t4_10_13 - x4_10 - x4_13 - x10_13 >= -2
tri1_4_11_12: t4_11_12 - x4_11 <= 0
tri2_4_11_12: t4_11_12 - x4_12 <= 0
tri3_4_11_12: t4_11_12 - x11_12 <= 0
tri4_4_11_12: t4_11_12 - x4_11 - x4_12 - x11_12 >= -2
tri1_4_11_13: t4_11_13 - x4_11 <= 0
tri2_4_11_13: t4_11_13 - x4_13 <= 0
tri3_4_11_13: t4_11_13 - x11_13 <= 0
tri4_4_11_13: t4_11_13 - x4_11 - x4_13 - x11_13 >= -2
tri1_4_12_13: t4_12_13 - x4_12 <= 0
tri2_4_12_13: t4_12_13 - x4_13 <= 0
tri3_4_12_13: t4_12_13 - x12_13 <= 0
tri4_4_12_13: t4_12_13 - x4_12 - x4_13 - x12_13 >= -2
tri1_5_6_7: t5_6_7 - x5_6 <= 0
tri2_5_6_7: t5_6_7 - x5_7 <= 0
tri3_5_6_7: t5_6_7 - x6_7 <= 0
tri4_5_6_7: t5_6_7 - x5_6 - x5_7 - x6_7 >= -2
tri1_5_6_8: t5_6_8 - x5_6 <= 0
tri2_5_6_8: t5_6_8 - x5_8 <= 0
tri3_5_6_8: t5_6_8 - x6_8 <= 0
tri4_5_6_8: t5_6_8 - x5_6 - x5_8 - x6_8 >= -2
tri1_5_6_9: t5_6_9 - x5_6 <= 0
tri2_5_6_9: t5_6_9 - x5_9 <= 0
tri3_5_6_9: t5_6_9 - x6_9 <= 0
tri4_5_6_9: t5_6_9 - x5_6 - x5_9 - x6_9 >= -2
tri1_5_6_10: t5_6_10 - x5_6 <= 0
tri2_5_6_10: t5_6_10 - x5_10 <= 0
tri3_5_6_10: t5_6_10 - x6_10 <= 0
tri4_5_6_10: t5_6_10 - x5_6 - x5_10 - x6_10 >= -2
tri1_5_6_11: t5_6_11 - x5_6 <= 0
tri2_5_6_11: t5_6_11 - x5_11 <= 0
tri3_5_6_11: t5_6_11 - x6_11 <= 0
tri4_5_6_11: t5_6_11 - x5_6 - x5_11 - x6_11 >= -2
tri1_5_6_12: t5_6_12 - x5_6 <= 0
tri2_5_6_12: t5_6_12 - x5_12 <= 0
tri3_5_6_12: t5_6_12 - x6_12 <= 0
tri4_5_6_12: t5_6_12 - x5_6 - x5_12 - x6_12 >= -2
tri1_5_6_13: t5_6_13 - x5_6 <= 0
tri2_5_6_13: t5_6_13 - x5_13 <= 0
tri3_5_6_13: t5_6_13 - x6_13 <= 0
tri4_5_6_13: t5_6_13 - x5_6 - x5_13 - x6_13 >= -2
tri1_5_7_8: t5_7_8 - x5_7 <= 0
tri2_5_7_8: t5_7_8 - x5_8 <= 0
tri3_5_7_8: t5_7_8 - x7_8 <= 0
tri4_5_7_8: t5_7_8 - x5_7 - x5_8 - x7_8 >= -2
tri1_5_7_9: t5_7_9 - x5_7 <= 0
tri2_5_7_9: t5_7_9 - x5_9 <= 0
tri3_5_7_9: t5_7_9 - x7_9 <= 0
tri4_5_7_9: t5_7_9 - x5_7 - x5_9 - x7_9 >= -2
tri1_5_7_10: t5_7_10 - x5_7 <= 0
tri2_5_7_10: t5_7_10 - x5_10 <= 0
tri3_5_7_10: t5_7_10 - x7_10 <= 0
tri4_5_7_10: t5_7_10 - x5_7 - x5_10 - x7_10 >= -2
tri1_5_7_11: t5_7_11 - x5_7 <= 0
tri2_5_7_11: t5_7_11 - x5_11 <= 0
tri3_5_7_11: t5_7_11 - x7_11 <= 0
tri4_5_7_11: t5_7_11 - x5_7 - x5_11 - x7_11 >= -2
tri1_5_7_12: t5_7_12 - x5_7 <= 0
tri2_5_7_12: t5_7_12 - x5_12 <= 0
tri3_5_7_12: t5_7_12 - x7_12 <= 0
tri4_5_7_12: t5_7_12 - x5_7 - x5_12 - x7_12 >= -2
tri1_5_7_13: t5_7_13 - x5_7 <= 0
tri2_5_7_13: t5_7_13 - x5_13 <= 0
tri3_5_7_13: t5_7_13 - x7_13 <= 0
tri4_5_7_13: t5_7_13 - x5_7 - x5_13 - x7_13 >= -2
tri1_5_8_9: t5_8_9 - x5_8 <= 0
tri2_5_8_9: t5_8_9 - x5_9 <= 0
tri3_5_8_9: t5_8_9 - x8_9 <= 0
tri4_5_8_9: t5_8_9 - x5_8 - x5_9 - x8_9 >= -2
tri1_5_8_10: t5_8_10 - x5_8 <= 0
tri2_5_8_10: t5_8_10 - x5_10 <= 0
tri3_5_8_10: t5_8_10 - x8_10 <= 0
tri4_5_8_10: t5_8_10 - x5_8 - x5_10 - x8_10 >= -2
tri1_5_8_11: t5_8_11 - x5_8 <= 0
tri2_5_8_11: t5_8_11 - x5_11 <= 0
tri3_5_8_11: t5_8_11 - x8_11 <= 0
tri4_5_8_11: t5_8_11 - x5_8 - x5_11 - x8_11 >= -2
tri1_5_8_12: t5_8_12 - x5_8 <= 0
tri2_5_8_12: t5_8_12 - x5_12 <= 0
tri3_5_8_12: t5_8_12 - x8_12 <= 0
tri4_5_8_12: t5_8_12 - x5_8 - x5_12 - x8_12 >= -2
tri1_5_8_13: t5_8_13 - x5_8 <= 0
tri2_5_8_13: t5_8_13 - x5_13 <= 0
tri3_5_8_13: t5_8_13 - x8_13 <= 0
tri4_5_8_13: t5_8_13 - x5_8 - x5_13 - x8_13 >= -2
tri1_5_9_10: t5_9_10 - x5_9 <= 0
tri2_5_9_10: t5_9_10 - x5_10 <= 0
tri3_5_9_10: t5_9_10 - x9_10 <= 0
tri4_5_9_10: t5_9_10 - x5_9 - x5_10 - x9_10 >= -2
tri1_5_9_11: t5_9_11 - x5_9 <= 0
tri2_5_9_11: t5_9_11 - x5_11 <= 0
tri3_5_9_11: t5_9_11 - x9_11 <= 0
tri4_5_9_11: t5_9_11 - x5_9 - x5_11 - x9_11 >= -2
tri1_5_9_12: t5_9_12 - x5_9 <= 0
tri2_5_9_12: t5_9_12 - x5_12 <= 0
tri3_5_9_12: t5_9_12 - x9_12 <= 0
tri4_5_9_12: t5_9_12 - x5_9 - x5_12 - x9_12 >= -2
tri1_5_9_13: t5_9_13 - x5_9 <= 0
tri2_5_9_13: t5_9_13 - x5_13 <= 0
tri3_5_9_13: t5_9_13 - x9_13 <= 0
tri4_5_9_13: t5_9_13 - x5_9 - x5_13 - x9_13 >= -2
tri1_5_10_11: t5_10_11 - x5_10 <= 0
tri2_5_10_11: t5_10_11 - x5_11 <= 0
tri3_5_10_11: t5_10_11 - x10_11 <= 0
tri4_5_10_11: t5_10_11 - x5_10 - x5_11 - x10_11 >= -2
tri1_5_10_12: t5_10_12 - x5_10 <= 0
tri2_5_10_12: t5_10_12 - x5_12 <= 0
tri3_5_10_12: t5_10_12 - x10_12 <= 0
tri4_5_10_12: t5_10_12 - x5_10 - x5_12 - x10_12 >= -2
tri1_5_10_13: t5_10_13 - x5_10 <= 0
tri2_5_10_13: t5_10_13 - x5_13 <= 0
tri3_5_10_13: t5_10_13 - x10_13 <= 0
tri4_5_10_13: t5_10_13 - x5_10 - x5_13 - x10_13 >= -2
tri1_5_11_12: t5_11_12 - x5_11 <= 0
tri2_5_11_12: t5_11_12 - x5_12 <= 0
tri3_5_11_12: t5_11_12 - x11_12 <= 0
tri4_5_11_12: t5_11_12 - x5_11 - x5_12 - x11_12 >= -2
tri1_5_11_13: t5_11_13 - x5_11 <= 0
tri2_5_11_13: t5_11_13 - x5_13 <= 0
tri3_5_11_13: t5_11_13 - x11_13 <= 0
tri4_5_11_13: t5_11_13 - x5_11 - x5_13 - x11_13 >= -2
tri1_5_12_13: t5_12_13 - x5_12 <= 0
tri2_5_12_13: t5_12_13 - x5_13 <= 0
tri3_5_12_13: t5_12_13 - x12_13 <= 0
tri4_5_12_13: t5_12_13 - x5_12 - x5_13 - x12_13 >= -2
tri1_6_7_8: t6_7_8 - x6_7 <= 0
tri2_6_7_8: t6_7_8 - x6_8 <= 0
tri3_6_7_8: t6_7_8 - x7_8 <= 0
tri4_6_7_8: t6_7_8 - x6_7 - x6_8 - x7_8 >= -2
tri1_6_7_9: t6_7_9 - x6_7 <= 0
tri2_6_7_9: t6_7_9 - x6_9 <= 0
tri3_6_7_9: t6_7_9 - x7_9 <= 0
tri4_6_7_9: t6_7_9 - x6_7 - x6_9 - x7_9 >= -2
tri1_6_7_10: t6_7_10 - x6_7 <= 0
tri2_6_7_10: t6_7_10 - x6_10 <= 0
tri3_6_7_10: t6_7_10 - x7_10 <= 0
tri4_6_7_10: t6_7_10 - x6_7 - x6_10 - x7_10 >= -2
tri1_6_7_11: t6_7_11 - x6_7 <= 0
tri2_6_7_11: t6_7_11 - x6_11 <= 0
tri3_6_7_11: t6_7_11 - x7_11 <= 0
tri4_6_7_11: t6_7_11 - x6_7 - x6_11 - x7_11 >= -2
tri1_6_7_12: t6_7_12 - x6_7 <= 0
tri2_6_7_12: t6_7_12 - x6_12 <= 0
tri3_6_7_12: t6_7_12 - x7_12 <= 0
tri4_6_7_12: t6_7_12 - x6_7 - x6_12 - x7_12 >= -2
tri1_6_7_13: t6_7_13 - x6_7 <= 0
tri2_6_7_13: t6_7_13 - x6_13 <= 0
tri3_6_7_13: t6_7_13 - x7_13 <= 0
tri4_6_7_13: t6_7_13 - x6_7 - x6_13 - x7_13 >= -2
tri1_6_8_9: t6_8_9 - x6_8 <= 0
tri2_6_8_9: t6_8_9 - x6_9 <= 0
tri3_6_8_9: t6_8_9 - x8_9 <= 0
tri4_6_8_9: t6_8_9 - x6_8 - x6_9 - x8_9 >= -2
tri1_6_8_10: t6_8_10 - x6_8 <= 0
tri2_6_8_10: t6_8_10 - x6_10 <= 0
tri3_6_8_10: t6_8_10 - x8_10 <= 0
tri4_6_8_10: t6_8_10 - x6_8 - x6_10 - x8_10 >= -2
tri1_6_8_11: t6_8_11 - x6_8 <= 0
tri2_6_8_11: t6_8_11 - x6_11 <= 0
tri3_6_8_11: t6_8_11 - x8_11 <= 0
tri4_6_8_11: t6_8_11 - x6_8 - x6_11 - x8_11 >= -2
tri1_6_8_12: t6_8_12 - x6_8 <= 0
tri2_6_8_12: t6_8_12 - x6_12 <= 0
tri3_6_8_12: t6_8_12 - x8_12 <= 0
tri4_6_8_12: t6_8_12 - x6_8 - x6_12 - x8_12 >= -2
tri1_6_8_13: t6_8_13 - x6_8 <= 0
tri2_6_8_13: t6_8_13 - x6_13 <= 0
tri3_6_8_13: t6_8_13 - x8_13 <= 0
tri4_6_8_13: t6_8_13 - x6_8 - x6_13 - x8_13 >= -2
tri1_6_9_10: t6_9_10 - x6_9 <= 0
tri2_6_9_10: t6_9_10 - x6_10 <= 0
tri3_6_9_10: t6_9_10 - x9_10 <= 0
tri4_6_9_10: t6_9_10 - x6_9 - x6_10 - x9_10 >= -2
tri1_6_9_11: t6_9_11 - x6_9 <= 0
tri2_6_9_11: t6_9_11 - x6_11 <= 0
tri3_6_9_11: t6_9_11 - x9_11 <= 0
tri4_6_9_11: t6_9_11 - x6_9 - x6_11 - x9_11 >= -2
tri1_6_9_12: t6_9_12 - x6_9 <= 0
tri2_6_9_12: t6_9_12 - x6_12 <= 0
tri3_6_9_12: t6_9_12 - x9_12 <= 0
tri4_6_9_12: t6_9_12 - x6_9 - x6_12 - x9_12 >= -2
tri1_6_9_13: t6_9_13 - x6_9 <= 0
tri2_6_9_13: t6_9_13 - x6_13 <= 0
tri3_6_9_13: t6_9_13 - x9_13 <= 0
tri4_6_9_13: t6_9_13 - x6_9 - x6_13 - x9_13 >= -2
tri1_6_10_11: t6_10_11 - x6_10 <= 0
tri2_6_10_11: t6_10_11 - x6_11 <= 0
tri3_6_10_11: t6_10_11 - x10_11 <= 0
tri4_6_10_11: t6_10_11 - x6_10 - x6_11 - x10_11 >= -2
tri1_6_10_12: t6_10_12 - x6_10 <= 0
tri2_6_10_12: t6_10_12 - x6_12 <= 0
tri3_6_10_12: t6_10_12 - x10_12 <= 0
tri4_6_10_12: t6_10_12 - x6_10 - x6_12 - x10_12 >= -2
tri1_6_10_13: t6_10_13 - x6_10 <= 0
tri2_6_10_13: t6_10_13 - x6_13 <= 0
tri3_6_10_13: t6_10_13 - x10_13 <= 0
tri4_6_10_13: t6_10_13 - x6_10 - x6_13 - x10_13 >= -2
tri1_6_11_12: t6_11_12 - x6_11 <= 0
tri2_6_11_12: t6_11_12 - x6_12 <= 0
tri3_6_11_12: t6_11_12 - x11_12 <= 0
tri4_6_11_12: t6_11_12 - x6_11 - x6_12 - x11_12 >= -2
tri1_6_11_13: t6_11_13 - x6_11 <= 0
tri2_6_11_13: t6_11_13 - x6_13 <= 0
tri3_6_11_13: t6_11_13 - x11_13 <= 0
tri4_6_11_13: t6_11_13 - x6_11 - x6_13 - x11_13 >= -2
tri1_6_12_13: t6_12_13 - x6_12 <= 0
tri2_6_12_13: t6_12_13 - x6_13 <= 0
tri3_6_12_13: t6_12_13 - x12_13 <= 0
tri4_6_12_13: t6_12_13 - x6_12 - x6_13 - x12_13 >= -2
tri1_7_8_9: t7_8_9 - x7_8 <= 0
tri2_7_8_9: t7_8_9 - x7_9 <= 0
tri3_7_8_9: t7_8_9 - x8_9 <= 0
tri4_7_8_9: t7_8_9 - x7_8 - x7_9 - x8_9 >= -2
tri1_7_8_10: t7_8_10 - x7_8 <= 0
tri2_7_8_10: t7_8_10 - x7_10 <= 0
tri3_7_8_10: t7_8_10 - x8_10 <= 0
tri4_7_8_10: t7_8_10 - x7_8 - x7_10 - x8_10 >= -2
tri1_7_8_11: t7_8_11 - x7_8 <= 0
tri2_7_8_11: t7_8_11 - x7_11 <= 0
tri3_7_8_11: t7_8_11 - x8_11 <= 0
tri4_7_8_11: t7_8_11 - x7_8 - x7_11 - x8_11 >= -2
tri1_7_8_12: t7_8_12 - x7_8 <= 0
tri2_7_8_12: t7_8_12 - x7_12 <= 0
tri3_7_8_12: t7_8_12 - x8_12 <= 0
tri4_7_8_12: t7_8_12 - x7_8 - x7_12 - x8_12 >= -2
tri1_7_8_13: t7_8_13 - x7_8 <= 0
tri2_7_8_13: t7_8_13 - x7_13 <= 0
tri3_7_8_13: t7_8_13 - x8_13 <= 0
tri4_7_8_13: t7_8_13 - x7_8 - x7_13 - x8_13 >= -2
tri1_7_9_10: t7_9_10 - x7_9 <= 0
tri2_7_9_10: t7_9_10 - x7_10 <= 0
tri3_7_9_10: t7_9_10 - x9_10 <= 0
tri4_7_9_10: t7_9_10 - x7_9 - x7_10 - x9_10 >= -2
tri1_7_9_11: t7_9_11 - x7_9 <= 0
tri2_7_9_11: t7_9_11 - x7_11 <= 0
tri3_7_9_11: t7_9_11 - x9_11 <= 0
tri4_7_9_11: t7_9_11 - x7_9 - x7_11 - x9_11 >= -2
tri1_7_9_12: t7_9_12 - x7_9 <= 0
tri2_7_9_12: t7_9_12 - x7_12 <= 0
tri3_7_9_12: t7_9_12 - x9_12 <= 0
tri4_7_9_12: t7_9_12 - x7_9 - x7_12 - x9_12 >= -2
tri1_7_9_13: t7_9_13 - x7_9 <= 0
tri2_7_9_13: t7_9_13 - x7_13 <= 0
tri3_7_9_13: t7_9_13 - x9_13 <= 0
tri4_7_9_13: t7_9_13 - x7_9 - x7_13 - x9_13 >= -2
tri1_7_10_11: t7_10_11 - x7_10 <= 0
tri2_7_10_11: t7_10_11 - x7_11 <= 0
tri3_7_10_11: t7_10_11 - x10_11 <= 0
tri4_7_10_11: t7_10_11 - x7_10 - x7_11 - x10_11 >= -2
tri1_7_10_12: t7_10_12 - x7_10 <= 0
tri2_7_10_12: t7_10_12 - x7_12 <= 0
tri3_7_10_12: t7_10_12 - x10_12 <= 0
tri4_7_10_12: t7_10_12 - x7_10 - x7_12 - x10_12 >= -2
tri1_7_10_13: t7_10_13 - x7_10 <= 0
tri2_7_10_13: t7_10_13 - x7_13 <= 0
tri3_7_10_13: t7_10_13 - x10_13 <= 0
tri4_7_10_13: t7_10_13 - x7_10 - x7_13 - x10_13 >= -2
tri1_7_11_12: t7_11_12 - x7_11 <= 0
tri2_7_11_12: t7_11_12 - x7_12 <= 0
tri3_7_11_12: t7_11_12 - x11_12 <= 0
tri4_7_11_12: t7_11_12 - x7_11 - x7_12 - x11_12 >= -2
tri1_7_11_13: t7_11_13 - x7_11 <= 0
tri2_7_11_13: t7_11_13 - x7_13 <= 0
tri3_7_11_13: t7_11_13 - x11_13 <= 0
tri4_7_11_13: t7_11_13 - x7_11 - x7_13 - x11_13 >= -2
tri1_7_12_13: t7_12_13 - x7_12 <= 0
tri2_7_12_13: t7_12_13 - x7_13 <= 0
tri3_7_12_13: t7_12_13 - x12_13 <= 0
tri4_7_12_13: t7_12_13 - x7_12 - x7_13 - x12_13 >= -2
tri1_8_9_10: t8_9_10 - x8_9 <= 0
tri2_8_9_10: t8_9_10 - x8_10 <= 0
tri3_8_9_10: t8_9_10 - x9_10 <= 0
tri4_8_9_10: t8_9_10 - x8_9 - x8_10 - x9_10 >= -2
tri1_8_9_11: t8_9_11 - x8_9 <= 0
tri2_8_9_11: t8_9_11 - x8_11 <= 0
tri3_8_9_11: t8_9_11 - x9_11 <= 0
tri4_8_9_11: t8_9_11 - x8_9 - x8_11 - x9_11 >= -2
tri1_8_9_12: t8_9_12 - x8_9 <= 0
tri2_8_9_12: t8_9_12 - x8_12 <= 0
tri3_8_9_12: t8_9_12 - x9_12 <= 0
tri4_8_9_12: t8_9_12 - x8_9 - x8_12 - x9_12 >= -2
tri1_8_9_13: t8_9_13 - x8_9 <= 0
tri2_8_9_13: t8_9_13 - x8_13 <= 0
tri3_8_9_13: t8_9_13 - x9_13 <= 0
tri4_8_9_13: t8_9_13 - x8_9 - x8_13 - x9_13 >= -2
tri1_8_10_11: t8_10_11 - x8_10 <= 0
tri2_8_10_11: t8_10_11 - x8_11 <= 0
tri3_8_10_11: t8_10_11 - x10_11 <= 0
tri4_8_10_11: t8_10_11 - x8_10 - x8_11 - x10_11 >= -2
tri1_8_10_12: t8_10_12 - x8_10 <= 0
tri2_8_10_12: t8_10_12 - x8_12 <= 0
tri3_8_10_12: t8_10_12 - x10_12 <= 0
tri4_8_10_12: t8_10_12 - x8_10 - x8_12 - x10_12 >= -2
tri1_8_10_13: t8_10_13 - x8_10 <= 0
tri2_8_10_13: t8_10_13 - x8_13 <= 0
tri3_8_10_13: t8_10_13 - x10_13 <= 0
tri4_8_10_13: t8_10_13 - x8_10 - x8_13 - x10_13 >= -2
tri1_8_11_12: t8_11_12 - x8_11 <= 0
tri2_8_11_12: t8_11_12 - x8_12 <= 0
tri3_8_11_12: t8_11_12 - x11_12 <= 0
tri4_8_11_12: t8_11_12 - x8_11 - x8_12 - x11_12 >= -2
tri1_8_11_13: t8_11_13 - x8_11 <= 0
tri2_8_11_13: t8_11_13 - x8_13 <= 0
tri3_8_11_13: t8_11_13 - x11_13 <= 0
tri4_8_11_13: t8_11_13 - x8_11 - x8_13 - x11_13 >= -2
tri1_8_12_13: t8_12_13 - x8_12 <= 0
tri2_8_12_13: t8_12_13 - x8_13 <= 0
tri3_8_12_13: t8_12_13 - x12_13 <= 0
tri4_8_12_13: t8_12_13 - x8_12 - x8_13 - x12_13 >= -2
tri1_9_10_11: t9_10_11 - x9_10 <= 0
tri2_9_10_11: t9_10_11 - x9_11 <= 0
tri3_9_10_11: t9_10_11 - x10_11 <= 0
tri4_9_10_11: t9_10_11 - x9_10 - x9_11 - x10_11 >= -2
tri1_9_10_12: t9_10_12 - x9_10 <= 0
tri2_9_10_12: t9_10_12 - x9_12 <= 0
tri3_9_10_12: t9_10_12 - x10_12 <= 0
tri4_9_10_12: t9_10_12 - x9_10 - x9_12 - x10_12 >= -2
tri1_9_10_13: t9_10_13 - x9_10 <= 0
tri2_9_10_13: t9_10_13 - x9_13 <= 0
tri3_9_10_13: t9_10_13 - x10_13 <= 0
tri4_9_10_13: t9_10_13 - x9_10 - x9_13 - x10_13 >= -2
tri1_9_11_12: t9_11_12 - x9_11 <= 0
tri2_9_11_12: t9_11_12 - x9_12 <= 0
tri3_9_11_12: t9_11_12 - x11_12 <= 0
tri4_9_11_12: t9_11_12 - x9_11 - x9_12 - x11_12 >= -2
tri1_9_11_13: t9_11_13 - x9_11 <= 0
tri2_9_11_13: t9_11_13 - x9_13 <= 0
tri3_9_11_13: t9_11_13 - x11_13 <= 0
tri4_9_11_13: t9_11_13 - x9_11 - x9_13 - x11_13 >= -2
tri1_9_12_13: t9_12_13 - x9_12 <= 0
tri2_9_12_13: t9_12_13 - x9_13 <= 0
tri3_9_12_13: t9_12_13 - x12_13 <= 0
tri4_9_12_13: t9_12_13 - x9_12 - x9_13 - x12_13 >= -2
tri1_10_11_12: t10_11_12 - x10_11 <= 0
tri2_10_11_12: t10_11_12 - x10_12 <= 0
tri3_10_11_12: t10_11_12 - x11_12 <= 0
tri4_10_11_12: t10_11_12 - x10_11 - x10_12 - x11_12 >= -2
tri1_10_11_13: t10_11_13 - x10_11 <= 0
tri2_10_11_13: t10_11_13 - x10_13 <= 0
tri3_10_11_13: t10_11_13 - x11_13 <= 0
tri4_10_11_13: t10_11_13 - x10_11 - x10_13 - x11_13 >= -2
tri1_10_12_13: t10_12_13 - x10_12 <= 0
tri2_10_12_13: t10_12_13 - x10_13 <= 0
tri3_10_12_13: t10_12_13 - x12_13 <= 0
tri4_10_12_13: t10_12_13 - x10_12 - x10_13 - x12_13 >= -2
tri1_11_12_13: t11_12_13 - x11_12 <= 0
tri2_11_12_13: t11_12_13 - x11_13 <= 0
tri3_11_12_13: t11_12_13 - x12_13 <= 0
tri4_11_12_13: t11_12_13 - x11_12 - x11_13 - x12_13 >= -2
k3deg0: d0 - t0_1_2 - t0_1_3 - t0_1_4 - t0_1_5 - t0_1_6 - t0_1_7 - t0_1_8 - t0_1_9 - t0_1_10 - t0_1_11 - t0_1_12 - t0_1_13 - t0_2_3 - t0_2_4 - t0_2_5 - t0_2_6 - t0_2_7 - t0_2_8 - t0_2_9 - t0_2_10 - t0_2_11 - t0_2_12 - t0_2_13 - t0_3_4 - t0_3_5 - t0_3_6 - t0_3_7 - t0_3_8 - t0_3_9 - t0_3_10 - t0_3_11 - t0_3_12 - t0_3_13 - t0_4_5 - t0_4_6 - t0_4_7 - t0_4_8 - t0_4_9 - t0_4_10 - t0_4_11 - t0_4_12 - t0_4_13 - t0_5_6 - t0_5_7 - t0_5_8 - t0_5_9 - t0_5_10 - t0_5_11 - t0_5_12 - t0_5_13 - t0_6_7 - t0_6_8 - t0_6_9 - t0_6_10 - t0_6_11 - t0_6_12 - t0_6_13 - t0_7_8 - t0_7_9 - t0_7_10 - t0_7_11 - t0_7_12 - t0_7_13 - t0_8_9 - t0_8_10 - t0_8_11 - t0_8_12 - t0_8_13 - t0_9_10 - t0_9_11 - t0_9_12 - t0_9_13 - t0_10_11 - t0_10_12 - t0_10_13 - t0_11_12 - t0_11_13 - t0_12_13 = 0
k3deg1: d1 - t0_1_2 - t0_1_3 - t0_1_4 - t0_1_5 - t0_1_6 - t0_1_7 - t0_1_8 - t0_1_9 - t0_1_10 - t0_1_11 - t0_1_12 - t0_1_13 - t1_2_3 - t1_2_4 - t1_2_5 - t1_2_6 - t1_2_7 - t1_2_8 - t1_2_9 - t1_2_10 - t1_2_11 - t1_2_12 - t1_2_13 - t1_3_4 - t1_3_5 - t1_3_6 - t1_3_7 - t1_3_8 - t1_3_9 - t1_3_10 - t1_3_11 - t1_3_12 - t1_3_13 - t1_4_5 - t1_4_6 - t1_4_7 - t1_4_8 - t1_4_9 - t1_4_10 - t1_4_11 - t1_4_12 - t1_4_13 - t1_5_6 - t1_5_7 - t1_5_8 - t1_5_9 - t1_5_10 - t1_5_11 - t1_5_12 - t1_5_13 - t1_6_7 - t1_6_8 - t1_6_9 - t1_6_10 - t1_6_11 - t1_6_12 - t1_6_13 - t1_7_8 - t1_7_9 - t1_7_10 - t1_7_11 - t1_7_12 - t1_7_13 - t1_8_9 - t1_8_10 - t1_8_11 - t1_8_12 - t1_8_13 - t1_9_10 - t1_9_11 - t1_9_12 - t1_9_13 - t1_10_11 - t1_10_12 - t1_10_13 - t1_11_12 - t1_11_13 - t1_12_13 = 0
k3deg2: d2 - t0_1_2 - t0_2_3 - t0_2_4 - t0_2_5 - t0_2_6 - t0_2_7 - t0_2_8 - t0_2_9 - t0_2_10 - t0_2_11 - t0_2_12 - t0_2_13 - t1_2_3 - t1_2_4 - t1_2_5 - t1_2_6 - t1_2_7 - t1_2_8 - t1_2_9 - t1_2_10 - t1_2_11 - t1_2_12 - t1_2_13 - t2_3_4 - t2_3_5 - t2_3_6 - t2_3_7 - t2_3_8 - t2_3_9 - t2_3_10 - t2_3_11 - t2_3_12 - t2_3_13 - t2_4_5 - t2_4_6 - t2_4_7 - t2_4_8 - t2_4_9 - t2_4_10 - t2_4_11 - t2_4_12 - t2_4_13 - t2_5_6 - t2_5_7 - t2_5_8 - t2_5_9 - t2_5_10 - t2_5_11 - t2_5_12 - t2_5_13 - t2_6_7 - t2_6_8 - t2_6_9 - t2_6_10 - t2_6_11 - t2_6_12 - t2_6_13 - t2_7_8 - t2_7_9 - t2_7_10 - t2_7_11 - t2_7_12 - t2_7_13 - t2_8_9 - t2_8_10 - t2_8_11 - t2_8_12 - t2_8_13 - t2_9_10 - t2_9_11 - t2_9_12 - t2_9_13 - t2_10_11 - t2_10_12 - t2_10_13 - t2_11_12 - t2_11_13 - t2_12_13 = 0
k3deg3: d3 - t0_1_3 - t0_2_3 - t0_3_4 - t0_3_5 - t0_3_6 - t0_3_7 - t0_3_8 - t0_3_9 - t0_3_10 - t0_3_11 - t0_3_12 - t0_3_13 - t1_2_3 - t1_3_4 - t1_3_5 - t1_3_6 - t1_3_7 - t1_3_8 - t1_3_9 - t1_3_10 - t1_3_11 - t1_3_12 - t1_3_13 - t2_3_4 - t2_3_5 - t2_3_6 - t2_3_7 - t2_3_8 - t2_3_9 - t2_3_10 - t2_3_11 - t2_3_12 - t2_3_13 - t3_4_5 - t3_4_6 - t3_4_7 - t3_4_8 - t3_4_9 - t3_4_10 - t3_4_11 - t3_4_12 - t3_4_13 - t3_5_6 - t3_5_7 - t3_5_8 - t3_5_9 - t3_5_10 - t3_5_11 - t3_5_12 - t3_5_13 - t3_6_7 - t3_6_8 - t3_6_9 - t3_6_10 - t3_6_11 - t3_6_12 - t3_6_13 - t3_7_8 - t3_7_9 - t3_7_10 - t3_7_11 - t3_7_12 - t3_7_13 - t3_8_9 - t3_8_10 - t3_8_11 - t3_8_12 - t3_8_13 - t3_9_10 - t3_9_11 - t3_9_12 - t3_9_13 - t3_10_11 - t3_10_12 - t3_10_13 - t3_11_12 - t3_11_13 - t3_12_13 = 0
k3deg4: d4 - t0_1_4 - t0_2_4 - t0_3_4 - t0_4_5 - t0_4_6 - t0_4_7 - t0_4_8 - t0_4_9 - t0_4_10 - t0_4_11 - t0_4_12 - t0_4_13 - t1_2_4 - t1_3_4 - t1_4_5 - t1_4_6 - t1_4_7 - t1_4_8 - t1_4_9 - t1_4_10 - t1_4_11 - t1_4_12 - t1_4_13 - t2_3_4 - t2_4_5 - t2_4_6 - t2_4_7 - t2_4_8 - t2_4_9 - t2_4_10 - t2_4_11 - t2_4_12 - t2_4_13 - t3_4_5 - t3_4_6 - t3_4_7 - t3_4_8 - t3_4_9 - t3_4_10 - t3_4_11 - t3_4_12 - t3_4_13 - t4_5_6 - t4_5_7 - t4_5_8 - t4_5_9 - t4_5_10 - t4_5_11 - t4_5_12 - t4_5_13 - t4_6_7 - t4_6_8 - t4_6_9 - t4_6_10 - t4_6_11 - t4_6_12 - t4_6_13 - t4_7_8 - t4_7_9 - t4_7_10 - t4_7_11 - t4_7_12 - t4_7_13 - t4_8_9 - t4_8_10 - t4_8_11 - t4_8_12 - t4_8_13 - t4_9_10 - t4_9_11 - t4_9_12 - t4_9_13 - t4_10_11 - t4_10_12 - t4_10_13 - t4_11_12 - t4_11_13 - t4_12_13 = 0
k3deg5: d5 - t0_1_5 - t0_2_5 - t0_3_5 - t0_4_5 - t0_5_6 - t0_5_7 - t0_5_8 - t0_5_9 - t0_5_10 - t0_5_11 - t0_5_12 - t0_5_13 - t1_2_5 - t1_3_5 - t1_4_5 - t1_5_6 - t1_5_7 - t1_5_8 - t1_5_9 - t1_5_10 - t1_5_11 - t1_5_12 - t1_5_13 - t2_3_5 - t2_4_5 - t2_5_6 - t2_5_7 - t2_5_8 - t2_5_9 - t2_5_10 - t2_5_11 - t2_5_12 - t2_5_13 - t3_4_5 - t3_5_6 - t3_5_7 - t3_5_8 - t3_5_9 - t3_5_10 - t3_5_11 - t3_5_12 - t3_5_13 - t4_5_6 - t4_5_7 - t4_5_8 - t4_5_9 - t4_5_10 - t4_5_11 - t4_5_12 - t4_5_13 - t5_6_7 - t5_6_8 - t5_6_9 - t5_6_10 - t5_6_11 - t5_6_12 - t5_6_13 - t5_7_8 - t5_7_9 - t5_7_10 - t5_7_11 - t5_7_12 - t5_7_13 - t5_8_9 - t5_8_10 - t5_8_11 - t5_8_12 - t5_8_13 - t5_9_10 - t5_9_11 - t5_9_12 - t5_9_13 - t5_10_11 - t5_10_12 - t5_10_13 - t5_11_12 - t5_11_13 - t5_12_13 = 0
k3deg6: d6 - t0_1_6 - t0_2_6 - t0_3_6 - t0_4_6 - t0_5_6 - t0_6_7 - t0_6_8 - t0_6_9 - t0_6_10 - t0_6_11 - t0_6_12 - t0_6_13 - t1_2_6 - t1_3_6 - t1_4_6 - t1_5_6 - t1_6_7 - t1_6_8 - t1_6_9 - t1_6_10 - t1_6_11 - t1_6_12 - t1_6_13 - t2_3_6 - t2_4_6 - t2_5_6 - t2_6_7 - t2_6_8 - t2_6_9 - t2_6_10 - t2_6_11 - t2_6_12 - t2_6_13 - t3_4_6 - t3_5_6 - t3_6_7 - t3_6_8 - t3_6_9 - t3_6_10 - t3_6_11 - t3_6_12 - t3_6_13 - t4_5_6 - t4_6_7 - t4_6_8 - t4_6_9 - t4_6_10 - t4_6_11 - t4_6_12 - t4_6_13 - t5_6_7 - t5_6_8 - t5_6_9 - t5_6_10 - t5_6_11 - t5_6_12 - t5_6_13 - t6_7_8 - t6_7_9 - t6_7_10 - t6_7_11 - t6_7_12 - t6_7_13 - t6_8_9 - t6_8_10 - t6_8_11 - t6_8_12 - t6_8_13 - t6_9_10 - t6_9_11 - t6_9_12 - t6_9_13 - t6_10_11 - t6_10_12 - t6_10_13 - t6_11_12 - t6_11_13 - t6_12_13 = 0
k3deg7: d7 - t0_1_7 - t0_2_7 - t0_3_7 - t0_4_7 - t0_5_7 - t0_6_7 - t0_7_8 - t0_7_9 - t0_7_10 - t0_7_11 - t0_7_12 - t0_7_13 - t1_2_7 - t1_3_7 - t1_4_7 - t1_5_7 - t1_6_7 - t1_7_8 - t1_7_9 - t1_7_10 - t1_7_11 - t1_7_12 - t1_7_13 - t2_3_7 - t2_4_7 - t2_5_7 - t2_6_7 - t2_7_8 - t2_7_9 - t2_7_10 - t2_7_11 - t2_7_12 - t2_7_13 - t3_4_7 - t3_5_7 - t3_6_7 - t3_7_8 - t3_7_9 - t3_7_10 - t3_7_11 - t3_7_12 - t3_7_13 - t4_5_7 - t4_6_7 - t4_7_8 - t4_7_9 - t4_7_10 - t4_7_11 - t4_7_12 - t4_7_13 - t5_6_7 - t5_7_8 - t5_7_9 - t5_7_10 - t5_7_11 - t5_7_12 - t5_7_13 - t6_7_8 - t6_7_9 - t6_7_10 - t6_7_11 - t6_7_12 - t6_7_13 - t7_8_9 - t7_8_10 - t7_8_11 - t7_8_12 - t7_8_13 - t7_9_10 - t7_9_11 - t7_9_12 - t7_9_13 - t7_10_11 - t7_10_12 - t7_10_13 - t7_11_12 - t7_11_13 - t7_12_13 = 0
k3deg8: d8 - t0_1_8 - t0_2_8 - t0_3_8 - t0_4_8 - t0_5_8 - t0_6_8 - t0_7_8 - t0_8_9 - t0_8_10 - t0_8_11 - t0_8_12 - t0_8_13 - t1_2_8 - t1_3_8 - t1_4_8 - t1_5_8 - t1_6_8 - t1_7_8 - t1_8_9 - t1_8_10 - t1_8_11 - t1_8_12 - t1_8_13 - t2_3_8 - t2_4_8 - t2_5_8 - t2_6_8 - t2_7_8 - t2_8_9 - t2_8_10 - t2_8_11 - t2_8_12 - t2_8_13 - t3_4_8 - t3_5_8 - t3_6_8 - t3_7_8 - t3_8_9 - t3_8_10 - t3_8_11 - t3_8_12 - t3_8_13 - t4_5_8 - t4_6_8 - t4_7_8 - t4_8_9 - t4_8_10 - t4_8_11 - t4_8_12 - t4_8_13 - t5_6_8 - t5_7_8 - t5_8_9 - t5_8_10 - t5_8_11 - t5_8_12 - t5_8_13 - t6_7_8 - t6_8_9 - t6_8_10 - t6_8_11 - t6_8_12 - t6_8_13 - t7_8_9 - t7_8_10 - t7_8_11 - t7_8_12 - t7_8_13 - t8_9_10 - t8_9_11 - t8_9_12 - t8_9_13 - t8_10_11 - t8_10_12 - t8_10_13 - t8_11_12 - t8_11_13 - t8_12_13 = 0
k3deg9: d9 - t0_1_9 - t0_2_9 - t0_3_9 - t0_4_9 - t0_5_9 - t0_6_9 - t0_7_9 - t0_8_9 - t0_9_10 - t0_9_11 - t0_9_12 - t0_9_13 - t1_2_9 - t1_3_9 - t1_4_9 - t1_5_9 - t1_6_9 - t1_7_9 - t1_8_9 - t1_9_10 - t1_9_11 - t1_9_12 - t1_9_13 - t2_3_9 - t2_4_9 - t2_5_9 - t2_6_9 - t2_7_9 - t2_8_9 - t2_9_10 - t2_9_11 - t2_9_12 - t2_9_13 - t3_4_9 - t3_5_9 - t3_6_9 - t3_7_9 - t3_8_9 - t3_9_10 - t3_9_11 - t3_9_12 - t3_9_13 - t4_5_9 - t4_6_9 - t4_7_9 - t4_8_9 - t4_9_10 - t4_9_11 - t4_9_12 - t4_9_13 - t5_6_9 - t5_7_9 - t5_8_9 - t5_9_10 - t5_9_11 - t5_9_12 - t5_9_13 - t6_7_9 - t6_8_9 - t6_9_10 - t6_9_11 - t6_9_12 - t6_9_13 - t7_8_9 - t7_9_10 - t7_9_11 - t7_9_12 - t7_9_13 - t8_9_10 - t8_9_11 - t8_9_12 - t8_9_13 - t9_10_11 - t9_10_12 - t9_10_13 - t9_11_12 - t9_11_13 - t9_12_13 = 0
k3deg10: d10 - t0_1_10 - t0_2_10 - t0_3_10 - t0_4_10 - t0_5_10 - t0_6_10 - t0_7_10 - t0_8_10 - t0_9_10 - t0_10_11 - t0_10_12 - t0_10_13 - t1_2_10 - t1_3_10 - t1_4_10 - t1_5_10 - t1_6_10 - t1_7_10 - t1_8_10 - t1_9_10 - t1_10_11 - t1_10_12 - t1_10_13 - t2_3_10 - t2_4_10 - t2_5_10 - t2_6_10 - t2_7_10 - t2_8_10 - t2_9_10 - t2_10_11 - t2_10_12 - t2_10_13 - t3_4_10 - t3_5_10 - t3_6_10 - t3_7_10 - t3_8_10 - t3_9_10 - t3_10_11 - t3_10_12 - t3_10_13 - t4_5_10 - t4_6_10 - t4_7_10 - t4_8_10 - t4_9_10 - t4_10_11 - t4_10_12 - t4_10_13 - t5_6_10 - t5_7_10 - t5_8_10 - t5_9_10 - t5_10_11 - t5_10_12 - t5_10_13 - t6_7_10 - t6_8_10 - t6_9_10 - t6_10_11 - t6_10_12 - t6_10_13 - t7_8_10 - t7_9_10 - t7_10_11 - t7_10_12 - t7_10_13 - t8_9_10 - t8_10_11 - t8_10_12 - t8_10_13 - t9_10_11 - t9_10_12 - t9_10_13 - t10_11_12 - t10_11_13 - t10_12_13 = 0
k3deg11: d11 - t0_1_11 - t0_2_11 - t0_3_11 - t0_4_11 - t0_5_11 - t0_6_11 - t0_7_11 - t0_8_11 - t0_9_11 - t0_10_11 - t0_11_12 - t0_11_13 - t1_2_11 - t1_3_11 - t1_4_11 - t1_5_11 - t1_6_11 - t1_7_11 - t1_8_11 - t1_9_11 - t1_10_11 - t1_11_12 - t1_11_13 - t2_3_11 - t2_4_11 - t2_5_11 - t2_6_11 - t2_7_11 - t2_8_11 - t2_9_11 - t2_10_11 - t2_11_12 - t2_11_13 - t3_4_11 - t3_5_11 - t3_6_11 - t3_7_11 - t3_8_11 - t3_9_11 - t3_10_11 - t3_11_12 - t3_11_13 - t4_5_11 - t4_6_11 - t4_7_11 - t4_8_11 - t4_9_11 - t4_10_11 - t4_11_12 - t4_11_13 - t5_6_11 - t5_7_11 - t5_8_11 - t5_9_11 - t5_10_11 - t5_11_12 - t5_11_13 - t6_7_11 - t6_8_11 - t6_9_11 - t6_10_11 - t6_11_12 - t6_11_13 - t7_8_11 - t7_9_11 - t7_10_11 - t7_11_12 - t7_11_13 - t8_9_11 - t8_10_11 - t8_11_12 - t8_11_13 - t9_10_11 - t9_11_12 - t9_11_13 - t10_11_12 - t10_11_13 - t11_12_13 = 0
k3deg12: d12 - t0_1_12 - t0_2_12 - t0_3_12 - t0_4_12 - t0_5_12 - t0_6_12 - t0_7_12 - t0_8_12 - t0_9_12 - t0_10_12 - t0_11_12 - t0_12_13 - t1_2_12 - t1_3_12 - t1_4_12 - t1_5_12 - t1_6_12 - t1_7_12 - t1_8_12 - t1_9_12 - t1_10_12 - t1_11_12 - t1_12_13 - t2_3_12 - t2_4_12 - t2_5_12 - t2_6_12 - t2_7_12 - t2_8_12 - t2_9_12 - t2_10_12 - t2_11_12 - t2_12_13 - t3_4_12 - t3_5_12 - t3_6_12 - t3_7_12 - t3_8_12 - t3_9_12 - t3_10_12 - t3_11_12 - t3_12_13 - t4_5_12 - t4_6_12 - t4_7_12 - t4_8_12 - t4_9_12 - t4_10_12 - t4_11_12 - t4_12_13 - t5_6_12 - t5_7_12 - t5_8_12 - t5_9_12 - t5_10_12 - t5_11_12 - t5_12_13 - t6_7_12 - t6_8_12 - t6_9_12 - t6_10_12 - t6_11_12 - t6_12_13 - t7_8_12 - t7_9_12 - t7_10_12 - t7_11_12 - t7_12_13 - t8_9_12 - t8_10_12 - t8_11_12 - t8_12_13 - t9_10_12 - t9_11_12 - t9_12_13 - t10_11_12 - t10_12_13 - t11_12_13 = 0
k3deg13: d13 - t0_1_13 - t0_2_13 - t0_3_13 - t0_4_13 - t0_5_13 - t0_6_13 - t0_7_13 - t0_8_13 - t0_9_13 - t0_10_13 - t0_11_13 - t0_12_13 - t1_2_13 - t1_3_13 - t1_4_13 - t1_5_13 - t1_6_13 - t1_7_13 - t1_8_13 - t1_9_13 - t1_10_13 - t1_11_13 - t1_12_13 - t2_3_13 - t2_4_13 - t2_5_13 - t2_6_13 - t2_7_13 - t2_8_13 - t2_9_13 - t2_10_13 - t2_11_13 - t2_12_13 - t3_4_13 - t3_5_13 - t3_6_13 - t3_7_13 - t3_8_13 - t3_9_13 - t3_10_13 - t3_11_13 - t3_12_13 - t4_5_13 - t4_6_13 - t4_7_13 - t4_8_13 - t4_9_13 - t4_10_13 - t4_11_13 - t4_12_13 - t5_6_13 - t5_7_13 - t5_8_13 - t5_9_13 - t5_10_13 - t5_11_13 - t5_12_13 - t6_7_13 - t6_8_13 - t6_9_13 - t6_10_13 - t6_11_13 - t6_12_13 - t7_8_13 - t7_9_13 - t7_10_13 - t7_11_13 - t7_12_13 - t8_9_13 - t8_10_13 - t8_11_13 - t8_12_13 - t9_10_13 - t9_11_13 - t9_12_13 - t10_11_13 - t10_12_13 - t11_12_13 = 0

notruetwins_0_1: t0_1_2 + t0_1_3 + t0_1_4 + t0_1_5 + t0_1_6 + t0_1_7 + t0_1_8 + t0_1_9 + t0_1_10 + t0_1_11 + t0_1_12 + t0_1_13 <= 6
notruetwins_0_2: t0_1_2 + t0_2_3 + t0_2_4 + t0_2_5 + t0_2_6 + t0_2_7 + t0_2_8 + t0_2_9 + t0_2_10 + t0_2_11 + t0_2_12 + t0_2_13 <= 6
notruetwins_0_3: t0_1_3 + t0_2_3 + t0_3_4 + t0_3_5 + t0_3_6 + t0_3_7 + t0_3_8 + t0_3_9 + t0_3_10 + t0_3_11 + t0_3_12 + t0_3_13 <= 6
notruetwins_0_4: t0_1_4 + t0_2_4 + t0_3_4 + t0_4_5 + t0_4_6 + t0_4_7 + t0_4_8 + t0_4_9 + t0_4_10 + t0_4_11 + t0_4_12 + t0_4_13 <= 6
notruetwins_0_5: t0_1_5 + t0_2_5 + t0_3_5 + t0_4_5 + t0_5_6 + t0_5_7 + t0_5_8 + t0_5_9 + t0_5_10 + t0_5_11 + t0_5_12 + t0_5_13 <= 6
notruetwins_0_6: t0_1_6 + t0_2_6 + t0_3_6 + t0_4_6 + t0_5_6 + t0_6_7 + t0_6_8 + t0_6_9 + t0_6_10 + t0_6_11 + t0_6_12 + t0_6_13 <= 6
notruetwins_0_7: t0_1_7 + t0_2_7 + t0_3_7 + t0_4_7 + t0_5_7 + t0_6_7 + t0_7_8 + t0_7_9 + t0_7_10 + t0_7_11 + t0_7_12 + t0_7_13 <= 6
notruetwins_0_8: t0_1_8 + t0_2_8 + t0_3_8 + t0_4_8 + t0_5_8 + t0_6_8 + t0_7_8 + t0_8_9 + t0_8_10 + t0_8_11 + t0_8_12 + t0_8_13 <= 6
notruetwins_0_9: t0_1_9 + t0_2_9 + t0_3_9 + t0_4_9 + t0_5_9 + t0_6_9 + t0_7_9 + t0_8_9 + t0_9_10 + t0_9_11 + t0_9_12 + t0_9_13 <= 6
notruetwins_0_10: t0_1_10 + t0_2_10 + t0_3_10 + t0_4_10 + t0_5_10 + t0_6_10 + t0_7_10 + t0_8_10 + t0_9_10 + t0_10_11 + t0_10_12 + t0_10_13 <= 6
notruetwins_0_11: t0_1_11 + t0_2_11 + t0_3_11 + t0_4_11 + t0_5_11 + t0_6_11 + t0_7_11 + t0_8_11 + t0_9_11 + t0_10_11 + t0_11_12 + t0_11_13 <= 6
notruetwins_0_12: t0_1_12 + t0_2_12 + t0_3_12 + t0_4_12 + t0_5_12 + t0_6_12 + t0_7_12 + t0_8_12 + t0_9_12 + t0_10_12 + t0_11_12 + t0_12_13 <= 6
notruetwins_0_13: t0_1_13 + t0_2_13 + t0_3_13 + t0_4_13 + t0_5_13 + t0_6_13 + t0_7_13 + t0_8_13 + t0_9_13 + t0_10_13 + t0_11_13 + t0_12_13 <= 6
notruetwins_1_2: t0_1_2 + t1_2_3 + t1_2_4 + t1_2_5 + t1_2_6 + t1_2_7 + t1_2_8 + t1_2_9 + t1_2_10 + t1_2_11 + t1_2_12 + t1_2_13 <= 6
notruetwins_1_3: t0_1_3 + t1_2_3 + t1_3_4 + t1_3_5 + t1_3_6 + t1_3_7 + t1_3_8 + t1_3_9 + t1_3_10 + t1_3_11 + t1_3_12 + t1_3_13 <= 6
notruetwins_1_4: t0_1_4 + t1_2_4 + t1_3_4 + t1_4_5 + t1_4_6 + t1_4_7 + t1_4_8 + t1_4_9 + t1_4_10 + t1_4_11 + t1_4_12 + t1_4_13 <= 6
notruetwins_1_5: t0_1_5 + t1_2_5 + t1_3_5 + t1_4_5 + t1_5_6 + t1_5_7 + t1_5_8 + t1_5_9 + t1_5_10 + t1_5_11 + t1_5_12 + t1_5_13 <= 6
notruetwins_1_6: t0_1_6 + t1_2_6 + t1_3_6 + t1_4_6 + t1_5_6 + t1_6_7 + t1_6_8 + t1_6_9 + t1_6_10 + t1_6_11 + t1_6_12 + t1_6_13 <= 6
notruetwins_1_7: t0_1_7 + t1_2_7 + t1_3_7 + t1_4_7 + t1_5_7 + t1_6_7 + t1_7_8 + t1_7_9 + t1_7_10 + t1_7_11 + t1_7_12 + t1_7_13 <= 6
notruetwins_1_8: t0_1_8 + t1_2_8 + t1_3_8 + t1_4_8 + t1_5_8 + t1_6_8 + t1_7_8 + t1_8_9 + t1_8_10 + t1_8_11 + t1_8_12 + t1_8_13 <= 6
notruetwins_1_9: t0_1_9 + t1_2_9 + t1_3_9 + t1_4_9 + t1_5_9 + t1_6_9 + t1_7_9 + t1_8_9 + t1_9_10 + t1_9_11 + t1_9_12 + t1_9_13 <= 6
notruetwins_1_10: t0_1_10 + t1_2_10 + t1_3_10 + t1_4_10 + t1_5_10 + t1_6_10 + t1_7_10 + t1_8_10 + t1_9_10 + t1_10_11 + t1_10_12 + t1_10_13 <= 6
notruetwins_1_11: t0_1_11 + t1_2_11 + t1_3_11 + t1_4_11 + t1_5_11 + t1_6_11 + t1_7_11 + t1_8_11 + t1_9_11 + t1_10_11 + t1_11_12 + t1_11_13 <= 6
notruetwins_1_12: t0_1_12 + t1_2_12 + t1_3_12 + t1_4_12 + t1_5_12 + t1_6_12 + t1_7_12 + t1_8_12 + t1_9_12 + t1_10_12 + t1_11_12 + t1_12_13 <= 6
notruetwins_1_13: t0_1_13 + t1_2_13 + t1_3_13 + t1_4_13 + t1_5_13 + t1_6_13 + t1_7_13 + t1_8_13 + t1_9_13 + t1_10_13 + t1_11_13 + t1_12_13 <= 6
notruetwins_2_3: t0_2_3 + t1_2_3 + t2_3_4 + t2_3_5 + t2_3_6 + t2_3_7 + t2_3_8 + t2_3_9 + t2_3_10 + t2_3_11 + t2_3_12 + t2_3_13 <= 6
notruetwins_2_4: t0_2_4 + t1_2_4 + t2_3_4 + t2_4_5 + t2_4_6 + t2_4_7 + t2_4_8 + t2_4_9 + t2_4_10 + t2_4_11 + t2_4_12 + t2_4_13 <= 6
notruetwins_2_5: t0_2_5 + t1_2_5 + t2_3_5 + t2_4_5 + t2_5_6 + t2_5_7 + t2_5_8 + t2_5_9 + t2_5_10 + t2_5_11 + t2_5_12 + t2_5_13 <= 6
notruetwins_2_6: t0_2_6 + t1_2_6 + t2_3_6 + t2_4_6 + t2_5_6 + t2_6_7 + t2_6_8 + t2_6_9 + t2_6_10 + t2_6_11 + t2_6_12 + t2_6_13 <= 6
notruetwins_2_7: t0_2_7 + t1_2_7 + t2_3_7 + t2_4_7 + t2_5_7 + t2_6_7 + t2_7_8 + t2_7_9 + t2_7_10 + t2_7_11 + t2_7_12 + t2_7_13 <= 6
notruetwins_2_8: t0_2_8 + t1_2_8 + t2_3_8 + t2_4_8 + t2_5_8 + t2_6_8 + t2_7_8 + t2_8_9 + t2_8_10 + t2_8_11 + t2_8_12 + t2_8_13 <= 6
notruetwins_2_9: t0_2_9 + t1_2_9 + t2_3_9 + t2_4_9 + t2_5_9 + t2_6_9 + t2_7_9 + t2_8_9 + t2_9_10 + t2_9_11 + t2_9_12 + t2_9_13 <= 6
notruetwins_2_10: t0_2_10 + t1_2_10 + t2_3_10 + t2_4_10 + t2_5_10 + t2_6_10 + t2_7_10 + t2_8_10 + t2_9_10 + t2_10_11 + t2_10_12 + t2_10_13 <= 6
notruetwins_2_11: t0_2_11 + t1_2_11 + t2_3_11 + t2_4_11 + t2_5_11 + t2_6_11 + t2_7_11 + t2_8_11 + t2_9_11 + t2_10_11 + t2_11_12 + t2_11_13 <= 6
notruetwins_2_12: t0_2_12 + t1_2_12 + t2_3_12 + t2_4_12 + t2_5_12 + t2_6_12 + t2_7_12 + t2_8_12 + t2_9_12 + t2_10_12 + t2_11_12 + t2_12_13 <= 6
notruetwins_2_13: t0_2_13 + t1_2_13 + t2_3_13 + t2_4_13 + t2_5_13 + t2_6_13 + t2_7_13 + t2_8_13 + t2_9_13 + t2_10_13 + t2_11_13 + t2_12_13 <= 6
notruetwins_3_4: t0_3_4 + t1_3_4 + t2_3_4 + t3_4_5 + t3_4_6 + t3_4_7 + t3_4_8 + t3_4_9 + t3_4_10 + t3_4_11 + t3_4_12 + t3_4_13 <= 6
notruetwins_3_5: t0_3_5 + t1_3_5 + t2_3_5 + t3_4_5 + t3_5_6 + t3_5_7 + t3_5_8 + t3_5_9 + t3_5_10 + t3_5_11 + t3_5_12 + t3_5_13 <= 6
notruetwins_3_6: t0_3_6 + t1_3_6 + t2_3_6 + t3_4_6 + t3_5_6 + t3_6_7 + t3_6_8 + t3_6_9 + t3_6_10 + t3_6_11 + t3_6_12 + t3_6_13 <= 6
notruetwins_3_7: t0_3_7 + t1_3_7 + t2_3_7 + t3_4_7 + t3_5_7 + t3_6_7 + t3_7_8 + t3_7_9 + t3_7_10 + t3_7_11 + t3_7_12 + t3_7_13 <= 6
notruetwins_3_8: t0_3_8 + t1_3_8 + t2_3_8 + t3_4_8 + t3_5_8 + t3_6_8 + t3_7_8 + t3_8_9 + t3_8_10 + t3_8_11 + t3_8_12 + t3_8_13 <= 6
notruetwins_3_9: t0_3_9 + t1_3_9 + t2_3_9 + t3_4_9 + t3_5_9 + t3_6_9 + t3_7_9 + t3_8_9 + t3_9_10 + t3_9_11 + t3_9_12 + t3_9_13 <= 6
notruetwins_3_10: t0_3_10 + t1_3_10 + t2_3_10 + t3_4_10 + t3_5_10 + t3_6_10 + t3_7_10 + t3_8_10 + t3_9_10 + t3_10_11 + t3_10_12 + t3_10_13 <= 6
notruetwins_3_11: t0_3_11 + t1_3_11 + t2_3_11 + t3_4_11 + t3_5_11 + t3_6_11 + t3_7_11 + t3_8_11 + t3_9_11 + t3_10_11 + t3_11_12 + t3_11_13 <= 6
notruetwins_3_12: t0_3_12 + t1_3_12 + t2_3_12 + t3_4_12 + t3_5_12 + t3_6_12 + t3_7_12 + t3_8_12 + t3_9_12 + t3_10_12 + t3_11_12 + t3_12_13 <= 6
notruetwins_3_13: t0_3_13 + t1_3_13 + t2_3_13 + t3_4_13 + t3_5_13 + t3_6_13 + t3_7_13 + t3_8_13 + t3_9_13 + t3_10_13 + t3_11_13 + t3_12_13 <= 6
notruetwins_4_5: t0_4_5 + t1_4_5 + t2_4_5 + t3_4_5 + t4_5_6 + t4_5_7 + t4_5_8 + t4_5_9 + t4_5_10 + t4_5_11 + t4_5_12 + t4_5_13 <= 6
notruetwins_4_6: t0_4_6 + t1_4_6 + t2_4_6 + t3_4_6 + t4_5_6 + t4_6_7 + t4_6_8 + t4_6_9 + t4_6_10 + t4_6_11 + t4_6_12 + t4_6_13 <= 6
notruetwins_4_7: t0_4_7 + t1_4_7 + t2_4_7 + t3_4_7 + t4_5_7 + t4_6_7 + t4_7_8 + t4_7_9 + t4_7_10 + t4_7_11 + t4_7_12 + t4_7_13 <= 6
notruetwins_4_8: t0_4_8 + t1_4_8 + t2_4_8 + t3_4_8 + t4_5_8 + t4_6_8 + t4_7_8 + t4_8_9 + t4_8_10 + t4_8_11 + t4_8_12 + t4_8_13 <= 6
notruetwins_4_9: t0_4_9 + t1_4_9 + t2_4_9 + t3_4_9 + t4_5_9 + t4_6_9 + t4_7_9 + t4_8_9 + t4_9_10 + t4_9_11 + t4_9_12 + t4_9_13 <= 6
notruetwins_4_10: t0_4_10 + t1_4_10 + t2_4_10 + t3_4_10 + t4_5_10 + t4_6_10 + t4_7_10 + t4_8_10 + t4_9_10 + t4_10_11 + t4_10_12 + t4_10_13 <= 6
notruetwins_4_11: t0_4_11 + t1_4_11 + t2_4_11 + t3_4_11 + t4_5_11 + t4_6_11 + t4_7_11 + t4_8_11 + t4_9_11 + t4_10_11 + t4_11_12 + t4_11_13 <= 6
notruetwins_4_12: t0_4_12 + t1_4_12 + t2_4_12 + t3_4_12 + t4_5_12 + t4_6_12 + t4_7_12 + t4_8_12 + t4_9_12 + t4_10_12 + t4_11_12 + t4_12_13 <= 6
notruetwins_4_13: t0_4_13 + t1_4_13 + t2_4_13 + t3_4_13 + t4_5_13 + t4_6_13 + t4_7_13 + t4_8_13 + t4_9_13 + t4_10_13 + t4_11_13 + t4_12_13 <= 6
notruetwins_5_6: t0_5_6 + t1_5_6 + t2_5_6 + t3_5_6 + t4_5_6 + t5_6_7 + t5_6_8 + t5_6_9 + t5_6_10 + t5_6_11 + t5_6_12 + t5_6_13 <= 6
notruetwins_5_7: t0_5_7 + t1_5_7 + t2_5_7 + t3_5_7 + t4_5_7 + t5_6_7 + t5_7_8 + t5_7_9 + t5_7_10 + t5_7_11 + t5_7_12 + t5_7_13 <= 6
notruetwins_5_8: t0_5_8 + t1_5_8 + t2_5_8 + t3_5_8 + t4_5_8 + t5_6_8 + t5_7_8 + t5_8_9 + t5_8_10 + t5_8_11 + t5_8_12 + t5_8_13 <= 6
notruetwins_5_9: t0_5_9 + t1_5_9 + t2_5_9 + t3_5_9 + t4_5_9 + t5_6_9 + t5_7_9 + t5_8_9 + t5_9_10 + t5_9_11 + t5_9_12 + t5_9_13 <= 6
notruetwins_5_10: t0_5_10 + t1_5_10 + t2_5_10 + t3_5_10 + t4_5_10 + t5_6_10 + t5_7_10 + t5_8_10 + t5_9_10 + t5_10_11 + t5_10_12 + t5_10_13 <= 6
notruetwins_5_11: t0_5_11 + t1_5_11 + t2_5_11 + t3_5_11 + t4_5_11 + t5_6_11 + t5_7_11 + t5_8_11 + t5_9_11 + t5_10_11 + t5_11_12 + t5_11_13 <= 6
notruetwins_5_12: t0_5_12 + t1_5_12 + t2_5_12 + t3_5_12 + t4_5_12 + t5_6_12 + t5_7_12 + t5_8_12 + t5_9_12 + t5_10_12 + t5_11_12 + t5_12_13 <= 6
notruetwins_5_13: t0_5_13 + t1_5_13 + t2_5_13 + t3_5_13 + t4_5_13 + t5_6_13 + t5_7_13 + t5_8_13 + t5_9_13 + t5_10_13 + t5_11_13 + t5_12_13 <= 6
notruetwins_6_7: t0_6_7 + t1_6_7 + t2_6_7 + t3_6_7 + t4_6_7 + t5_6_7 + t6_7_8 + t6_7_9 + t6_7_10 + t6_7_11 + t6_7_12 + t6_7_13 <= 6
notruetwins_6_8: t0_6_8 + t1_6_8 + t2_6_8 + t3_6_8 + t4_6_8 + t5_6_8 + t6_7_8 + t6_8_9 + t6_8_10 + t6_8_11 + t6_8_12 + t6_8_13 <= 6
notruetwins_6_9: t0_6_9 + t1_6_9 + t2_6_9 + t3_6_9 + t4_6_9 + t5_6_9 + t6_7_9 + t6_8_9 + t6_9_10 + t6_9_11 + t6_9_12 + t6_9_13 <= 6
notruetwins_6_10: t0_6_10 + t1_6_10 + t2_6_10 + t3_6_10 + t4_6_10 + t5_6_10 + t6_7_10 + t6_8_10 + t6_9_10 + t6_10_11 + t6_10_12 + t6_10_13 <= 6
notruetwins_6_11: t0_6_11 + t1_6_11 + t2_6_11 + t3_6_11 + t4_6_11 + t5_6_11 + t6_7_11 + t6_8_11 + t6_9_11 + t6_10_11 + t6_11_12 + t6_11_13 <= 6
notruetwins_6_12: t0_6_12 + t1_6_12 + t2_6_12 + t3_6_12 + t4_6_12 + t5_6_12 + t6_7_12 + t6_8_12 + t6_9_12 + t6_10_12 + t6_11_12 + t6_12_13 <= 6
notruetwins_6_13: t0_6_13 + t1_6_13 + t2_6_13 + t3_6_13 + t4_6_13 + t5_6_13 + t6_7_13 + t6_8_13 + t6_9_13 + t6_10_13 + t6_11_13 + t6_12_13 <= 6
notruetwins_7_8: t0_7_8 + t1_7_8 + t2_7_8 + t3_7_8 + t4_7_8 + t5_7_8 + t6_7_8 + t7_8_9 + t7_8_10 + t7_8_11 + t7_8_12 + t7_8_13 <= 6
notruetwins_7_9: t0_7_9 + t1_7_9 + t2_7_9 + t3_7_9 + t4_7_9 + t5_7_9 + t6_7_9 + t7_8_9 + t7_9_10 + t7_9_11 + t7_9_12 + t7_9_13 <= 6
notruetwins_7_10: t0_7_10 + t1_7_10 + t2_7_10 + t3_7_10 + t4_7_10 + t5_7_10 + t6_7_10 + t7_8_10 + t7_9_10 + t7_10_11 + t7_10_12 + t7_10_13 <= 6
notruetwins_7_11: t0_7_11 + t1_7_11 + t2_7_11 + t3_7_11 + t4_7_11 + t5_7_11 + t6_7_11 + t7_8_11 + t7_9_11 + t7_10_11 + t7_11_12 + t7_11_13 <= 6
notruetwins_7_12: t0_7_12 + t1_7_12 + t2_7_12 + t3_7_12 + t4_7_12 + t5_7_12 + t6_7_12 + t7_8_12 + t7_9_12 + t7_10_12 + t7_11_12 + t7_12_13 <= 6
notruetwins_7_13: t0_7_13 + t1_7_13 + t2_7_13 + t3_7_13 + t4_7_13 + t5_7_13 + t6_7_13 + t7_8_13 + t7_9_13 + t7_10_13 + t7_11_13 + t7_12_13 <= 6
notruetwins_8_9: t0_8_9 + t1_8_9 + t2_8_9 + t3_8_9 + t4_8_9 + t5_8_9 + t6_8_9 + t7_8_9 + t8_9_10 + t8_9_11 + t8_9_12 + t8_9_13 <= 6
notruetwins_8_10: t0_8_10 + t1_8_10 + t2_8_10 + t3_8_10 + t4_8_10 + t5_8_10 + t6_8_10 + t7_8_10 + t8_9_10 + t8_10_11 + t8_10_12 + t8_10_13 <= 6
notruetwins_8_11: t0_8_11 + t1_8_11 + t2_8_11 + t3_8_11 + t4_8_11 + t5_8_11 + t6_8_11 + t7_8_11 + t8_9_11 + t8_10_11 + t8_11_12 + t8_11_13 <= 6
notruetwins_8_12: t0_8_12 + t1_8_12 + t2_8_12 + t3_8_12 + t4_8_12 + t5_8_12 + t6_8_12 + t7_8_12 + t8_9_12 + t8_10_12 + t8_11_12 + t8_12_13 <= 6
notruetwins_8_13: t0_8_13 + t1_8_13 + t2_8_13 + t3_8_13 + t4_8_13 + t5_8_13 + t6_8_13 + t7_8_13 + t8_9_13 + t8_10_13 + t8_11_13 + t8_12_13 <= 6
notruetwins_9_10: t0_9_10 + t1_9_10 + t2_9_10 + t3_9_10 + t4_9_10 + t5_9_10 + t6_9_10 + t7_9_10 + t8_9_10 + t9_10_11 + t9_10_12 + t9_10_13 <= 6
notruetwins_9_11: t0_9_11 + t1_9_11 + t2_9_11 + t3_9_11 + t4_9_11 + t5_9_11 + t6_9_11 + t7_9_11 + t8_9_11 + t9_10_11 + t9_11_12 + t9_11_13 <= 6
notruetwins_9_12: t0_9_12 + t1_9_12 + t2_9_12 + t3_9_12 + t4_9_12 + t5_9_12 + t6_9_12 + t7_9_12 + t8_9_12 + t9_10_12 + t9_11_12 + t9_12_13 <= 6
notruetwins_9_13: t0_9_13 + t1_9_13 + t2_9_13 + t3_9_13 + t4_9_13 + t5_9_13 + t6_9_13 + t7_9_13 + t8_9_13 + t9_10_13 + t9_11_13 + t9_12_13 <= 6
notruetwins_10_11: t0_10_11 + t1_10_11 + t2_10_11 + t3_10_11 + t4_10_11 + t5_10_11 + t6_10_11 + t7_10_11 + t8_10_11 + t9_10_11 + t10_11_12 + t10_11_13 <= 6
notruetwins_10_12: t0_10_12 + t1_10_12 + t2_10_12 + t3_10_12 + t4_10_12 + t5_10_12 + t6_10_12 + t7_10_12 + t8_10_12 + t9_10_12 + t10_11_12 + t10_12_13 <= 6
notruetwins_10_13: t0_10_13 + t1_10_13 + t2_10_13 + t3_10_13 + t4_10_13 + t5_10_13 + t6_10_13 + t7_10_13 + t8_10_13 + t9_10_13 + t10_11_13 + t10_12_13 <= 6
notruetwins_11_12: t0_11_12 + t1_11_12 + t2_11_12 + t3_11_12 + t4_11_12 + t5_11_12 + t6_11_12 + t7_11_12 + t8_11_12 + t9_11_12 + t10_11_12 + t11_12_13 <= 6
notruetwins_11_13: t0_11_13 + t1_11_13 + t2_11_13 + t3_11_13 + t4_11_13 + t5_11_13 + t6_11_13 + t7_11_13 + t8_11_13 + t9_11_13 + t10_11_13 + t11_12_13 <= 6
notruetwins_12_13: t0_12_13 + t1_12_13 + t2_12_13 + t3_12_13 + t4_12_13 + t5_12_13 + t6_12_13 + t7_12_13 + t8_12_13 + t9_12_13 + t10_12_13 + t11_12_13 <= 6

ord1: d1 - d2 <= -1
ord2: d2 - d3 <= -1
ord3: d3 - d4 <= -1
ord4: d4 - d5 <= -1
ord5: d5 - d6 <= -1
ord6: d6 - d7 <= -1
ord7: d7 - d8 <= -1

ord9: d9 - d10 <= -1
ord10: d10 - d11 <= -1
ord11: d11 - d12 <= -1
ord12: d12 - d13 <= -1
bin_1_9: b_1_9 <= 1
neq1_1_9: d1 - d9 - 30 b_1_9 <= -1
neq2_1_9: d9 - d1 + 30 b_1_9 <= 29
bin_1_10: b_1_10 <= 1
neq1_1_10: d1 - d10 - 30 b_1_10 <= -1
neq2_1_10: d10 - d1 + 30 b_1_10 <= 29
bin_1_11: b_1_11 <= 1
neq1_1_11: d1 - d11 - 30 b_1_11 <= -1
neq2_1_11: d11 - d1 + 30 b_1_11 <= 29
bin_1_12: b_1_12 <= 1
neq1_1_12: d1 - d12 - 30 b_1_12 <= -1
neq2_1_12: d12 - d1 + 30 b_1_12 <= 29
bin_1_13: b_1_13 <= 1
neq1_1_13: d1 - d13 - 30 b_1_13 <= -1
neq2_1_13: d13 - d1 + 30 b_1_13 <= 29
bin_2_9: b_2_9 <= 1
neq1_2_9: d2 - d9 - 30 b_2_9 <= -1
neq2_2_9: d9 - d2 + 30 b_2_9 <= 29
bin_2_10: b_2_10 <= 1
neq1_2_10: d2 - d10 - 30 b_2_10 <= -1
neq2_2_10: d10 - d2 + 30 b_2_10 <= 29
bin_2_11: b_2_11 <= 1
neq1_2_11: d2 - d11 - 30 b_2_11 <= -1
neq2_2_11: d11 - d2 + 30 b_2_11 <= 29
bin_2_12: b_2_12 <= 1
neq1_2_12: d2 - d12 - 30 b_2_12 <= -1
neq2_2_12: d12 - d2 + 30 b_2_12 <= 29
bin_2_13: b_2_13 <= 1
neq1_2_13: d2 - d13 - 30 b_2_13 <= -1
neq2_2_13: d13 - d2 + 30 b_2_13 <= 29
bin_3_9: b_3_9 <= 1
neq1_3_9: d3 - d9 - 30 b_3_9 <= -1
neq2_3_9: d9 - d3 + 30 b_3_9 <= 29
bin_3_10: b_3_10 <= 1
neq1_3_10: d3 - d10 - 30 b_3_10 <= -1
neq2_3_10: d10 - d3 + 30 b_3_10 <= 29
bin_3_11: b_3_11 <= 1
neq1_3_11: d3 - d11 - 30 b_3_11 <= -1
neq2_3_11: d11 - d3 + 30 b_3_11 <= 29
bin_3_12: b_3_12 <= 1
neq1_3_12: d3 - d12 - 30 b_3_12 <= -1
neq2_3_12: d12 - d3 + 30 b_3_12 <= 29
bin_3_13: b_3_13 <= 1
neq1_3_13: d3 - d13 - 30 b_3_13 <= -1
neq2_3_13: d13 - d3 + 30 b_3_13 <= 29
bin_4_9: b_4_9 <= 1
neq1_4_9: d4 - d9 - 30 b_4_9 <= -1
neq2_4_9: d9 - d4 + 30 b_4_9 <= 29
bin_4_10: b_4_10 <= 1
neq1_4_10: d4 - d10 - 30 b_4_10 <= -1
neq2_4_10: d10 - d4 + 30 b_4_10 <= 29
bin_4_11: b_4_11 <= 1
neq1_4_11: d4 - d11 - 30 b_4_11 <= -1
neq2_4_11: d11 - d4 + 30 b_4_11 <= 29
bin_4_12: b_4_12 <= 1
neq1_4_12: d4 - d12 - 30 b_4_12 <= -1
neq2_4_12: d12 - d4 + 30 b_4_12 <= 29
bin_4_13: b_4_13 <= 1
neq1_4_13: d4 - d13 - 30 b_4_13 <= -1
neq2_4_13: d13 - d4 + 30 b_4_13 <= 29
bin_5_9: b_5_9 <= 1
neq1_5_9: d5 - d9 - 30 b_5_9 <= -1
neq2_5_9: d9 - d5 + 30 b_5_9 <= 29
bin_5_10: b_5_10 <= 1
neq1_5_10: d5 - d10 - 30 b_5_10 <= -1
neq2_5_10: d10 - d5 + 30 b_5_10 <= 29
bin_5_11: b_5_11 <= 1
neq1_5_11: d5 - d11 - 30 b_5_11 <= -1
neq2_5_11: d11 - d5 + 30 b_5_11 <= 29
bin_5_12: b_5_12 <= 1
neq1_5_12: d5 - d12 - 30 b_5_12 <= -1
neq2_5_12: d12 - d5 + 30 b_5_12 <= 29
bin_5_13: b_5_13 <= 1
neq1_5_13: d5 - d13 - 30 b_5_13 <= -1
neq2_5_13: d13 - d5 + 30 b_5_13 <= 29
bin_6_9: b_6_9 <= 1
neq1_6_9: d6 - d9 - 30 b_6_9 <= -1
neq2_6_9: d9 - d6 + 30 b_6_9 <= 29
bin_6_10: b_6_10 <= 1
neq1_6_10: d6 - d10 - 30 b_6_10 <= -1
neq2_6_10: d10 - d6 + 30 b_6_10 <= 29
bin_6_11: b_6_11 <= 1
neq1_6_11: d6 - d11 - 30 b_6_11 <= -1
neq2_6_11: d11 - d6 + 30 b_6_11 <= 29
bin_6_12: b_6_12 <= 1
neq1_6_12: d6 - d12 - 30 b_6_12 <= -1
neq2_6_12: d12 - d6 + 30 b_6_12 <= 29
bin_6_13: b_6_13 <= 1
neq1_6_13: d6 - d13 - 30 b_6_13 <= -1
neq2_6_13: d13 - d6 + 30 b_6_13 <= 29
bin_7_9: b_7_9 <= 1
neq1_7_9: d7 - d9 - 30 b_7_9 <= -1
neq2_7_9: d9 - d7 + 30 b_7_9 <= 29
bin_7_10: b_7_10 <= 1
neq1_7_10: d7 - d10 - 30 b_7_10 <= -1
neq2_7_10: d10 - d7 + 30 b_7_10 <= 29
bin_7_11: b_7_11 <= 1
neq1_7_11: d7 - d11 - 30 b_7_11 <= -1
neq2_7_11: d11 - d7 + 30 b_7_11 <= 29
bin_7_12: b_7_12 <= 1
neq1_7_12: d7 - d12 - 30 b_7_12 <= -1
neq2_7_12: d12 - d7 + 30 b_7_12 <= 29
bin_7_13: b_7_13 <= 1
neq1_7_13: d7 - d13 - 30 b_7_13 <= -1
neq2_7_13: d13 - d7 + 30 b_7_13 <= 29
bin_8_9: b_8_9 <= 1
neq1_8_9: d8 - d9 - 30 b_8_9 <= -1
neq2_8_9: d9 - d8 + 30 b_8_9 <= 29
bin_8_10: b_8_10 <= 1
neq1_8_10: d8 - d10 - 30 b_8_10 <= -1
neq2_8_10: d10 - d8 + 30 b_8_10 <= 29
bin_8_11: b_8_11 <= 1
neq1_8_11: d8 - d11 - 30 b_8_11 <= -1
neq2_8_11: d11 - d8 + 30 b_8_11 <= 29
bin_8_12: b_8_12 <= 1
neq1_8_12: d8 - d12 - 30 b_8_12 <= -1
neq2_8_12: d12 - d8 + 30 b_8_12 <= 29
bin_8_13: b_8_13 <= 1
neq1_8_13: d8 - d13 - 30 b_8_13 <= -1
neq2_8_13: d13 - d8 + 30 b_8_13 <= 29
sum_k3: d0 + d1 + d2 + d3 + d4 + d5 + d6 + d7 + d8 + d9 + d10 + d11 + d12 + d13 - 3 T = 0
fix0_1: x7_1 = 1
fix0_2: x7_2 = 1
fix0_3: x7_3 = 1
fix0_4: x7_4 = 1
fix0_5: x7_5 = 1
fix0_6: x7_6 = 1
fix0_7: x7_7 = 1
fix0_8: x7_8 = 1
fix0_9: x7_9 = 0
fix0_10: x7_10 = 0
fix0_11: x7_11 = 0
fix0_12: x7_12 = 0
fix0_13: x7_13 = 0
x1_2 + x1_3 + x1_4 + x1_5 + x1_6 + x1_7 + x1_8 + x2_3 + x2_4 + x2_5 + x2_6 + x2_7 + x2_8 + x3_4 + x3_5 + x3_6 + x3_7 + x3_8 + x4_5 + x4_6 + x4_7 + x4_8 + x5_6 + x5_7 + x5_8 + x6_7 + x6_8 + x7_8 = 7
x9_10 + x9_11 + x9_12 + x9_13 + x10_11 + x10_12 + x10_13 + x11_12 + x11_13 + x12_13 = -1
x1_9 + x1_10 + x1_11 + x1_12 + x1_13 + x2_9 + x2_10 + x2_11 + x2_12 + x2_13 + x3_9 + x3_10 + x3_11 + x3_12 + x3_13 + x4_9 + x4_10 + x4_11 + x4_12 + x4_13 + x5_9 + x5_10 + x5_11 + x5_12 + x5_13 + x6_9 + x6_10 + x6_11 + x6_12 + x6_13 + x7_9 + x7_10 + x7_11 + x7_12 + x7_13 + x8_9 + x8_10 + x8_11 + x8_12 + x8_13 = 42

Bounds
d0 = 7
8 <= d1 <= 20
8 <= d2 <= 20
8 <= d3 <= 20
8 <= d4 <= 20
8 <= d5 <= 20
8 <= d6 <= 20
8 <= d7 <= 20
8 <= d8 <= 20
8 <= d9 <= 20
8 <= d10 <= 20
8 <= d11 <= 20
8 <= d12 <= 20
8 <= d13 <= 20
tbounds: 63 <= T <= 63

Binary
 x0_1  x0_2  x0_3  x0_4  x0_5  x0_6  x0_7  x0_8  x0_9  x0_10  x0_11  x0_12  x0_13 
 x1_2  x1_3  x1_4  x1_5  x1_6  x1_7  x1_8  x1_9  x1_10  x1_11  x1_12  x1_13 
 x2_3  x2_4  x2_5  x2_6  x2_7  x2_8  x2_9  x2_10  x2_11  x2_12  x2_13 
 x3_4  x3_5  x3_6  x3_7  x3_8  x3_9  x3_10  x3_11  x3_12  x3_13 
 x4_5  x4_6  x4_7  x4_8  x4_9  x4_10  x4_11  x4_12  x4_13 
 x5_6  x5_7  x5_8  x5_9  x5_10  x5_11  x5_12  x5_13 
 x6_7  x6_8  x6_9  x6_10  x6_11  x6_12  x6_13 
 x7_8  x7_9  x7_10  x7_11  x7_12  x7_13 
 x8_9  x8_10  x8_11  x8_12  x8_13 
 x9_10  x9_11  x9_12  x9_13 
 x10_11  x10_12  x10_13 
 x11_12  x11_13 
 x12_13 
 t0_1_2
 t0_1_3
 t0_1_4
 t0_1_5
 t0_1_6
 t0_1_7
 t0_1_8
 t0_1_9
 t0_1_10
 t0_1_11
 t0_1_12
 t0_1_13
 t0_2_3
 t0_2_4
 t0_2_5
 t0_2_6
 t0_2_7
 t0_2_8
 t0_2_9
 t0_2_10
 t0_2_11
 t0_2_12
 t0_2_13
 t0_3_4
 t0_3_5
 t0_3_6
 t0_3_7
 t0_3_8
 t0_3_9
 t0_3_10
 t0_3_11
 t0_3_12
 t0_3_13
 t0_4_5
 t0_4_6
 t0_4_7
 t0_4_8
 t0_4_9
 t0_4_10
 t0_4_11
 t0_4_12
 t0_4_13
 t0_5_6
 t0_5_7
 t0_5_8
 t0_5_9
 t0_5_10
 t0_5_11
 t0_5_12
 t0_5_13
 t0_6_7
 t0_6_8
 t0_6_9
 t0_6_10
 t0_6_11
 t0_6_12
 t0_6_13
 t0_7_8
 t0_7_9
 t0_7_10
 t0_7_11
 t0_7_12
 t0_7_13
 t0_8_9
 t0_8_10
 t0_8_11
 t0_8_12
 t0_8_13
 t0_9_10
 t0_9_11
 t0_9_12
 t0_9_13
 t0_10_11
 t0_10_12
 t0_10_13
 t0_11_12
 t0_11_13
 t0_12_13
 t1_2_3
 t1_2_4
 t1_2_5
 t1_2_6
 t1_2_7
 t1_2_8
 t1_2_9
 t1_2_10
 t1_2_11
 t1_2_12
 t1_2_13
 t1_3_4
 t1_3_5
 t1_3_6
 t1_3_7
 t1_3_8
 t1_3_9
 t1_3_10
 t1_3_11
 t1_3_12
 t1_3_13
 t1_4_5
 t1_4_6
 t1_4_7
 t1_4_8
 t1_4_9
 t1_4_10
 t1_4_11
 t1_4_12
 t1_4_13
 t1_5_6
 t1_5_7
 t1_5_8
 t1_5_9
 t1_5_10
 t1_5_11
 t1_5_12
 t1_5_13
 t1_6_7
 t1_6_8
 t1_6_9
 t1_6_10
 t1_6_11
 t1_6_12
 t1_6_13
 t1_7_8
 t1_7_9
 t1_7_10
 t1_7_11
 t1_7_12
 t1_7_13
 t1_8_9
 t1_8_10
 t1_8_11
 t1_8_12
 t1_8_13
 t1_9_10
 t1_9_11
 t1_9_12
 t1_9_13
 t1_10_11
 t1_10_12
 t1_10_13
 t1_11_12
 t1_11_13
 t1_12_13
 t2_3_4
 t2_3_5
 t2_3_6
 t2_3_7
 t2_3_8
 t2_3_9
 t2_3_10
 t2_3_11
 t2_3_12
 t2_3_13
 t2_4_5
 t2_4_6
 t2_4_7
 t2_4_8
 t2_4_9
 t2_4_10
 t2_4_11
 t2_4_12
 t2_4_13
 t2_5_6
 t2_5_7
 t2_5_8
 t2_5_9
 t2_5_10
 t2_5_11
 t2_5_12
 t2_5_13
 t2_6_7
 t2_6_8
 t2_6_9
 t2_6_10
 t2_6_11
 t2_6_12
 t2_6_13
 t2_7_8
 t2_7_9
 t2_7_10
 t2_7_11
 t2_7_12
 t2_7_13
 t2_8_9
 t2_8_10
 t2_8_11
 t2_8_12
 t2_8_13
 t2_9_10
 t2_9_11
 t2_9_12
 t2_9_13
 t2_10_11
 t2_10_12
 t2_10_13
 t2_11_12
 t2_11_13
 t2_12_13
 t3_4_5
 t3_4_6
 t3_4_7
 t3_4_8
 t3_4_9
 t3_4_10
 t3_4_11
 t3_4_12
 t3_4_13
 t3_5_6
 t3_5_7
 t3_5_8
 t3_5_9
 t3_5_10
 t3_5_11
 t3_5_12
 t3_5_13
 t3_6_7
 t3_6_8
 t3_6_9
 t3_6_10
 t3_6_11
 t3_6_12
 t3_6_13
 t3_7_8
 t3_7_9
 t3_7_10
 t3_7_11
 t3_7_12
 t3_7_13
 t3_8_9
 t3_8_10
 t3_8_11
 t3_8_12
 t3_8_13
 t3_9_10
 t3_9_11
 t3_9_12
 t3_9_13
 t3_10_11
 t3_10_12
 t3_10_13
 t3_11_12
 t3_11_13
 t3_12_13
 t4_5_6
 t4_5_7
 t4_5_8
 t4_5_9
 t4_5_10
 t4_5_11
 t4_5_12
 t4_5_13
 t4_6_7
 t4_6_8
 t4_6_9
 t4_6_10
 t4_6_11
 t4_6_12
 t4_6_13
 t4_7_8
 t4_7_9
 t4_7_10
 t4_7_11
 t4_7_12
 t4_7_13
 t4_8_9
 t4_8_10
 t4_8_11
 t4_8_12
 t4_8_13
 t4_9_10
 t4_9_11
 t4_9_12
 t4_9_13
 t4_10_11
 t4_10_12
 t4_10_13
 t4_11_12
 t4_11_13
 t4_12_13
 t5_6_7
 t5_6_8
 t5_6_9
 t5_6_10
 t5_6_11
 t5_6_12
 t5_6_13
 t5_7_8
 t5_7_9
 t5_7_10
 t5_7_11
 t5_7_12
 t5_7_13
 t5_8_9
 t5_8_10
 t5_8_11
 t5_8_12
 t5_8_13
 t5_9_10
 t5_9_11
 t5_9_12
 t5_9_13
 t5_10_11
 t5_10_12
 t5_10_13
 t5_11_12
 t5_11_13
 t5_12_13
 t6_7_8
 t6_7_9
 t6_7_10
 t6_7_11
 t6_7_12
 t6_7_13
 t6_8_9
 t6_8_10
 t6_8_11
 t6_8_12
 t6_8_13
 t6_9_10
 t6_9_11
 t6_9_12
 t6_9_13
 t6_10_11
 t6_10_12
 t6_10_13
 t6_11_12
 t6_11_13
 t6_12_13
 t7_8_9
 t7_8_10
 t7_8_11
 t7_8_12
 t7_8_13
 t7_9_10
 t7_9_11
 t7_9_12
 t7_9_13
 t7_10_11
 t7_10_12
 t7_10_13
 t7_11_12
 t7_11_13
 t7_12_13
 t8_9_10
 t8_9_11
 t8_9_12
 t8_9_13
 t8_10_11
 t8_10_12
 t8_10_13
 t8_11_12
 t8_11_13
 t8_12_13
 t9_10_11
 t9_10_12
 t9_10_13
 t9_11_12
 t9_11_13
 t9_12_13
 t10_11_12
 t10_11_13
 t10_12_13
 t11_12_13
b_1_9
b_1_10
b_1_11
b_1_12
b_1_13
b_2_9
b_2_10
b_2_11
b_2_12
b_2_13
b_3_9
b_3_10
b_3_11
b_3_12
b_3_13
b_4_9
b_4_10
b_4_11
b_4_12
b_4_13
b_5_9
b_5_10
b_5_11
b_5_12
b_5_13
b_6_9
b_6_10
b_6_11
b_6_12
b_6_13
b_7_9
b_7_10
b_7_11
b_7_12
b_7_13
b_8_9
b_8_10
b_8_11
b_8_12
b_8_13


General
 d0
 d1
 d2
 d3
 d4
 d5
 d6
 d7
 d8
 d9
 d10
 d11
 d12
 d13
 T

End
