Minimize
 obj: Z

Subject To

fix10_11: x10_11 = 1
fix10_12: x10_12 = 1
fix10_13: x10_13 = 1
fix10_14: x10_14 = 1
fix10_15: x10_15 = 1
fix10_16: x10_16 = 1
fix10_17: x10_17 = 0
fix10_18: x10_18 = 0
fix10_19: x10_19 = 0
fix10_20: x10_20 = 0
fix10_21: x10_21 = 0
fix10_22: x10_22 = 0
fix10_23: x10_23 = 0
fix10_1: x1_10 = 1
fix10_2: x2_10 = 1
fix10_3: x3_10 = 1
fix10_4: x4_10 = 0
fix10_5: x5_10 = 0
fix10_6: x6_10 = 0
fix10_7: x7_10 = 0
fix10_8: x8_10 = 0
fix10_9: x9_10 = 0

fix3B_tri: x11_12 + x11_13 + x11_14 + x11_15 + x11_16 + x1_11 + x2_11 + x3_11 + x12_13 + x12_14 + x12_15 + x12_16 + x1_12 + x2_12 + x3_12 + x13_14 + x13_15 + x13_16 + x1_13 + x2_13 + x3_13 + x14_15 + x14_16 + x1_14 + x2_14 + x3_14 + x15_16 + x1_15 + x2_15 + x3_15 + x1_16 + x2_16 + x3_16 + x1_2 + x1_3 + x2_3 = 3

fix0_1: x0_1 = 1
fix0_2: x0_2 = 1
fix0_3: x0_3 = 1
fix0_4: x0_4 = 1
fix0_5: x0_5 = 1
fix0_6: x0_6 = 1
fix0_7: x0_7 = 1
fix0_8: x0_8 = 1
fix0_9: x0_9 = 1
fix0_10: x0_10 = 0
fix0_11: x0_11 = 0
fix0_12: x0_12 = 0
fix0_13: x0_13 = 0
fix0_14: x0_14 = 0
fix0_15: x0_15 = 0
fix0_16: x0_16 = 0
fix0_17: x0_17 = 0
fix0_18: x0_18 = 0
fix0_19: x0_19 = 0
fix0_20: x0_20 = 0
fix0_21: x0_21 = 0
fix0_22: x0_22 = 0
fix0_23: x0_23 = 0
edges_inside_A: x1_2 + x1_3 + x1_4 + x1_5 + x1_6 + x1_7 + x1_8 + x1_9 + x2_3 + x2_4 + x2_5 + x2_6 + x2_7 + x2_8 + x2_9 + x3_4 + x3_5 + x3_6 + x3_7 + x3_8 + x3_9 + x4_5 + x4_6 + x4_7 + x4_8 + x4_9 + x5_6 + x5_7 + x5_8 + x5_9 + x6_7 + x6_8 + x6_9 + x7_8 + x7_9 + x8_9 = 26
edges_inside_B: x10_11 + x10_12 + x10_13 + x10_14 + x10_15 + x10_16 + x10_17 + x10_18 + x10_19 + x10_20 + x10_21 + x10_22 + x10_23 + x11_12 + x11_13 + x11_14 + x11_15 + x11_16 + x11_17 + x11_18 + x11_19 + x11_20 + x11_21 + x11_22 + x11_23 + x12_13 + x12_14 + x12_15 + x12_16 + x12_17 + x12_18 + x12_19 + x12_20 + x12_21 + x12_22 + x12_23 + x13_14 + x13_15 + x13_16 + x13_17 + x13_18 + x13_19 + x13_20 + x13_21 + x13_22 + x13_23 + x14_15 + x14_16 + x14_17 + x14_18 + x14_19 + x14_20 + x14_21 + x14_22 + x14_23 + x15_16 + x15_17 + x15_18 + x15_19 + x15_20 + x15_21 + x15_22 + x15_23 + x16_17 + x16_18 + x16_19 + x16_20 + x16_21 + x16_22 + x16_23 + x17_18 + x17_19 + x17_20 + x17_21 + x17_22 + x17_23 + x18_19 + x18_20 + x18_21 + x18_22 + x18_23 + x19_20 + x19_21 + x19_22 + x19_23 + x20_21 + x20_22 + x20_23 + x21_22 + x21_23 + x22_23 = 53
edges_between_AB: x1_10 + x1_11 + x1_12 + x1_13 + x1_14 + x1_15 + x1_16 + x1_17 + x1_18 + x1_19 + x1_20 + x1_21 + x1_22 + x1_23 + x2_10 + x2_11 + x2_12 + x2_13 + x2_14 + x2_15 + x2_16 + x2_17 + x2_18 + x2_19 + x2_20 + x2_21 + x2_22 + x2_23 + x3_10 + x3_11 + x3_12 + x3_13 + x3_14 + x3_15 + x3_16 + x3_17 + x3_18 + x3_19 + x3_20 + x3_21 + x3_22 + x3_23 + x4_10 + x4_11 + x4_12 + x4_13 + x4_14 + x4_15 + x4_16 + x4_17 + x4_18 + x4_19 + x4_20 + x4_21 + x4_22 + x4_23 + x5_10 + x5_11 + x5_12 + x5_13 + x5_14 + x5_15 + x5_16 + x5_17 + x5_18 + x5_19 + x5_20 + x5_21 + x5_22 + x5_23 + x6_10 + x6_11 + x6_12 + x6_13 + x6_14 + x6_15 + x6_16 + x6_17 + x6_18 + x6_19 + x6_20 + x6_21 + x6_22 + x6_23 + x7_10 + x7_11 + x7_12 + x7_13 + x7_14 + x7_15 + x7_16 + x7_17 + x7_18 + x7_19 + x7_20 + x7_21 + x7_22 + x7_23 + x8_10 + x8_11 + x8_12 + x8_13 + x8_14 + x8_15 + x8_16 + x8_17 + x8_18 + x8_19 + x8_20 + x8_21 + x8_22 + x8_23 + x9_10 + x9_11 + x9_12 + x9_13 + x9_14 + x9_15 + x9_16 + x9_17 + x9_18 + x9_19 + x9_20 + x9_21 + x9_22 + x9_23 = 20


deg0: x0_1 + x0_2 + x0_3 + x0_4 + x0_5 + x0_6 + x0_7 + x0_8 + x0_9 + x0_10 + x0_11 + x0_12 + x0_13 + x0_14 + x0_15 + x0_16 + x0_17 + x0_18 + x0_19 + x0_20 + x0_21 + x0_22 + x0_23 = 9
deg1: x0_1 + x1_2 + x1_3 + x1_4 + x1_5 + x1_6 + x1_7 + x1_8 + x1_9 + x1_10 + x1_11 + x1_12 + x1_13 + x1_14 + x1_15 + x1_16 + x1_17 + x1_18 + x1_19 + x1_20 + x1_21 + x1_22 + x1_23 = 9
deg2: x0_2 + x1_2 + x2_3 + x2_4 + x2_5 + x2_6 + x2_7 + x2_8 + x2_9 + x2_10 + x2_11 + x2_12 + x2_13 + x2_14 + x2_15 + x2_16 + x2_17 + x2_18 + x2_19 + x2_20 + x2_21 + x2_22 + x2_23 = 9
deg3: x0_3 + x1_3 + x2_3 + x3_4 + x3_5 + x3_6 + x3_7 + x3_8 + x3_9 + x3_10 + x3_11 + x3_12 + x3_13 + x3_14 + x3_15 + x3_16 + x3_17 + x3_18 + x3_19 + x3_20 + x3_21 + x3_22 + x3_23 = 9
deg4: x0_4 + x1_4 + x2_4 + x3_4 + x4_5 + x4_6 + x4_7 + x4_8 + x4_9 + x4_10 + x4_11 + x4_12 + x4_13 + x4_14 + x4_15 + x4_16 + x4_17 + x4_18 + x4_19 + x4_20 + x4_21 + x4_22 + x4_23 = 9
deg5: x0_5 + x1_5 + x2_5 + x3_5 + x4_5 + x5_6 + x5_7 + x5_8 + x5_9 + x5_10 + x5_11 + x5_12 + x5_13 + x5_14 + x5_15 + x5_16 + x5_17 + x5_18 + x5_19 + x5_20 + x5_21 + x5_22 + x5_23 = 9
deg6: x0_6 + x1_6 + x2_6 + x3_6 + x4_6 + x5_6 + x6_7 + x6_8 + x6_9 + x6_10 + x6_11 + x6_12 + x6_13 + x6_14 + x6_15 + x6_16 + x6_17 + x6_18 + x6_19 + x6_20 + x6_21 + x6_22 + x6_23 = 9
deg7: x0_7 + x1_7 + x2_7 + x3_7 + x4_7 + x5_7 + x6_7 + x7_8 + x7_9 + x7_10 + x7_11 + x7_12 + x7_13 + x7_14 + x7_15 + x7_16 + x7_17 + x7_18 + x7_19 + x7_20 + x7_21 + x7_22 + x7_23 = 9
deg8: x0_8 + x1_8 + x2_8 + x3_8 + x4_8 + x5_8 + x6_8 + x7_8 + x8_9 + x8_10 + x8_11 + x8_12 + x8_13 + x8_14 + x8_15 + x8_16 + x8_17 + x8_18 + x8_19 + x8_20 + x8_21 + x8_22 + x8_23 = 9
deg9: x0_9 + x1_9 + x2_9 + x3_9 + x4_9 + x5_9 + x6_9 + x7_9 + x8_9 + x9_10 + x9_11 + x9_12 + x9_13 + x9_14 + x9_15 + x9_16 + x9_17 + x9_18 + x9_19 + x9_20 + x9_21 + x9_22 + x9_23 = 9
deg10: x0_10 + x1_10 + x2_10 + x3_10 + x4_10 + x5_10 + x6_10 + x7_10 + x8_10 + x9_10 + x10_11 + x10_12 + x10_13 + x10_14 + x10_15 + x10_16 + x10_17 + x10_18 + x10_19 + x10_20 + x10_21 + x10_22 + x10_23 = 9
deg11: x0_11 + x1_11 + x2_11 + x3_11 + x4_11 + x5_11 + x6_11 + x7_11 + x8_11 + x9_11 + x10_11 + x11_12 + x11_13 + x11_14 + x11_15 + x11_16 + x11_17 + x11_18 + x11_19 + x11_20 + x11_21 + x11_22 + x11_23 = 9
deg12: x0_12 + x1_12 + x2_12 + x3_12 + x4_12 + x5_12 + x6_12 + x7_12 + x8_12 + x9_12 + x10_12 + x11_12 + x12_13 + x12_14 + x12_15 + x12_16 + x12_17 + x12_18 + x12_19 + x12_20 + x12_21 + x12_22 + x12_23 = 9
deg13: x0_13 + x1_13 + x2_13 + x3_13 + x4_13 + x5_13 + x6_13 + x7_13 + x8_13 + x9_13 + x10_13 + x11_13 + x12_13 + x13_14 + x13_15 + x13_16 + x13_17 + x13_18 + x13_19 + x13_20 + x13_21 + x13_22 + x13_23 = 9
deg14: x0_14 + x1_14 + x2_14 + x3_14 + x4_14 + x5_14 + x6_14 + x7_14 + x8_14 + x9_14 + x10_14 + x11_14 + x12_14 + x13_14 + x14_15 + x14_16 + x14_17 + x14_18 + x14_19 + x14_20 + x14_21 + x14_22 + x14_23 = 9
deg15: x0_15 + x1_15 + x2_15 + x3_15 + x4_15 + x5_15 + x6_15 + x7_15 + x8_15 + x9_15 + x10_15 + x11_15 + x12_15 + x13_15 + x14_15 + x15_16 + x15_17 + x15_18 + x15_19 + x15_20 + x15_21 + x15_22 + x15_23 = 9
deg16: x0_16 + x1_16 + x2_16 + x3_16 + x4_16 + x5_16 + x6_16 + x7_16 + x8_16 + x9_16 + x10_16 + x11_16 + x12_16 + x13_16 + x14_16 + x15_16 + x16_17 + x16_18 + x16_19 + x16_20 + x16_21 + x16_22 + x16_23 = 9
deg17: x0_17 + x1_17 + x2_17 + x3_17 + x4_17 + x5_17 + x6_17 + x7_17 + x8_17 + x9_17 + x10_17 + x11_17 + x12_17 + x13_17 + x14_17 + x15_17 + x16_17 + x17_18 + x17_19 + x17_20 + x17_21 + x17_22 + x17_23 = 9
deg18: x0_18 + x1_18 + x2_18 + x3_18 + x4_18 + x5_18 + x6_18 + x7_18 + x8_18 + x9_18 + x10_18 + x11_18 + x12_18 + x13_18 + x14_18 + x15_18 + x16_18 + x17_18 + x18_19 + x18_20 + x18_21 + x18_22 + x18_23 = 9
deg19: x0_19 + x1_19 + x2_19 + x3_19 + x4_19 + x5_19 + x6_19 + x7_19 + x8_19 + x9_19 + x10_19 + x11_19 + x12_19 + x13_19 + x14_19 + x15_19 + x16_19 + x17_19 + x18_19 + x19_20 + x19_21 + x19_22 + x19_23 = 9
deg20: x0_20 + x1_20 + x2_20 + x3_20 + x4_20 + x5_20 + x6_20 + x7_20 + x8_20 + x9_20 + x10_20 + x11_20 + x12_20 + x13_20 + x14_20 + x15_20 + x16_20 + x17_20 + x18_20 + x19_20 + x20_21 + x20_22 + x20_23 = 9
deg21: x0_21 + x1_21 + x2_21 + x3_21 + x4_21 + x5_21 + x6_21 + x7_21 + x8_21 + x9_21 + x10_21 + x11_21 + x12_21 + x13_21 + x14_21 + x15_21 + x16_21 + x17_21 + x18_21 + x19_21 + x20_21 + x21_22 + x21_23 = 9
deg22: x0_22 + x1_22 + x2_22 + x3_22 + x4_22 + x5_22 + x6_22 + x7_22 + x8_22 + x9_22 + x10_22 + x11_22 + x12_22 + x13_22 + x14_22 + x15_22 + x16_22 + x17_22 + x18_22 + x19_22 + x20_22 + x21_22 + x22_23 = 9
deg23: x0_23 + x1_23 + x2_23 + x3_23 + x4_23 + x5_23 + x6_23 + x7_23 + x8_23 + x9_23 + x10_23 + x11_23 + x12_23 + x13_23 + x14_23 + x15_23 + x16_23 + x17_23 + x18_23 + x19_23 + x20_23 + x21_23 + x22_23 = 9

notruetwins_0_1: t0_1_2 + t0_1_3 + t0_1_4 + t0_1_5 + t0_1_6 + t0_1_7 + t0_1_8 + t0_1_9 + t0_1_10 + t0_1_11 + t0_1_12 + t0_1_13 + t0_1_14 + t0_1_15 + t0_1_16 + t0_1_17 + t0_1_18 + t0_1_19 + t0_1_20 + t0_1_21 + t0_1_22 + t0_1_23 <= 7
notruetwins_0_2: t0_1_2 + t0_2_3 + t0_2_4 + t0_2_5 + t0_2_6 + t0_2_7 + t0_2_8 + t0_2_9 + t0_2_10 + t0_2_11 + t0_2_12 + t0_2_13 + t0_2_14 + t0_2_15 + t0_2_16 + t0_2_17 + t0_2_18 + t0_2_19 + t0_2_20 + t0_2_21 + t0_2_22 + t0_2_23 <= 7
notruetwins_0_3: t0_1_3 + t0_2_3 + t0_3_4 + t0_3_5 + t0_3_6 + t0_3_7 + t0_3_8 + t0_3_9 + t0_3_10 + t0_3_11 + t0_3_12 + t0_3_13 + t0_3_14 + t0_3_15 + t0_3_16 + t0_3_17 + t0_3_18 + t0_3_19 + t0_3_20 + t0_3_21 + t0_3_22 + t0_3_23 <= 7
notruetwins_0_4: t0_1_4 + t0_2_4 + t0_3_4 + t0_4_5 + t0_4_6 + t0_4_7 + t0_4_8 + t0_4_9 + t0_4_10 + t0_4_11 + t0_4_12 + t0_4_13 + t0_4_14 + t0_4_15 + t0_4_16 + t0_4_17 + t0_4_18 + t0_4_19 + t0_4_20 + t0_4_21 + t0_4_22 + t0_4_23 <= 7
notruetwins_0_5: t0_1_5 + t0_2_5 + t0_3_5 + t0_4_5 + t0_5_6 + t0_5_7 + t0_5_8 + t0_5_9 + t0_5_10 + t0_5_11 + t0_5_12 + t0_5_13 + t0_5_14 + t0_5_15 + t0_5_16 + t0_5_17 + t0_5_18 + t0_5_19 + t0_5_20 + t0_5_21 + t0_5_22 + t0_5_23 <= 7
notruetwins_0_6: t0_1_6 + t0_2_6 + t0_3_6 + t0_4_6 + t0_5_6 + t0_6_7 + t0_6_8 + t0_6_9 + t0_6_10 + t0_6_11 + t0_6_12 + t0_6_13 + t0_6_14 + t0_6_15 + t0_6_16 + t0_6_17 + t0_6_18 + t0_6_19 + t0_6_20 + t0_6_21 + t0_6_22 + t0_6_23 <= 7
notruetwins_0_7: t0_1_7 + t0_2_7 + t0_3_7 + t0_4_7 + t0_5_7 + t0_6_7 + t0_7_8 + t0_7_9 + t0_7_10 + t0_7_11 + t0_7_12 + t0_7_13 + t0_7_14 + t0_7_15 + t0_7_16 + t0_7_17 + t0_7_18 + t0_7_19 + t0_7_20 + t0_7_21 + t0_7_22 + t0_7_23 <= 7
notruetwins_0_8: t0_1_8 + t0_2_8 + t0_3_8 + t0_4_8 + t0_5_8 + t0_6_8 + t0_7_8 + t0_8_9 + t0_8_10 + t0_8_11 + t0_8_12 + t0_8_13 + t0_8_14 + t0_8_15 + t0_8_16 + t0_8_17 + t0_8_18 + t0_8_19 + t0_8_20 + t0_8_21 + t0_8_22 + t0_8_23 <= 7
notruetwins_0_9: t0_1_9 + t0_2_9 + t0_3_9 + t0_4_9 + t0_5_9 + t0_6_9 + t0_7_9 + t0_8_9 + t0_9_10 + t0_9_11 + t0_9_12 + t0_9_13 + t0_9_14 + t0_9_15 + t0_9_16 + t0_9_17 + t0_9_18 + t0_9_19 + t0_9_20 + t0_9_21 + t0_9_22 + t0_9_23 <= 7
notruetwins_0_10: t0_1_10 + t0_2_10 + t0_3_10 + t0_4_10 + t0_5_10 + t0_6_10 + t0_7_10 + t0_8_10 + t0_9_10 + t0_10_11 + t0_10_12 + t0_10_13 + t0_10_14 + t0_10_15 + t0_10_16 + t0_10_17 + t0_10_18 + t0_10_19 + t0_10_20 + t0_10_21 + t0_10_22 + t0_10_23 <= 7
notruetwins_0_11: t0_1_11 + t0_2_11 + t0_3_11 + t0_4_11 + t0_5_11 + t0_6_11 + t0_7_11 + t0_8_11 + t0_9_11 + t0_10_11 + t0_11_12 + t0_11_13 + t0_11_14 + t0_11_15 + t0_11_16 + t0_11_17 + t0_11_18 + t0_11_19 + t0_11_20 + t0_11_21 + t0_11_22 + t0_11_23 <= 7
notruetwins_0_12: t0_1_12 + t0_2_12 + t0_3_12 + t0_4_12 + t0_5_12 + t0_6_12 + t0_7_12 + t0_8_12 + t0_9_12 + t0_10_12 + t0_11_12 + t0_12_13 + t0_12_14 + t0_12_15 + t0_12_16 + t0_12_17 + t0_12_18 + t0_12_19 + t0_12_20 + t0_12_21 + t0_12_22 + t0_12_23 <= 7
notruetwins_0_13: t0_1_13 + t0_2_13 + t0_3_13 + t0_4_13 + t0_5_13 + t0_6_13 + t0_7_13 + t0_8_13 + t0_9_13 + t0_10_13 + t0_11_13 + t0_12_13 + t0_13_14 + t0_13_15 + t0_13_16 + t0_13_17 + t0_13_18 + t0_13_19 + t0_13_20 + t0_13_21 + t0_13_22 + t0_13_23 <= 7
notruetwins_0_14: t0_1_14 + t0_2_14 + t0_3_14 + t0_4_14 + t0_5_14 + t0_6_14 + t0_7_14 + t0_8_14 + t0_9_14 + t0_10_14 + t0_11_14 + t0_12_14 + t0_13_14 + t0_14_15 + t0_14_16 + t0_14_17 + t0_14_18 + t0_14_19 + t0_14_20 + t0_14_21 + t0_14_22 + t0_14_23 <= 7
notruetwins_0_15: t0_1_15 + t0_2_15 + t0_3_15 + t0_4_15 + t0_5_15 + t0_6_15 + t0_7_15 + t0_8_15 + t0_9_15 + t0_10_15 + t0_11_15 + t0_12_15 + t0_13_15 + t0_14_15 + t0_15_16 + t0_15_17 + t0_15_18 + t0_15_19 + t0_15_20 + t0_15_21 + t0_15_22 + t0_15_23 <= 7
notruetwins_0_16: t0_1_16 + t0_2_16 + t0_3_16 + t0_4_16 + t0_5_16 + t0_6_16 + t0_7_16 + t0_8_16 + t0_9_16 + t0_10_16 + t0_11_16 + t0_12_16 + t0_13_16 + t0_14_16 + t0_15_16 + t0_16_17 + t0_16_18 + t0_16_19 + t0_16_20 + t0_16_21 + t0_16_22 + t0_16_23 <= 7
notruetwins_0_17: t0_1_17 + t0_2_17 + t0_3_17 + t0_4_17 + t0_5_17 + t0_6_17 + t0_7_17 + t0_8_17 + t0_9_17 + t0_10_17 + t0_11_17 + t0_12_17 + t0_13_17 + t0_14_17 + t0_15_17 + t0_16_17 + t0_17_18 + t0_17_19 + t0_17_20 + t0_17_21 + t0_17_22 + t0_17_23 <= 7
notruetwins_0_18: t0_1_18 + t0_2_18 + t0_3_18 + t0_4_18 + t0_5_18 + t0_6_18 + t0_7_18 + t0_8_18 + t0_9_18 + t0_10_18 + t0_11_18 + t0_12_18 + t0_13_18 + t0_14_18 + t0_15_18 + t0_16_18 + t0_17_18 + t0_18_19 + t0_18_20 + t0_18_21 + t0_18_22 + t0_18_23 <= 7
notruetwins_0_19: t0_1_19 + t0_2_19 + t0_3_19 + t0_4_19 + t0_5_19 + t0_6_19 + t0_7_19 + t0_8_19 + t0_9_19 + t0_10_19 + t0_11_19 + t0_12_19 + t0_13_19 + t0_14_19 + t0_15_19 + t0_16_19 + t0_17_19 + t0_18_19 + t0_19_20 + t0_19_21 + t0_19_22 + t0_19_23 <= 7
notruetwins_0_20: t0_1_20 + t0_2_20 + t0_3_20 + t0_4_20 + t0_5_20 + t0_6_20 + t0_7_20 + t0_8_20 + t0_9_20 + t0_10_20 + t0_11_20 + t0_12_20 + t0_13_20 + t0_14_20 + t0_15_20 + t0_16_20 + t0_17_20 + t0_18_20 + t0_19_20 + t0_20_21 + t0_20_22 + t0_20_23 <= 7
notruetwins_0_21: t0_1_21 + t0_2_21 + t0_3_21 + t0_4_21 + t0_5_21 + t0_6_21 + t0_7_21 + t0_8_21 + t0_9_21 + t0_10_21 + t0_11_21 + t0_12_21 + t0_13_21 + t0_14_21 + t0_15_21 + t0_16_21 + t0_17_21 + t0_18_21 + t0_19_21 + t0_20_21 + t0_21_22 + t0_21_23 <= 7
notruetwins_0_22: t0_1_22 + t0_2_22 + t0_3_22 + t0_4_22 + t0_5_22 + t0_6_22 + t0_7_22 + t0_8_22 + t0_9_22 + t0_10_22 + t0_11_22 + t0_12_22 + t0_13_22 + t0_14_22 + t0_15_22 + t0_16_22 + t0_17_22 + t0_18_22 + t0_19_22 + t0_20_22 + t0_21_22 + t0_22_23 <= 7
notruetwins_0_23: t0_1_23 + t0_2_23 + t0_3_23 + t0_4_23 + t0_5_23 + t0_6_23 + t0_7_23 + t0_8_23 + t0_9_23 + t0_10_23 + t0_11_23 + t0_12_23 + t0_13_23 + t0_14_23 + t0_15_23 + t0_16_23 + t0_17_23 + t0_18_23 + t0_19_23 + t0_20_23 + t0_21_23 + t0_22_23 <= 7
notruetwins_1_2: t0_1_2 + t1_2_3 + t1_2_4 + t1_2_5 + t1_2_6 + t1_2_7 + t1_2_8 + t1_2_9 + t1_2_10 + t1_2_11 + t1_2_12 + t1_2_13 + t1_2_14 + t1_2_15 + t1_2_16 + t1_2_17 + t1_2_18 + t1_2_19 + t1_2_20 + t1_2_21 + t1_2_22 + t1_2_23 <= 7
notruetwins_1_3: t0_1_3 + t1_2_3 + t1_3_4 + t1_3_5 + t1_3_6 + t1_3_7 + t1_3_8 + t1_3_9 + t1_3_10 + t1_3_11 + t1_3_12 + t1_3_13 + t1_3_14 + t1_3_15 + t1_3_16 + t1_3_17 + t1_3_18 + t1_3_19 + t1_3_20 + t1_3_21 + t1_3_22 + t1_3_23 <= 7
notruetwins_1_4: t0_1_4 + t1_2_4 + t1_3_4 + t1_4_5 + t1_4_6 + t1_4_7 + t1_4_8 + t1_4_9 + t1_4_10 + t1_4_11 + t1_4_12 + t1_4_13 + t1_4_14 + t1_4_15 + t1_4_16 + t1_4_17 + t1_4_18 + t1_4_19 + t1_4_20 + t1_4_21 + t1_4_22 + t1_4_23 <= 7
notruetwins_1_5: t0_1_5 + t1_2_5 + t1_3_5 + t1_4_5 + t1_5_6 + t1_5_7 + t1_5_8 + t1_5_9 + t1_5_10 + t1_5_11 + t1_5_12 + t1_5_13 + t1_5_14 + t1_5_15 + t1_5_16 + t1_5_17 + t1_5_18 + t1_5_19 + t1_5_20 + t1_5_21 + t1_5_22 + t1_5_23 <= 7
notruetwins_1_6: t0_1_6 + t1_2_6 + t1_3_6 + t1_4_6 + t1_5_6 + t1_6_7 + t1_6_8 + t1_6_9 + t1_6_10 + t1_6_11 + t1_6_12 + t1_6_13 + t1_6_14 + t1_6_15 + t1_6_16 + t1_6_17 + t1_6_18 + t1_6_19 + t1_6_20 + t1_6_21 + t1_6_22 + t1_6_23 <= 7
notruetwins_1_7: t0_1_7 + t1_2_7 + t1_3_7 + t1_4_7 + t1_5_7 + t1_6_7 + t1_7_8 + t1_7_9 + t1_7_10 + t1_7_11 + t1_7_12 + t1_7_13 + t1_7_14 + t1_7_15 + t1_7_16 + t1_7_17 + t1_7_18 + t1_7_19 + t1_7_20 + t1_7_21 + t1_7_22 + t1_7_23 <= 7
notruetwins_1_8: t0_1_8 + t1_2_8 + t1_3_8 + t1_4_8 + t1_5_8 + t1_6_8 + t1_7_8 + t1_8_9 + t1_8_10 + t1_8_11 + t1_8_12 + t1_8_13 + t1_8_14 + t1_8_15 + t1_8_16 + t1_8_17 + t1_8_18 + t1_8_19 + t1_8_20 + t1_8_21 + t1_8_22 + t1_8_23 <= 7
notruetwins_1_9: t0_1_9 + t1_2_9 + t1_3_9 + t1_4_9 + t1_5_9 + t1_6_9 + t1_7_9 + t1_8_9 + t1_9_10 + t1_9_11 + t1_9_12 + t1_9_13 + t1_9_14 + t1_9_15 + t1_9_16 + t1_9_17 + t1_9_18 + t1_9_19 + t1_9_20 + t1_9_21 + t1_9_22 + t1_9_23 <= 7
notruetwins_1_10: t0_1_10 + t1_2_10 + t1_3_10 + t1_4_10 + t1_5_10 + t1_6_10 + t1_7_10 + t1_8_10 + t1_9_10 + t1_10_11 + t1_10_12 + t1_10_13 + t1_10_14 + t1_10_15 + t1_10_16 + t1_10_17 + t1_10_18 + t1_10_19 + t1_10_20 + t1_10_21 + t1_10_22 + t1_10_23 <= 7
notruetwins_1_11: t0_1_11 + t1_2_11 + t1_3_11 + t1_4_11 + t1_5_11 + t1_6_11 + t1_7_11 + t1_8_11 + t1_9_11 + t1_10_11 + t1_11_12 + t1_11_13 + t1_11_14 + t1_11_15 + t1_11_16 + t1_11_17 + t1_11_18 + t1_11_19 + t1_11_20 + t1_11_21 + t1_11_22 + t1_11_23 <= 7
notruetwins_1_12: t0_1_12 + t1_2_12 + t1_3_12 + t1_4_12 + t1_5_12 + t1_6_12 + t1_7_12 + t1_8_12 + t1_9_12 + t1_10_12 + t1_11_12 + t1_12_13 + t1_12_14 + t1_12_15 + t1_12_16 + t1_12_17 + t1_12_18 + t1_12_19 + t1_12_20 + t1_12_21 + t1_12_22 + t1_12_23 <= 7
notruetwins_1_13: t0_1_13 + t1_2_13 + t1_3_13 + t1_4_13 + t1_5_13 + t1_6_13 + t1_7_13 + t1_8_13 + t1_9_13 + t1_10_13 + t1_11_13 + t1_12_13 + t1_13_14 + t1_13_15 + t1_13_16 + t1_13_17 + t1_13_18 + t1_13_19 + t1_13_20 + t1_13_21 + t1_13_22 + t1_13_23 <= 7
notruetwins_1_14: t0_1_14 + t1_2_14 + t1_3_14 + t1_4_14 + t1_5_14 + t1_6_14 + t1_7_14 + t1_8_14 + t1_9_14 + t1_10_14 + t1_11_14 + t1_12_14 + t1_13_14 + t1_14_15 + t1_14_16 + t1_14_17 + t1_14_18 + t1_14_19 + t1_14_20 + t1_14_21 + t1_14_22 + t1_14_23 <= 7
notruetwins_1_15: t0_1_15 + t1_2_15 + t1_3_15 + t1_4_15 + t1_5_15 + t1_6_15 + t1_7_15 + t1_8_15 + t1_9_15 + t1_10_15 + t1_11_15 + t1_12_15 + t1_13_15 + t1_14_15 + t1_15_16 + t1_15_17 + t1_15_18 + t1_15_19 + t1_15_20 + t1_15_21 + t1_15_22 + t1_15_23 <= 7
notruetwins_1_16: t0_1_16 + t1_2_16 + t1_3_16 + t1_4_16 + t1_5_16 + t1_6_16 + t1_7_16 + t1_8_16 + t1_9_16 + t1_10_16 + t1_11_16 + t1_12_16 + t1_13_16 + t1_14_16 + t1_15_16 + t1_16_17 + t1_16_18 + t1_16_19 + t1_16_20 + t1_16_21 + t1_16_22 + t1_16_23 <= 7
notruetwins_1_17: t0_1_17 + t1_2_17 + t1_3_17 + t1_4_17 + t1_5_17 + t1_6_17 + t1_7_17 + t1_8_17 + t1_9_17 + t1_10_17 + t1_11_17 + t1_12_17 + t1_13_17 + t1_14_17 + t1_15_17 + t1_16_17 + t1_17_18 + t1_17_19 + t1_17_20 + t1_17_21 + t1_17_22 + t1_17_23 <= 7
notruetwins_1_18: t0_1_18 + t1_2_18 + t1_3_18 + t1_4_18 + t1_5_18 + t1_6_18 + t1_7_18 + t1_8_18 + t1_9_18 + t1_10_18 + t1_11_18 + t1_12_18 + t1_13_18 + t1_14_18 + t1_15_18 + t1_16_18 + t1_17_18 + t1_18_19 + t1_18_20 + t1_18_21 + t1_18_22 + t1_18_23 <= 7
notruetwins_1_19: t0_1_19 + t1_2_19 + t1_3_19 + t1_4_19 + t1_5_19 + t1_6_19 + t1_7_19 + t1_8_19 + t1_9_19 + t1_10_19 + t1_11_19 + t1_12_19 + t1_13_19 + t1_14_19 + t1_15_19 + t1_16_19 + t1_17_19 + t1_18_19 + t1_19_20 + t1_19_21 + t1_19_22 + t1_19_23 <= 7
notruetwins_1_20: t0_1_20 + t1_2_20 + t1_3_20 + t1_4_20 + t1_5_20 + t1_6_20 + t1_7_20 + t1_8_20 + t1_9_20 + t1_10_20 + t1_11_20 + t1_12_20 + t1_13_20 + t1_14_20 + t1_15_20 + t1_16_20 + t1_17_20 + t1_18_20 + t1_19_20 + t1_20_21 + t1_20_22 + t1_20_23 <= 7
notruetwins_1_21: t0_1_21 + t1_2_21 + t1_3_21 + t1_4_21 + t1_5_21 + t1_6_21 + t1_7_21 + t1_8_21 + t1_9_21 + t1_10_21 + t1_11_21 + t1_12_21 + t1_13_21 + t1_14_21 + t1_15_21 + t1_16_21 + t1_17_21 + t1_18_21 + t1_19_21 + t1_20_21 + t1_21_22 + t1_21_23 <= 7
notruetwins_1_22: t0_1_22 + t1_2_22 + t1_3_22 + t1_4_22 + t1_5_22 + t1_6_22 + t1_7_22 + t1_8_22 + t1_9_22 + t1_10_22 + t1_11_22 + t1_12_22 + t1_13_22 + t1_14_22 + t1_15_22 + t1_16_22 + t1_17_22 + t1_18_22 + t1_19_22 + t1_20_22 + t1_21_22 + t1_22_23 <= 7
notruetwins_1_23: t0_1_23 + t1_2_23 + t1_3_23 + t1_4_23 + t1_5_23 + t1_6_23 + t1_7_23 + t1_8_23 + t1_9_23 + t1_10_23 + t1_11_23 + t1_12_23 + t1_13_23 + t1_14_23 + t1_15_23 + t1_16_23 + t1_17_23 + t1_18_23 + t1_19_23 + t1_20_23 + t1_21_23 + t1_22_23 <= 7
notruetwins_2_3: t0_2_3 + t1_2_3 + t2_3_4 + t2_3_5 + t2_3_6 + t2_3_7 + t2_3_8 + t2_3_9 + t2_3_10 + t2_3_11 + t2_3_12 + t2_3_13 + t2_3_14 + t2_3_15 + t2_3_16 + t2_3_17 + t2_3_18 + t2_3_19 + t2_3_20 + t2_3_21 + t2_3_22 + t2_3_23 <= 7
notruetwins_2_4: t0_2_4 + t1_2_4 + t2_3_4 + t2_4_5 + t2_4_6 + t2_4_7 + t2_4_8 + t2_4_9 + t2_4_10 + t2_4_11 + t2_4_12 + t2_4_13 + t2_4_14 + t2_4_15 + t2_4_16 + t2_4_17 + t2_4_18 + t2_4_19 + t2_4_20 + t2_4_21 + t2_4_22 + t2_4_23 <= 7
notruetwins_2_5: t0_2_5 + t1_2_5 + t2_3_5 + t2_4_5 + t2_5_6 + t2_5_7 + t2_5_8 + t2_5_9 + t2_5_10 + t2_5_11 + t2_5_12 + t2_5_13 + t2_5_14 + t2_5_15 + t2_5_16 + t2_5_17 + t2_5_18 + t2_5_19 + t2_5_20 + t2_5_21 + t2_5_22 + t2_5_23 <= 7
notruetwins_2_6: t0_2_6 + t1_2_6 + t2_3_6 + t2_4_6 + t2_5_6 + t2_6_7 + t2_6_8 + t2_6_9 + t2_6_10 + t2_6_11 + t2_6_12 + t2_6_13 + t2_6_14 + t2_6_15 + t2_6_16 + t2_6_17 + t2_6_18 + t2_6_19 + t2_6_20 + t2_6_21 + t2_6_22 + t2_6_23 <= 7
notruetwins_2_7: t0_2_7 + t1_2_7 + t2_3_7 + t2_4_7 + t2_5_7 + t2_6_7 + t2_7_8 + t2_7_9 + t2_7_10 + t2_7_11 + t2_7_12 + t2_7_13 + t2_7_14 + t2_7_15 + t2_7_16 + t2_7_17 + t2_7_18 + t2_7_19 + t2_7_20 + t2_7_21 + t2_7_22 + t2_7_23 <= 7
notruetwins_2_8: t0_2_8 + t1_2_8 + t2_3_8 + t2_4_8 + t2_5_8 + t2_6_8 + t2_7_8 + t2_8_9 + t2_8_10 + t2_8_11 + t2_8_12 + t2_8_13 + t2_8_14 + t2_8_15 + t2_8_16 + t2_8_17 + t2_8_18 + t2_8_19 + t2_8_20 + t2_8_21 + t2_8_22 + t2_8_23 <= 7
notruetwins_2_9: t0_2_9 + t1_2_9 + t2_3_9 + t2_4_9 + t2_5_9 + t2_6_9 + t2_7_9 + t2_8_9 + t2_9_10 + t2_9_11 + t2_9_12 + t2_9_13 + t2_9_14 + t2_9_15 + t2_9_16 + t2_9_17 + t2_9_18 + t2_9_19 + t2_9_20 + t2_9_21 + t2_9_22 + t2_9_23 <= 7
notruetwins_2_10: t0_2_10 + t1_2_10 + t2_3_10 + t2_4_10 + t2_5_10 + t2_6_10 + t2_7_10 + t2_8_10 + t2_9_10 + t2_10_11 + t2_10_12 + t2_10_13 + t2_10_14 + t2_10_15 + t2_10_16 + t2_10_17 + t2_10_18 + t2_10_19 + t2_10_20 + t2_10_21 + t2_10_22 + t2_10_23 <= 7
notruetwins_2_11: t0_2_11 + t1_2_11 + t2_3_11 + t2_4_11 + t2_5_11 + t2_6_11 + t2_7_11 + t2_8_11 + t2_9_11 + t2_10_11 + t2_11_12 + t2_11_13 + t2_11_14 + t2_11_15 + t2_11_16 + t2_11_17 + t2_11_18 + t2_11_19 + t2_11_20 + t2_11_21 + t2_11_22 + t2_11_23 <= 7
notruetwins_2_12: t0_2_12 + t1_2_12 + t2_3_12 + t2_4_12 + t2_5_12 + t2_6_12 + t2_7_12 + t2_8_12 + t2_9_12 + t2_10_12 + t2_11_12 + t2_12_13 + t2_12_14 + t2_12_15 + t2_12_16 + t2_12_17 + t2_12_18 + t2_12_19 + t2_12_20 + t2_12_21 + t2_12_22 + t2_12_23 <= 7
notruetwins_2_13: t0_2_13 + t1_2_13 + t2_3_13 + t2_4_13 + t2_5_13 + t2_6_13 + t2_7_13 + t2_8_13 + t2_9_13 + t2_10_13 + t2_11_13 + t2_12_13 + t2_13_14 + t2_13_15 + t2_13_16 + t2_13_17 + t2_13_18 + t2_13_19 + t2_13_20 + t2_13_21 + t2_13_22 + t2_13_23 <= 7
notruetwins_2_14: t0_2_14 + t1_2_14 + t2_3_14 + t2_4_14 + t2_5_14 + t2_6_14 + t2_7_14 + t2_8_14 + t2_9_14 + t2_10_14 + t2_11_14 + t2_12_14 + t2_13_14 + t2_14_15 + t2_14_16 + t2_14_17 + t2_14_18 + t2_14_19 + t2_14_20 + t2_14_21 + t2_14_22 + t2_14_23 <= 7
notruetwins_2_15: t0_2_15 + t1_2_15 + t2_3_15 + t2_4_15 + t2_5_15 + t2_6_15 + t2_7_15 + t2_8_15 + t2_9_15 + t2_10_15 + t2_11_15 + t2_12_15 + t2_13_15 + t2_14_15 + t2_15_16 + t2_15_17 + t2_15_18 + t2_15_19 + t2_15_20 + t2_15_21 + t2_15_22 + t2_15_23 <= 7
notruetwins_2_16: t0_2_16 + t1_2_16 + t2_3_16 + t2_4_16 + t2_5_16 + t2_6_16 + t2_7_16 + t2_8_16 + t2_9_16 + t2_10_16 + t2_11_16 + t2_12_16 + t2_13_16 + t2_14_16 + t2_15_16 + t2_16_17 + t2_16_18 + t2_16_19 + t2_16_20 + t2_16_21 + t2_16_22 + t2_16_23 <= 7
notruetwins_2_17: t0_2_17 + t1_2_17 + t2_3_17 + t2_4_17 + t2_5_17 + t2_6_17 + t2_7_17 + t2_8_17 + t2_9_17 + t2_10_17 + t2_11_17 + t2_12_17 + t2_13_17 + t2_14_17 + t2_15_17 + t2_16_17 + t2_17_18 + t2_17_19 + t2_17_20 + t2_17_21 + t2_17_22 + t2_17_23 <= 7
notruetwins_2_18: t0_2_18 + t1_2_18 + t2_3_18 + t2_4_18 + t2_5_18 + t2_6_18 + t2_7_18 + t2_8_18 + t2_9_18 + t2_10_18 + t2_11_18 + t2_12_18 + t2_13_18 + t2_14_18 + t2_15_18 + t2_16_18 + t2_17_18 + t2_18_19 + t2_18_20 + t2_18_21 + t2_18_22 + t2_18_23 <= 7
notruetwins_2_19: t0_2_19 + t1_2_19 + t2_3_19 + t2_4_19 + t2_5_19 + t2_6_19 + t2_7_19 + t2_8_19 + t2_9_19 + t2_10_19 + t2_11_19 + t2_12_19 + t2_13_19 + t2_14_19 + t2_15_19 + t2_16_19 + t2_17_19 + t2_18_19 + t2_19_20 + t2_19_21 + t2_19_22 + t2_19_23 <= 7
notruetwins_2_20: t0_2_20 + t1_2_20 + t2_3_20 + t2_4_20 + t2_5_20 + t2_6_20 + t2_7_20 + t2_8_20 + t2_9_20 + t2_10_20 + t2_11_20 + t2_12_20 + t2_13_20 + t2_14_20 + t2_15_20 + t2_16_20 + t2_17_20 + t2_18_20 + t2_19_20 + t2_20_21 + t2_20_22 + t2_20_23 <= 7
notruetwins_2_21: t0_2_21 + t1_2_21 + t2_3_21 + t2_4_21 + t2_5_21 + t2_6_21 + t2_7_21 + t2_8_21 + t2_9_21 + t2_10_21 + t2_11_21 + t2_12_21 + t2_13_21 + t2_14_21 + t2_15_21 + t2_16_21 + t2_17_21 + t2_18_21 + t2_19_21 + t2_20_21 + t2_21_22 + t2_21_23 <= 7
notruetwins_2_22: t0_2_22 + t1_2_22 + t2_3_22 + t2_4_22 + t2_5_22 + t2_6_22 + t2_7_22 + t2_8_22 + t2_9_22 + t2_10_22 + t2_11_22 + t2_12_22 + t2_13_22 + t2_14_22 + t2_15_22 + t2_16_22 + t2_17_22 + t2_18_22 + t2_19_22 + t2_20_22 + t2_21_22 + t2_22_23 <= 7
notruetwins_2_23: t0_2_23 + t1_2_23 + t2_3_23 + t2_4_23 + t2_5_23 + t2_6_23 + t2_7_23 + t2_8_23 + t2_9_23 + t2_10_23 + t2_11_23 + t2_12_23 + t2_13_23 + t2_14_23 + t2_15_23 + t2_16_23 + t2_17_23 + t2_18_23 + t2_19_23 + t2_20_23 + t2_21_23 + t2_22_23 <= 7
notruetwins_3_4: t0_3_4 + t1_3_4 + t2_3_4 + t3_4_5 + t3_4_6 + t3_4_7 + t3_4_8 + t3_4_9 + t3_4_10 + t3_4_11 + t3_4_12 + t3_4_13 + t3_4_14 + t3_4_15 + t3_4_16 + t3_4_17 + t3_4_18 + t3_4_19 + t3_4_20 + t3_4_21 + t3_4_22 + t3_4_23 <= 7
notruetwins_3_5: t0_3_5 + t1_3_5 + t2_3_5 + t3_4_5 + t3_5_6 + t3_5_7 + t3_5_8 + t3_5_9 + t3_5_10 + t3_5_11 + t3_5_12 + t3_5_13 + t3_5_14 + t3_5_15 + t3_5_16 + t3_5_17 + t3_5_18 + t3_5_19 + t3_5_20 + t3_5_21 + t3_5_22 + t3_5_23 <= 7
notruetwins_3_6: t0_3_6 + t1_3_6 + t2_3_6 + t3_4_6 + t3_5_6 + t3_6_7 + t3_6_8 + t3_6_9 + t3_6_10 + t3_6_11 + t3_6_12 + t3_6_13 + t3_6_14 + t3_6_15 + t3_6_16 + t3_6_17 + t3_6_18 + t3_6_19 + t3_6_20 + t3_6_21 + t3_6_22 + t3_6_23 <= 7
notruetwins_3_7: t0_3_7 + t1_3_7 + t2_3_7 + t3_4_7 + t3_5_7 + t3_6_7 + t3_7_8 + t3_7_9 + t3_7_10 + t3_7_11 + t3_7_12 + t3_7_13 + t3_7_14 + t3_7_15 + t3_7_16 + t3_7_17 + t3_7_18 + t3_7_19 + t3_7_20 + t3_7_21 + t3_7_22 + t3_7_23 <= 7
notruetwins_3_8: t0_3_8 + t1_3_8 + t2_3_8 + t3_4_8 + t3_5_8 + t3_6_8 + t3_7_8 + t3_8_9 + t3_8_10 + t3_8_11 + t3_8_12 + t3_8_13 + t3_8_14 + t3_8_15 + t3_8_16 + t3_8_17 + t3_8_18 + t3_8_19 + t3_8_20 + t3_8_21 + t3_8_22 + t3_8_23 <= 7
notruetwins_3_9: t0_3_9 + t1_3_9 + t2_3_9 + t3_4_9 + t3_5_9 + t3_6_9 + t3_7_9 + t3_8_9 + t3_9_10 + t3_9_11 + t3_9_12 + t3_9_13 + t3_9_14 + t3_9_15 + t3_9_16 + t3_9_17 + t3_9_18 + t3_9_19 + t3_9_20 + t3_9_21 + t3_9_22 + t3_9_23 <= 7
notruetwins_3_10: t0_3_10 + t1_3_10 + t2_3_10 + t3_4_10 + t3_5_10 + t3_6_10 + t3_7_10 + t3_8_10 + t3_9_10 + t3_10_11 + t3_10_12 + t3_10_13 + t3_10_14 + t3_10_15 + t3_10_16 + t3_10_17 + t3_10_18 + t3_10_19 + t3_10_20 + t3_10_21 + t3_10_22 + t3_10_23 <= 7
notruetwins_3_11: t0_3_11 + t1_3_11 + t2_3_11 + t3_4_11 + t3_5_11 + t3_6_11 + t3_7_11 + t3_8_11 + t3_9_11 + t3_10_11 + t3_11_12 + t3_11_13 + t3_11_14 + t3_11_15 + t3_11_16 + t3_11_17 + t3_11_18 + t3_11_19 + t3_11_20 + t3_11_21 + t3_11_22 + t3_11_23 <= 7
notruetwins_3_12: t0_3_12 + t1_3_12 + t2_3_12 + t3_4_12 + t3_5_12 + t3_6_12 + t3_7_12 + t3_8_12 + t3_9_12 + t3_10_12 + t3_11_12 + t3_12_13 + t3_12_14 + t3_12_15 + t3_12_16 + t3_12_17 + t3_12_18 + t3_12_19 + t3_12_20 + t3_12_21 + t3_12_22 + t3_12_23 <= 7
notruetwins_3_13: t0_3_13 + t1_3_13 + t2_3_13 + t3_4_13 + t3_5_13 + t3_6_13 + t3_7_13 + t3_8_13 + t3_9_13 + t3_10_13 + t3_11_13 + t3_12_13 + t3_13_14 + t3_13_15 + t3_13_16 + t3_13_17 + t3_13_18 + t3_13_19 + t3_13_20 + t3_13_21 + t3_13_22 + t3_13_23 <= 7
notruetwins_3_14: t0_3_14 + t1_3_14 + t2_3_14 + t3_4_14 + t3_5_14 + t3_6_14 + t3_7_14 + t3_8_14 + t3_9_14 + t3_10_14 + t3_11_14 + t3_12_14 + t3_13_14 + t3_14_15 + t3_14_16 + t3_14_17 + t3_14_18 + t3_14_19 + t3_14_20 + t3_14_21 + t3_14_22 + t3_14_23 <= 7
notruetwins_3_15: t0_3_15 + t1_3_15 + t2_3_15 + t3_4_15 + t3_5_15 + t3_6_15 + t3_7_15 + t3_8_15 + t3_9_15 + t3_10_15 + t3_11_15 + t3_12_15 + t3_13_15 + t3_14_15 + t3_15_16 + t3_15_17 + t3_15_18 + t3_15_19 + t3_15_20 + t3_15_21 + t3_15_22 + t3_15_23 <= 7
notruetwins_3_16: t0_3_16 + t1_3_16 + t2_3_16 + t3_4_16 + t3_5_16 + t3_6_16 + t3_7_16 + t3_8_16 + t3_9_16 + t3_10_16 + t3_11_16 + t3_12_16 + t3_13_16 + t3_14_16 + t3_15_16 + t3_16_17 + t3_16_18 + t3_16_19 + t3_16_20 + t3_16_21 + t3_16_22 + t3_16_23 <= 7
notruetwins_3_17: t0_3_17 + t1_3_17 + t2_3_17 + t3_4_17 + t3_5_17 + t3_6_17 + t3_7_17 + t3_8_17 + t3_9_17 + t3_10_17 + t3_11_17 + t3_12_17 + t3_13_17 + t3_14_17 + t3_15_17 + t3_16_17 + t3_17_18 + t3_17_19 + t3_17_20 + t3_17_21 + t3_17_22 + t3_17_23 <= 7
notruetwins_3_18: t0_3_18 + t1_3_18 + t2_3_18 + t3_4_18 + t3_5_18 + t3_6_18 + t3_7_18 + t3_8_18 + t3_9_18 + t3_10_18 + t3_11_18 + t3_12_18 + t3_13_18 + t3_14_18 + t3_15_18 + t3_16_18 + t3_17_18 + t3_18_19 + t3_18_20 + t3_18_21 + t3_18_22 + t3_18_23 <= 7
notruetwins_3_19: t0_3_19 + t1_3_19 + t2_3_19 + t3_4_19 + t3_5_19 + t3_6_19 + t3_7_19 + t3_8_19 + t3_9_19 + t3_10_19 + t3_11_19 + t3_12_19 + t3_13_19 + t3_14_19 + t3_15_19 + t3_16_19 + t3_17_19 + t3_18_19 + t3_19_20 + t3_19_21 + t3_19_22 + t3_19_23 <= 7
notruetwins_3_20: t0_3_20 + t1_3_20 + t2_3_20 + t3_4_20 + t3_5_20 + t3_6_20 + t3_7_20 + t3_8_20 + t3_9_20 + t3_10_20 + t3_11_20 + t3_12_20 + t3_13_20 + t3_14_20 + t3_15_20 + t3_16_20 + t3_17_20 + t3_18_20 + t3_19_20 + t3_20_21 + t3_20_22 + t3_20_23 <= 7
notruetwins_3_21: t0_3_21 + t1_3_21 + t2_3_21 + t3_4_21 + t3_5_21 + t3_6_21 + t3_7_21 + t3_8_21 + t3_9_21 + t3_10_21 + t3_11_21 + t3_12_21 + t3_13_21 + t3_14_21 + t3_15_21 + t3_16_21 + t3_17_21 + t3_18_21 + t3_19_21 + t3_20_21 + t3_21_22 + t3_21_23 <= 7
notruetwins_3_22: t0_3_22 + t1_3_22 + t2_3_22 + t3_4_22 + t3_5_22 + t3_6_22 + t3_7_22 + t3_8_22 + t3_9_22 + t3_10_22 + t3_11_22 + t3_12_22 + t3_13_22 + t3_14_22 + t3_15_22 + t3_16_22 + t3_17_22 + t3_18_22 + t3_19_22 + t3_20_22 + t3_21_22 + t3_22_23 <= 7
notruetwins_3_23: t0_3_23 + t1_3_23 + t2_3_23 + t3_4_23 + t3_5_23 + t3_6_23 + t3_7_23 + t3_8_23 + t3_9_23 + t3_10_23 + t3_11_23 + t3_12_23 + t3_13_23 + t3_14_23 + t3_15_23 + t3_16_23 + t3_17_23 + t3_18_23 + t3_19_23 + t3_20_23 + t3_21_23 + t3_22_23 <= 7
notruetwins_4_5: t0_4_5 + t1_4_5 + t2_4_5 + t3_4_5 + t4_5_6 + t4_5_7 + t4_5_8 + t4_5_9 + t4_5_10 + t4_5_11 + t4_5_12 + t4_5_13 + t4_5_14 + t4_5_15 + t4_5_16 + t4_5_17 + t4_5_18 + t4_5_19 + t4_5_20 + t4_5_21 + t4_5_22 + t4_5_23 <= 7
notruetwins_4_6: t0_4_6 + t1_4_6 + t2_4_6 + t3_4_6 + t4_5_6 + t4_6_7 + t4_6_8 + t4_6_9 + t4_6_10 + t4_6_11 + t4_6_12 + t4_6_13 + t4_6_14 + t4_6_15 + t4_6_16 + t4_6_17 + t4_6_18 + t4_6_19 + t4_6_20 + t4_6_21 + t4_6_22 + t4_6_23 <= 7
notruetwins_4_7: t0_4_7 + t1_4_7 + t2_4_7 + t3_4_7 + t4_5_7 + t4_6_7 + t4_7_8 + t4_7_9 + t4_7_10 + t4_7_11 + t4_7_12 + t4_7_13 + t4_7_14 + t4_7_15 + t4_7_16 + t4_7_17 + t4_7_18 + t4_7_19 + t4_7_20 + t4_7_21 + t4_7_22 + t4_7_23 <= 7
notruetwins_4_8: t0_4_8 + t1_4_8 + t2_4_8 + t3_4_8 + t4_5_8 + t4_6_8 + t4_7_8 + t4_8_9 + t4_8_10 + t4_8_11 + t4_8_12 + t4_8_13 + t4_8_14 + t4_8_15 + t4_8_16 + t4_8_17 + t4_8_18 + t4_8_19 + t4_8_20 + t4_8_21 + t4_8_22 + t4_8_23 <= 7
notruetwins_4_9: t0_4_9 + t1_4_9 + t2_4_9 + t3_4_9 + t4_5_9 + t4_6_9 + t4_7_9 + t4_8_9 + t4_9_10 + t4_9_11 + t4_9_12 + t4_9_13 + t4_9_14 + t4_9_15 + t4_9_16 + t4_9_17 + t4_9_18 + t4_9_19 + t4_9_20 + t4_9_21 + t4_9_22 + t4_9_23 <= 7
notruetwins_4_10: t0_4_10 + t1_4_10 + t2_4_10 + t3_4_10 + t4_5_10 + t4_6_10 + t4_7_10 + t4_8_10 + t4_9_10 + t4_10_11 + t4_10_12 + t4_10_13 + t4_10_14 + t4_10_15 + t4_10_16 + t4_10_17 + t4_10_18 + t4_10_19 + t4_10_20 + t4_10_21 + t4_10_22 + t4_10_23 <= 7
notruetwins_4_11: t0_4_11 + t1_4_11 + t2_4_11 + t3_4_11 + t4_5_11 + t4_6_11 + t4_7_11 + t4_8_11 + t4_9_11 + t4_10_11 + t4_11_12 + t4_11_13 + t4_11_14 + t4_11_15 + t4_11_16 + t4_11_17 + t4_11_18 + t4_11_19 + t4_11_20 + t4_11_21 + t4_11_22 + t4_11_23 <= 7
notruetwins_4_12: t0_4_12 + t1_4_12 + t2_4_12 + t3_4_12 + t4_5_12 + t4_6_12 + t4_7_12 + t4_8_12 + t4_9_12 + t4_10_12 + t4_11_12 + t4_12_13 + t4_12_14 + t4_12_15 + t4_12_16 + t4_12_17 + t4_12_18 + t4_12_19 + t4_12_20 + t4_12_21 + t4_12_22 + t4_12_23 <= 7
notruetwins_4_13: t0_4_13 + t1_4_13 + t2_4_13 + t3_4_13 + t4_5_13 + t4_6_13 + t4_7_13 + t4_8_13 + t4_9_13 + t4_10_13 + t4_11_13 + t4_12_13 + t4_13_14 + t4_13_15 + t4_13_16 + t4_13_17 + t4_13_18 + t4_13_19 + t4_13_20 + t4_13_21 + t4_13_22 + t4_13_23 <= 7
notruetwins_4_14: t0_4_14 + t1_4_14 + t2_4_14 + t3_4_14 + t4_5_14 + t4_6_14 + t4_7_14 + t4_8_14 + t4_9_14 + t4_10_14 + t4_11_14 + t4_12_14 + t4_13_14 + t4_14_15 + t4_14_16 + t4_14_17 + t4_14_18 + t4_14_19 + t4_14_20 + t4_14_21 + t4_14_22 + t4_14_23 <= 7
notruetwins_4_15: t0_4_15 + t1_4_15 + t2_4_15 + t3_4_15 + t4_5_15 + t4_6_15 + t4_7_15 + t4_8_15 + t4_9_15 + t4_10_15 + t4_11_15 + t4_12_15 + t4_13_15 + t4_14_15 + t4_15_16 + t4_15_17 + t4_15_18 + t4_15_19 + t4_15_20 + t4_15_21 + t4_15_22 + t4_15_23 <= 7
notruetwins_4_16: t0_4_16 + t1_4_16 + t2_4_16 + t3_4_16 + t4_5_16 + t4_6_16 + t4_7_16 + t4_8_16 + t4_9_16 + t4_10_16 + t4_11_16 + t4_12_16 + t4_13_16 + t4_14_16 + t4_15_16 + t4_16_17 + t4_16_18 + t4_16_19 + t4_16_20 + t4_16_21 + t4_16_22 + t4_16_23 <= 7
notruetwins_4_17: t0_4_17 + t1_4_17 + t2_4_17 + t3_4_17 + t4_5_17 + t4_6_17 + t4_7_17 + t4_8_17 + t4_9_17 + t4_10_17 + t4_11_17 + t4_12_17 + t4_13_17 + t4_14_17 + t4_15_17 + t4_16_17 + t4_17_18 + t4_17_19 + t4_17_20 + t4_17_21 + t4_17_22 + t4_17_23 <= 7
notruetwins_4_18: t0_4_18 + t1_4_18 + t2_4_18 + t3_4_18 + t4_5_18 + t4_6_18 + t4_7_18 + t4_8_18 + t4_9_18 + t4_10_18 + t4_11_18 + t4_12_18 + t4_13_18 + t4_14_18 + t4_15_18 + t4_16_18 + t4_17_18 + t4_18_19 + t4_18_20 + t4_18_21 + t4_18_22 + t4_18_23 <= 7
notruetwins_4_19: t0_4_19 + t1_4_19 + t2_4_19 + t3_4_19 + t4_5_19 + t4_6_19 + t4_7_19 + t4_8_19 + t4_9_19 + t4_10_19 + t4_11_19 + t4_12_19 + t4_13_19 + t4_14_19 + t4_15_19 + t4_16_19 + t4_17_19 + t4_18_19 + t4_19_20 + t4_19_21 + t4_19_22 + t4_19_23 <= 7
notruetwins_4_20: t0_4_20 + t1_4_20 + t2_4_20 + t3_4_20 + t4_5_20 + t4_6_20 + t4_7_20 + t4_8_20 + t4_9_20 + t4_10_20 + t4_11_20 + t4_12_20 + t4_13_20 + t4_14_20 + t4_15_20 + t4_16_20 + t4_17_20 + t4_18_20 + t4_19_20 + t4_20_21 + t4_20_22 + t4_20_23 <= 7
notruetwins_4_21: t0_4_21 + t1_4_21 + t2_4_21 + t3_4_21 + t4_5_21 + t4_6_21 + t4_7_21 + t4_8_21 + t4_9_21 + t4_10_21 + t4_11_21 + t4_12_21 + t4_13_21 + t4_14_21 + t4_15_21 + t4_16_21 + t4_17_21 + t4_18_21 + t4_19_21 + t4_20_21 + t4_21_22 + t4_21_23 <= 7
notruetwins_4_22: t0_4_22 + t1_4_22 + t2_4_22 + t3_4_22 + t4_5_22 + t4_6_22 + t4_7_22 + t4_8_22 + t4_9_22 + t4_10_22 + t4_11_22 + t4_12_22 + t4_13_22 + t4_14_22 + t4_15_22 + t4_16_22 + t4_17_22 + t4_18_22 + t4_19_22 + t4_20_22 + t4_21_22 + t4_22_23 <= 7
notruetwins_4_23: t0_4_23 + t1_4_23 + t2_4_23 + t3_4_23 + t4_5_23 + t4_6_23 + t4_7_23 + t4_8_23 + t4_9_23 + t4_10_23 + t4_11_23 + t4_12_23 + t4_13_23 + t4_14_23 + t4_15_23 + t4_16_23 + t4_17_23 + t4_18_23 + t4_19_23 + t4_20_23 + t4_21_23 + t4_22_23 <= 7
notruetwins_5_6: t0_5_6 + t1_5_6 + t2_5_6 + t3_5_6 + t4_5_6 + t5_6_7 + t5_6_8 + t5_6_9 + t5_6_10 + t5_6_11 + t5_6_12 + t5_6_13 + t5_6_14 + t5_6_15 + t5_6_16 + t5_6_17 + t5_6_18 + t5_6_19 + t5_6_20 + t5_6_21 + t5_6_22 + t5_6_23 <= 7
notruetwins_5_7: t0_5_7 + t1_5_7 + t2_5_7 + t3_5_7 + t4_5_7 + t5_6_7 + t5_7_8 + t5_7_9 + t5_7_10 + t5_7_11 + t5_7_12 + t5_7_13 + t5_7_14 + t5_7_15 + t5_7_16 + t5_7_17 + t5_7_18 + t5_7_19 + t5_7_20 + t5_7_21 + t5_7_22 + t5_7_23 <= 7
notruetwins_5_8: t0_5_8 + t1_5_8 + t2_5_8 + t3_5_8 + t4_5_8 + t5_6_8 + t5_7_8 + t5_8_9 + t5_8_10 + t5_8_11 + t5_8_12 + t5_8_13 + t5_8_14 + t5_8_15 + t5_8_16 + t5_8_17 + t5_8_18 + t5_8_19 + t5_8_20 + t5_8_21 + t5_8_22 + t5_8_23 <= 7
notruetwins_5_9: t0_5_9 + t1_5_9 + t2_5_9 + t3_5_9 + t4_5_9 + t5_6_9 + t5_7_9 + t5_8_9 + t5_9_10 + t5_9_11 + t5_9_12 + t5_9_13 + t5_9_14 + t5_9_15 + t5_9_16 + t5_9_17 + t5_9_18 + t5_9_19 + t5_9_20 + t5_9_21 + t5_9_22 + t5_9_23 <= 7
notruetwins_5_10: t0_5_10 + t1_5_10 + t2_5_10 + t3_5_10 + t4_5_10 + t5_6_10 + t5_7_10 + t5_8_10 + t5_9_10 + t5_10_11 + t5_10_12 + t5_10_13 + t5_10_14 + t5_10_15 + t5_10_16 + t5_10_17 + t5_10_18 + t5_10_19 + t5_10_20 + t5_10_21 + t5_10_22 + t5_10_23 <= 7
notruetwins_5_11: t0_5_11 + t1_5_11 + t2_5_11 + t3_5_11 + t4_5_11 + t5_6_11 + t5_7_11 + t5_8_11 + t5_9_11 + t5_10_11 + t5_11_12 + t5_11_13 + t5_11_14 + t5_11_15 + t5_11_16 + t5_11_17 + t5_11_18 + t5_11_19 + t5_11_20 + t5_11_21 + t5_11_22 + t5_11_23 <= 7
notruetwins_5_12: t0_5_12 + t1_5_12 + t2_5_12 + t3_5_12 + t4_5_12 + t5_6_12 + t5_7_12 + t5_8_12 + t5_9_12 + t5_10_12 + t5_11_12 + t5_12_13 + t5_12_14 + t5_12_15 + t5_12_16 + t5_12_17 + t5_12_18 + t5_12_19 + t5_12_20 + t5_12_21 + t5_12_22 + t5_12_23 <= 7
notruetwins_5_13: t0_5_13 + t1_5_13 + t2_5_13 + t3_5_13 + t4_5_13 + t5_6_13 + t5_7_13 + t5_8_13 + t5_9_13 + t5_10_13 + t5_11_13 + t5_12_13 + t5_13_14 + t5_13_15 + t5_13_16 + t5_13_17 + t5_13_18 + t5_13_19 + t5_13_20 + t5_13_21 + t5_13_22 + t5_13_23 <= 7
notruetwins_5_14: t0_5_14 + t1_5_14 + t2_5_14 + t3_5_14 + t4_5_14 + t5_6_14 + t5_7_14 + t5_8_14 + t5_9_14 + t5_10_14 + t5_11_14 + t5_12_14 + t5_13_14 + t5_14_15 + t5_14_16 + t5_14_17 + t5_14_18 + t5_14_19 + t5_14_20 + t5_14_21 + t5_14_22 + t5_14_23 <= 7
notruetwins_5_15: t0_5_15 + t1_5_15 + t2_5_15 + t3_5_15 + t4_5_15 + t5_6_15 + t5_7_15 + t5_8_15 + t5_9_15 + t5_10_15 + t5_11_15 + t5_12_15 + t5_13_15 + t5_14_15 + t5_15_16 + t5_15_17 + t5_15_18 + t5_15_19 + t5_15_20 + t5_15_21 + t5_15_22 + t5_15_23 <= 7
notruetwins_5_16: t0_5_16 + t1_5_16 + t2_5_16 + t3_5_16 + t4_5_16 + t5_6_16 + t5_7_16 + t5_8_16 + t5_9_16 + t5_10_16 + t5_11_16 + t5_12_16 + t5_13_16 + t5_14_16 + t5_15_16 + t5_16_17 + t5_16_18 + t5_16_19 + t5_16_20 + t5_16_21 + t5_16_22 + t5_16_23 <= 7
notruetwins_5_17: t0_5_17 + t1_5_17 + t2_5_17 + t3_5_17 + t4_5_17 + t5_6_17 + t5_7_17 + t5_8_17 + t5_9_17 + t5_10_17 + t5_11_17 + t5_12_17 + t5_13_17 + t5_14_17 + t5_15_17 + t5_16_17 + t5_17_18 + t5_17_19 + t5_17_20 + t5_17_21 + t5_17_22 + t5_17_23 <= 7
notruetwins_5_18: t0_5_18 + t1_5_18 + t2_5_18 + t3_5_18 + t4_5_18 + t5_6_18 + t5_7_18 + t5_8_18 + t5_9_18 + t5_10_18 + t5_11_18 + t5_12_18 + t5_13_18 + t5_14_18 + t5_15_18 + t5_16_18 + t5_17_18 + t5_18_19 + t5_18_20 + t5_18_21 + t5_18_22 + t5_18_23 <= 7
notruetwins_5_19: t0_5_19 + t1_5_19 + t2_5_19 + t3_5_19 + t4_5_19 + t5_6_19 + t5_7_19 + t5_8_19 + t5_9_19 + t5_10_19 + t5_11_19 + t5_12_19 + t5_13_19 + t5_14_19 + t5_15_19 + t5_16_19 + t5_17_19 + t5_18_19 + t5_19_20 + t5_19_21 + t5_19_22 + t5_19_23 <= 7
notruetwins_5_20: t0_5_20 + t1_5_20 + t2_5_20 + t3_5_20 + t4_5_20 + t5_6_20 + t5_7_20 + t5_8_20 + t5_9_20 + t5_10_20 + t5_11_20 + t5_12_20 + t5_13_20 + t5_14_20 + t5_15_20 + t5_16_20 + t5_17_20 + t5_18_20 + t5_19_20 + t5_20_21 + t5_20_22 + t5_20_23 <= 7
notruetwins_5_21: t0_5_21 + t1_5_21 + t2_5_21 + t3_5_21 + t4_5_21 + t5_6_21 + t5_7_21 + t5_8_21 + t5_9_21 + t5_10_21 + t5_11_21 + t5_12_21 + t5_13_21 + t5_14_21 + t5_15_21 + t5_16_21 + t5_17_21 + t5_18_21 + t5_19_21 + t5_20_21 + t5_21_22 + t5_21_23 <= 7
notruetwins_5_22: t0_5_22 + t1_5_22 + t2_5_22 + t3_5_22 + t4_5_22 + t5_6_22 + t5_7_22 + t5_8_22 + t5_9_22 + t5_10_22 + t5_11_22 + t5_12_22 + t5_13_22 + t5_14_22 + t5_15_22 + t5_16_22 + t5_17_22 + t5_18_22 + t5_19_22 + t5_20_22 + t5_21_22 + t5_22_23 <= 7
notruetwins_5_23: t0_5_23 + t1_5_23 + t2_5_23 + t3_5_23 + t4_5_23 + t5_6_23 + t5_7_23 + t5_8_23 + t5_9_23 + t5_10_23 + t5_11_23 + t5_12_23 + t5_13_23 + t5_14_23 + t5_15_23 + t5_16_23 + t5_17_23 + t5_18_23 + t5_19_23 + t5_20_23 + t5_21_23 + t5_22_23 <= 7
notruetwins_6_7: t0_6_7 + t1_6_7 + t2_6_7 + t3_6_7 + t4_6_7 + t5_6_7 + t6_7_8 + t6_7_9 + t6_7_10 + t6_7_11 + t6_7_12 + t6_7_13 + t6_7_14 + t6_7_15 + t6_7_16 + t6_7_17 + t6_7_18 + t6_7_19 + t6_7_20 + t6_7_21 + t6_7_22 + t6_7_23 <= 7
notruetwins_6_8: t0_6_8 + t1_6_8 + t2_6_8 + t3_6_8 + t4_6_8 + t5_6_8 + t6_7_8 + t6_8_9 + t6_8_10 + t6_8_11 + t6_8_12 + t6_8_13 + t6_8_14 + t6_8_15 + t6_8_16 + t6_8_17 + t6_8_18 + t6_8_19 + t6_8_20 + t6_8_21 + t6_8_22 + t6_8_23 <= 7
notruetwins_6_9: t0_6_9 + t1_6_9 + t2_6_9 + t3_6_9 + t4_6_9 + t5_6_9 + t6_7_9 + t6_8_9 + t6_9_10 + t6_9_11 + t6_9_12 + t6_9_13 + t6_9_14 + t6_9_15 + t6_9_16 + t6_9_17 + t6_9_18 + t6_9_19 + t6_9_20 + t6_9_21 + t6_9_22 + t6_9_23 <= 7
notruetwins_6_10: t0_6_10 + t1_6_10 + t2_6_10 + t3_6_10 + t4_6_10 + t5_6_10 + t6_7_10 + t6_8_10 + t6_9_10 + t6_10_11 + t6_10_12 + t6_10_13 + t6_10_14 + t6_10_15 + t6_10_16 + t6_10_17 + t6_10_18 + t6_10_19 + t6_10_20 + t6_10_21 + t6_10_22 + t6_10_23 <= 7
notruetwins_6_11: t0_6_11 + t1_6_11 + t2_6_11 + t3_6_11 + t4_6_11 + t5_6_11 + t6_7_11 + t6_8_11 + t6_9_11 + t6_10_11 + t6_11_12 + t6_11_13 + t6_11_14 + t6_11_15 + t6_11_16 + t6_11_17 + t6_11_18 + t6_11_19 + t6_11_20 + t6_11_21 + t6_11_22 + t6_11_23 <= 7
notruetwins_6_12: t0_6_12 + t1_6_12 + t2_6_12 + t3_6_12 + t4_6_12 + t5_6_12 + t6_7_12 + t6_8_12 + t6_9_12 + t6_10_12 + t6_11_12 + t6_12_13 + t6_12_14 + t6_12_15 + t6_12_16 + t6_12_17 + t6_12_18 + t6_12_19 + t6_12_20 + t6_12_21 + t6_12_22 + t6_12_23 <= 7
notruetwins_6_13: t0_6_13 + t1_6_13 + t2_6_13 + t3_6_13 + t4_6_13 + t5_6_13 + t6_7_13 + t6_8_13 + t6_9_13 + t6_10_13 + t6_11_13 + t6_12_13 + t6_13_14 + t6_13_15 + t6_13_16 + t6_13_17 + t6_13_18 + t6_13_19 + t6_13_20 + t6_13_21 + t6_13_22 + t6_13_23 <= 7
notruetwins_6_14: t0_6_14 + t1_6_14 + t2_6_14 + t3_6_14 + t4_6_14 + t5_6_14 + t6_7_14 + t6_8_14 + t6_9_14 + t6_10_14 + t6_11_14 + t6_12_14 + t6_13_14 + t6_14_15 + t6_14_16 + t6_14_17 + t6_14_18 + t6_14_19 + t6_14_20 + t6_14_21 + t6_14_22 + t6_14_23 <= 7
notruetwins_6_15: t0_6_15 + t1_6_15 + t2_6_15 + t3_6_15 + t4_6_15 + t5_6_15 + t6_7_15 + t6_8_15 + t6_9_15 + t6_10_15 + t6_11_15 + t6_12_15 + t6_13_15 + t6_14_15 + t6_15_16 + t6_15_17 + t6_15_18 + t6_15_19 + t6_15_20 + t6_15_21 + t6_15_22 + t6_15_23 <= 7
notruetwins_6_16: t0_6_16 + t1_6_16 + t2_6_16 + t3_6_16 + t4_6_16 + t5_6_16 + t6_7_16 + t6_8_16 + t6_9_16 + t6_10_16 + t6_11_16 + t6_12_16 + t6_13_16 + t6_14_16 + t6_15_16 + t6_16_17 + t6_16_18 + t6_16_19 + t6_16_20 + t6_16_21 + t6_16_22 + t6_16_23 <= 7
notruetwins_6_17: t0_6_17 + t1_6_17 + t2_6_17 + t3_6_17 + t4_6_17 + t5_6_17 + t6_7_17 + t6_8_17 + t6_9_17 + t6_10_17 + t6_11_17 + t6_12_17 + t6_13_17 + t6_14_17 + t6_15_17 + t6_16_17 + t6_17_18 + t6_17_19 + t6_17_20 + t6_17_21 + t6_17_22 + t6_17_23 <= 7
notruetwins_6_18: t0_6_18 + t1_6_18 + t2_6_18 + t3_6_18 + t4_6_18 + t5_6_18 + t6_7_18 + t6_8_18 + t6_9_18 + t6_10_18 + t6_11_18 + t6_12_18 + t6_13_18 + t6_14_18 + t6_15_18 + t6_16_18 + t6_17_18 + t6_18_19 + t6_18_20 + t6_18_21 + t6_18_22 + t6_18_23 <= 7
notruetwins_6_19: t0_6_19 + t1_6_19 + t2_6_19 + t3_6_19 + t4_6_19 + t5_6_19 + t6_7_19 + t6_8_19 + t6_9_19 + t6_10_19 + t6_11_19 + t6_12_19 + t6_13_19 + t6_14_19 + t6_15_19 + t6_16_19 + t6_17_19 + t6_18_19 + t6_19_20 + t6_19_21 + t6_19_22 + t6_19_23 <= 7
notruetwins_6_20: t0_6_20 + t1_6_20 + t2_6_20 + t3_6_20 + t4_6_20 + t5_6_20 + t6_7_20 + t6_8_20 + t6_9_20 + t6_10_20 + t6_11_20 + t6_12_20 + t6_13_20 + t6_14_20 + t6_15_20 + t6_16_20 + t6_17_20 + t6_18_20 + t6_19_20 + t6_20_21 + t6_20_22 + t6_20_23 <= 7
notruetwins_6_21: t0_6_21 + t1_6_21 + t2_6_21 + t3_6_21 + t4_6_21 + t5_6_21 + t6_7_21 + t6_8_21 + t6_9_21 + t6_10_21 + t6_11_21 + t6_12_21 + t6_13_21 + t6_14_21 + t6_15_21 + t6_16_21 + t6_17_21 + t6_18_21 + t6_19_21 + t6_20_21 + t6_21_22 + t6_21_23 <= 7
notruetwins_6_22: t0_6_22 + t1_6_22 + t2_6_22 + t3_6_22 + t4_6_22 + t5_6_22 + t6_7_22 + t6_8_22 + t6_9_22 + t6_10_22 + t6_11_22 + t6_12_22 + t6_13_22 + t6_14_22 + t6_15_22 + t6_16_22 + t6_17_22 + t6_18_22 + t6_19_22 + t6_20_22 + t6_21_22 + t6_22_23 <= 7
notruetwins_6_23: t0_6_23 + t1_6_23 + t2_6_23 + t3_6_23 + t4_6_23 + t5_6_23 + t6_7_23 + t6_8_23 + t6_9_23 + t6_10_23 + t6_11_23 + t6_12_23 + t6_13_23 + t6_14_23 + t6_15_23 + t6_16_23 + t6_17_23 + t6_18_23 + t6_19_23 + t6_20_23 + t6_21_23 + t6_22_23 <= 7
notruetwins_7_8: t0_7_8 + t1_7_8 + t2_7_8 + t3_7_8 + t4_7_8 + t5_7_8 + t6_7_8 + t7_8_9 + t7_8_10 + t7_8_11 + t7_8_12 + t7_8_13 + t7_8_14 + t7_8_15 + t7_8_16 + t7_8_17 + t7_8_18 + t7_8_19 + t7_8_20 + t7_8_21 + t7_8_22 + t7_8_23 <= 7
notruetwins_7_9: t0_7_9 + t1_7_9 + t2_7_9 + t3_7_9 + t4_7_9 + t5_7_9 + t6_7_9 + t7_8_9 + t7_9_10 + t7_9_11 + t7_9_12 + t7_9_13 + t7_9_14 + t7_9_15 + t7_9_16 + t7_9_17 + t7_9_18 + t7_9_19 + t7_9_20 + t7_9_21 + t7_9_22 + t7_9_23 <= 7
notruetwins_7_10: t0_7_10 + t1_7_10 + t2_7_10 + t3_7_10 + t4_7_10 + t5_7_10 + t6_7_10 + t7_8_10 + t7_9_10 + t7_10_11 + t7_10_12 + t7_10_13 + t7_10_14 + t7_10_15 + t7_10_16 + t7_10_17 + t7_10_18 + t7_10_19 + t7_10_20 + t7_10_21 + t7_10_22 + t7_10_23 <= 7
notruetwins_7_11: t0_7_11 + t1_7_11 + t2_7_11 + t3_7_11 + t4_7_11 + t5_7_11 + t6_7_11 + t7_8_11 + t7_9_11 + t7_10_11 + t7_11_12 + t7_11_13 + t7_11_14 + t7_11_15 + t7_11_16 + t7_11_17 + t7_11_18 + t7_11_19 + t7_11_20 + t7_11_21 + t7_11_22 + t7_11_23 <= 7
notruetwins_7_12: t0_7_12 + t1_7_12 + t2_7_12 + t3_7_12 + t4_7_12 + t5_7_12 + t6_7_12 + t7_8_12 + t7_9_12 + t7_10_12 + t7_11_12 + t7_12_13 + t7_12_14 + t7_12_15 + t7_12_16 + t7_12_17 + t7_12_18 + t7_12_19 + t7_12_20 + t7_12_21 + t7_12_22 + t7_12_23 <= 7
notruetwins_7_13: t0_7_13 + t1_7_13 + t2_7_13 + t3_7_13 + t4_7_13 + t5_7_13 + t6_7_13 + t7_8_13 + t7_9_13 + t7_10_13 + t7_11_13 + t7_12_13 + t7_13_14 + t7_13_15 + t7_13_16 + t7_13_17 + t7_13_18 + t7_13_19 + t7_13_20 + t7_13_21 + t7_13_22 + t7_13_23 <= 7
notruetwins_7_14: t0_7_14 + t1_7_14 + t2_7_14 + t3_7_14 + t4_7_14 + t5_7_14 + t6_7_14 + t7_8_14 + t7_9_14 + t7_10_14 + t7_11_14 + t7_12_14 + t7_13_14 + t7_14_15 + t7_14_16 + t7_14_17 + t7_14_18 + t7_14_19 + t7_14_20 + t7_14_21 + t7_14_22 + t7_14_23 <= 7
notruetwins_7_15: t0_7_15 + t1_7_15 + t2_7_15 + t3_7_15 + t4_7_15 + t5_7_15 + t6_7_15 + t7_8_15 + t7_9_15 + t7_10_15 + t7_11_15 + t7_12_15 + t7_13_15 + t7_14_15 + t7_15_16 + t7_15_17 + t7_15_18 + t7_15_19 + t7_15_20 + t7_15_21 + t7_15_22 + t7_15_23 <= 7
notruetwins_7_16: t0_7_16 + t1_7_16 + t2_7_16 + t3_7_16 + t4_7_16 + t5_7_16 + t6_7_16 + t7_8_16 + t7_9_16 + t7_10_16 + t7_11_16 + t7_12_16 + t7_13_16 + t7_14_16 + t7_15_16 + t7_16_17 + t7_16_18 + t7_16_19 + t7_16_20 + t7_16_21 + t7_16_22 + t7_16_23 <= 7
notruetwins_7_17: t0_7_17 + t1_7_17 + t2_7_17 + t3_7_17 + t4_7_17 + t5_7_17 + t6_7_17 + t7_8_17 + t7_9_17 + t7_10_17 + t7_11_17 + t7_12_17 + t7_13_17 + t7_14_17 + t7_15_17 + t7_16_17 + t7_17_18 + t7_17_19 + t7_17_20 + t7_17_21 + t7_17_22 + t7_17_23 <= 7
notruetwins_7_18: t0_7_18 + t1_7_18 + t2_7_18 + t3_7_18 + t4_7_18 + t5_7_18 + t6_7_18 + t7_8_18 + t7_9_18 + t7_10_18 + t7_11_18 + t7_12_18 + t7_13_18 + t7_14_18 + t7_15_18 + t7_16_18 + t7_17_18 + t7_18_19 + t7_18_20 + t7_18_21 + t7_18_22 + t7_18_23 <= 7
notruetwins_7_19: t0_7_19 + t1_7_19 + t2_7_19 + t3_7_19 + t4_7_19 + t5_7_19 + t6_7_19 + t7_8_19 + t7_9_19 + t7_10_19 + t7_11_19 + t7_12_19 + t7_13_19 + t7_14_19 + t7_15_19 + t7_16_19 + t7_17_19 + t7_18_19 + t7_19_20 + t7_19_21 + t7_19_22 + t7_19_23 <= 7
notruetwins_7_20: t0_7_20 + t1_7_20 + t2_7_20 + t3_7_20 + t4_7_20 + t5_7_20 + t6_7_20 + t7_8_20 + t7_9_20 + t7_10_20 + t7_11_20 + t7_12_20 + t7_13_20 + t7_14_20 + t7_15_20 + t7_16_20 + t7_17_20 + t7_18_20 + t7_19_20 + t7_20_21 + t7_20_22 + t7_20_23 <= 7
notruetwins_7_21: t0_7_21 + t1_7_21 + t2_7_21 + t3_7_21 + t4_7_21 + t5_7_21 + t6_7_21 + t7_8_21 + t7_9_21 + t7_10_21 + t7_11_21 + t7_12_21 + t7_13_21 + t7_14_21 + t7_15_21 + t7_16_21 + t7_17_21 + t7_18_21 + t7_19_21 + t7_20_21 + t7_21_22 + t7_21_23 <= 7
notruetwins_7_22: t0_7_22 + t1_7_22 + t2_7_22 + t3_7_22 + t4_7_22 + t5_7_22 + t6_7_22 + t7_8_22 + t7_9_22 + t7_10_22 + t7_11_22 + t7_12_22 + t7_13_22 + t7_14_22 + t7_15_22 + t7_16_22 + t7_17_22 + t7_18_22 + t7_19_22 + t7_20_22 + t7_21_22 + t7_22_23 <= 7
notruetwins_7_23: t0_7_23 + t1_7_23 + t2_7_23 + t3_7_23 + t4_7_23 + t5_7_23 + t6_7_23 + t7_8_23 + t7_9_23 + t7_10_23 + t7_11_23 + t7_12_23 + t7_13_23 + t7_14_23 + t7_15_23 + t7_16_23 + t7_17_23 + t7_18_23 + t7_19_23 + t7_20_23 + t7_21_23 + t7_22_23 <= 7
notruetwins_8_9: t0_8_9 + t1_8_9 + t2_8_9 + t3_8_9 + t4_8_9 + t5_8_9 + t6_8_9 + t7_8_9 + t8_9_10 + t8_9_11 + t8_9_12 + t8_9_13 + t8_9_14 + t8_9_15 + t8_9_16 + t8_9_17 + t8_9_18 + t8_9_19 + t8_9_20 + t8_9_21 + t8_9_22 + t8_9_23 <= 7
notruetwins_8_10: t0_8_10 + t1_8_10 + t2_8_10 + t3_8_10 + t4_8_10 + t5_8_10 + t6_8_10 + t7_8_10 + t8_9_10 + t8_10_11 + t8_10_12 + t8_10_13 + t8_10_14 + t8_10_15 + t8_10_16 + t8_10_17 + t8_10_18 + t8_10_19 + t8_10_20 + t8_10_21 + t8_10_22 + t8_10_23 <= 7
notruetwins_8_11: t0_8_11 + t1_8_11 + t2_8_11 + t3_8_11 + t4_8_11 + t5_8_11 + t6_8_11 + t7_8_11 + t8_9_11 + t8_10_11 + t8_11_12 + t8_11_13 + t8_11_14 + t8_11_15 + t8_11_16 + t8_11_17 + t8_11_18 + t8_11_19 + t8_11_20 + t8_11_21 + t8_11_22 + t8_11_23 <= 7
notruetwins_8_12: t0_8_12 + t1_8_12 + t2_8_12 + t3_8_12 + t4_8_12 + t5_8_12 + t6_8_12 + t7_8_12 + t8_9_12 + t8_10_12 + t8_11_12 + t8_12_13 + t8_12_14 + t8_12_15 + t8_12_16 + t8_12_17 + t8_12_18 + t8_12_19 + t8_12_20 + t8_12_21 + t8_12_22 + t8_12_23 <= 7
notruetwins_8_13: t0_8_13 + t1_8_13 + t2_8_13 + t3_8_13 + t4_8_13 + t5_8_13 + t6_8_13 + t7_8_13 + t8_9_13 + t8_10_13 + t8_11_13 + t8_12_13 + t8_13_14 + t8_13_15 + t8_13_16 + t8_13_17 + t8_13_18 + t8_13_19 + t8_13_20 + t8_13_21 + t8_13_22 + t8_13_23 <= 7
notruetwins_8_14: t0_8_14 + t1_8_14 + t2_8_14 + t3_8_14 + t4_8_14 + t5_8_14 + t6_8_14 + t7_8_14 + t8_9_14 + t8_10_14 + t8_11_14 + t8_12_14 + t8_13_14 + t8_14_15 + t8_14_16 + t8_14_17 + t8_14_18 + t8_14_19 + t8_14_20 + t8_14_21 + t8_14_22 + t8_14_23 <= 7
notruetwins_8_15: t0_8_15 + t1_8_15 + t2_8_15 + t3_8_15 + t4_8_15 + t5_8_15 + t6_8_15 + t7_8_15 + t8_9_15 + t8_10_15 + t8_11_15 + t8_12_15 + t8_13_15 + t8_14_15 + t8_15_16 + t8_15_17 + t8_15_18 + t8_15_19 + t8_15_20 + t8_15_21 + t8_15_22 + t8_15_23 <= 7
notruetwins_8_16: t0_8_16 + t1_8_16 + t2_8_16 + t3_8_16 + t4_8_16 + t5_8_16 + t6_8_16 + t7_8_16 + t8_9_16 + t8_10_16 + t8_11_16 + t8_12_16 + t8_13_16 + t8_14_16 + t8_15_16 + t8_16_17 + t8_16_18 + t8_16_19 + t8_16_20 + t8_16_21 + t8_16_22 + t8_16_23 <= 7
notruetwins_8_17: t0_8_17 + t1_8_17 + t2_8_17 + t3_8_17 + t4_8_17 + t5_8_17 + t6_8_17 + t7_8_17 + t8_9_17 + t8_10_17 + t8_11_17 + t8_12_17 + t8_13_17 + t8_14_17 + t8_15_17 + t8_16_17 + t8_17_18 + t8_17_19 + t8_17_20 + t8_17_21 + t8_17_22 + t8_17_23 <= 7
notruetwins_8_18: t0_8_18 + t1_8_18 + t2_8_18 + t3_8_18 + t4_8_18 + t5_8_18 + t6_8_18 + t7_8_18 + t8_9_18 + t8_10_18 + t8_11_18 + t8_12_18 + t8_13_18 + t8_14_18 + t8_15_18 + t8_16_18 + t8_17_18 + t8_18_19 + t8_18_20 + t8_18_21 + t8_18_22 + t8_18_23 <= 7
notruetwins_8_19: t0_8_19 + t1_8_19 + t2_8_19 + t3_8_19 + t4_8_19 + t5_8_19 + t6_8_19 + t7_8_19 + t8_9_19 + t8_10_19 + t8_11_19 + t8_12_19 + t8_13_19 + t8_14_19 + t8_15_19 + t8_16_19 + t8_17_19 + t8_18_19 + t8_19_20 + t8_19_21 + t8_19_22 + t8_19_23 <= 7
notruetwins_8_20: t0_8_20 + t1_8_20 + t2_8_20 + t3_8_20 + t4_8_20 + t5_8_20 + t6_8_20 + t7_8_20 + t8_9_20 + t8_10_20 + t8_11_20 + t8_12_20 + t8_13_20 + t8_14_20 + t8_15_20 + t8_16_20 + t8_17_20 + t8_18_20 + t8_19_20 + t8_20_21 + t8_20_22 + t8_20_23 <= 7
notruetwins_8_21: t0_8_21 + t1_8_21 + t2_8_21 + t3_8_21 + t4_8_21 + t5_8_21 + t6_8_21 + t7_8_21 + t8_9_21 + t8_10_21 + t8_11_21 + t8_12_21 + t8_13_21 + t8_14_21 + t8_15_21 + t8_16_21 + t8_17_21 + t8_18_21 + t8_19_21 + t8_20_21 + t8_21_22 + t8_21_23 <= 7
notruetwins_8_22: t0_8_22 + t1_8_22 + t2_8_22 + t3_8_22 + t4_8_22 + t5_8_22 + t6_8_22 + t7_8_22 + t8_9_22 + t8_10_22 + t8_11_22 + t8_12_22 + t8_13_22 + t8_14_22 + t8_15_22 + t8_16_22 + t8_17_22 + t8_18_22 + t8_19_22 + t8_20_22 + t8_21_22 + t8_22_23 <= 7
notruetwins_8_23: t0_8_23 + t1_8_23 + t2_8_23 + t3_8_23 + t4_8_23 + t5_8_23 + t6_8_23 + t7_8_23 + t8_9_23 + t8_10_23 + t8_11_23 + t8_12_23 + t8_13_23 + t8_14_23 + t8_15_23 + t8_16_23 + t8_17_23 + t8_18_23 + t8_19_23 + t8_20_23 + t8_21_23 + t8_22_23 <= 7
notruetwins_9_10: t0_9_10 + t1_9_10 + t2_9_10 + t3_9_10 + t4_9_10 + t5_9_10 + t6_9_10 + t7_9_10 + t8_9_10 + t9_10_11 + t9_10_12 + t9_10_13 + t9_10_14 + t9_10_15 + t9_10_16 + t9_10_17 + t9_10_18 + t9_10_19 + t9_10_20 + t9_10_21 + t9_10_22 + t9_10_23 <= 7
notruetwins_9_11: t0_9_11 + t1_9_11 + t2_9_11 + t3_9_11 + t4_9_11 + t5_9_11 + t6_9_11 + t7_9_11 + t8_9_11 + t9_10_11 + t9_11_12 + t9_11_13 + t9_11_14 + t9_11_15 + t9_11_16 + t9_11_17 + t9_11_18 + t9_11_19 + t9_11_20 + t9_11_21 + t9_11_22 + t9_11_23 <= 7
notruetwins_9_12: t0_9_12 + t1_9_12 + t2_9_12 + t3_9_12 + t4_9_12 + t5_9_12 + t6_9_12 + t7_9_12 + t8_9_12 + t9_10_12 + t9_11_12 + t9_12_13 + t9_12_14 + t9_12_15 + t9_12_16 + t9_12_17 + t9_12_18 + t9_12_19 + t9_12_20 + t9_12_21 + t9_12_22 + t9_12_23 <= 7
notruetwins_9_13: t0_9_13 + t1_9_13 + t2_9_13 + t3_9_13 + t4_9_13 + t5_9_13 + t6_9_13 + t7_9_13 + t8_9_13 + t9_10_13 + t9_11_13 + t9_12_13 + t9_13_14 + t9_13_15 + t9_13_16 + t9_13_17 + t9_13_18 + t9_13_19 + t9_13_20 + t9_13_21 + t9_13_22 + t9_13_23 <= 7
notruetwins_9_14: t0_9_14 + t1_9_14 + t2_9_14 + t3_9_14 + t4_9_14 + t5_9_14 + t6_9_14 + t7_9_14 + t8_9_14 + t9_10_14 + t9_11_14 + t9_12_14 + t9_13_14 + t9_14_15 + t9_14_16 + t9_14_17 + t9_14_18 + t9_14_19 + t9_14_20 + t9_14_21 + t9_14_22 + t9_14_23 <= 7
notruetwins_9_15: t0_9_15 + t1_9_15 + t2_9_15 + t3_9_15 + t4_9_15 + t5_9_15 + t6_9_15 + t7_9_15 + t8_9_15 + t9_10_15 + t9_11_15 + t9_12_15 + t9_13_15 + t9_14_15 + t9_15_16 + t9_15_17 + t9_15_18 + t9_15_19 + t9_15_20 + t9_15_21 + t9_15_22 + t9_15_23 <= 7
notruetwins_9_16: t0_9_16 + t1_9_16 + t2_9_16 + t3_9_16 + t4_9_16 + t5_9_16 + t6_9_16 + t7_9_16 + t8_9_16 + t9_10_16 + t9_11_16 + t9_12_16 + t9_13_16 + t9_14_16 + t9_15_16 + t9_16_17 + t9_16_18 + t9_16_19 + t9_16_20 + t9_16_21 + t9_16_22 + t9_16_23 <= 7
notruetwins_9_17: t0_9_17 + t1_9_17 + t2_9_17 + t3_9_17 + t4_9_17 + t5_9_17 + t6_9_17 + t7_9_17 + t8_9_17 + t9_10_17 + t9_11_17 + t9_12_17 + t9_13_17 + t9_14_17 + t9_15_17 + t9_16_17 + t9_17_18 + t9_17_19 + t9_17_20 + t9_17_21 + t9_17_22 + t9_17_23 <= 7
notruetwins_9_18: t0_9_18 + t1_9_18 + t2_9_18 + t3_9_18 + t4_9_18 + t5_9_18 + t6_9_18 + t7_9_18 + t8_9_18 + t9_10_18 + t9_11_18 + t9_12_18 + t9_13_18 + t9_14_18 + t9_15_18 + t9_16_18 + t9_17_18 + t9_18_19 + t9_18_20 + t9_18_21 + t9_18_22 + t9_18_23 <= 7
notruetwins_9_19: t0_9_19 + t1_9_19 + t2_9_19 + t3_9_19 + t4_9_19 + t5_9_19 + t6_9_19 + t7_9_19 + t8_9_19 + t9_10_19 + t9_11_19 + t9_12_19 + t9_13_19 + t9_14_19 + t9_15_19 + t9_16_19 + t9_17_19 + t9_18_19 + t9_19_20 + t9_19_21 + t9_19_22 + t9_19_23 <= 7
notruetwins_9_20: t0_9_20 + t1_9_20 + t2_9_20 + t3_9_20 + t4_9_20 + t5_9_20 + t6_9_20 + t7_9_20 + t8_9_20 + t9_10_20 + t9_11_20 + t9_12_20 + t9_13_20 + t9_14_20 + t9_15_20 + t9_16_20 + t9_17_20 + t9_18_20 + t9_19_20 + t9_20_21 + t9_20_22 + t9_20_23 <= 7
notruetwins_9_21: t0_9_21 + t1_9_21 + t2_9_21 + t3_9_21 + t4_9_21 + t5_9_21 + t6_9_21 + t7_9_21 + t8_9_21 + t9_10_21 + t9_11_21 + t9_12_21 + t9_13_21 + t9_14_21 + t9_15_21 + t9_16_21 + t9_17_21 + t9_18_21 + t9_19_21 + t9_20_21 + t9_21_22 + t9_21_23 <= 7
notruetwins_9_22: t0_9_22 + t1_9_22 + t2_9_22 + t3_9_22 + t4_9_22 + t5_9_22 + t6_9_22 + t7_9_22 + t8_9_22 + t9_10_22 + t9_11_22 + t9_12_22 + t9_13_22 + t9_14_22 + t9_15_22 + t9_16_22 + t9_17_22 + t9_18_22 + t9_19_22 + t9_20_22 + t9_21_22 + t9_22_23 <= 7
notruetwins_9_23: t0_9_23 + t1_9_23 + t2_9_23 + t3_9_23 + t4_9_23 + t5_9_23 + t6_9_23 + t7_9_23 + t8_9_23 + t9_10_23 + t9_11_23 + t9_12_23 + t9_13_23 + t9_14_23 + t9_15_23 + t9_16_23 + t9_17_23 + t9_18_23 + t9_19_23 + t9_20_23 + t9_21_23 + t9_22_23 <= 7
notruetwins_10_11: t0_10_11 + t1_10_11 + t2_10_11 + t3_10_11 + t4_10_11 + t5_10_11 + t6_10_11 + t7_10_11 + t8_10_11 + t9_10_11 + t10_11_12 + t10_11_13 + t10_11_14 + t10_11_15 + t10_11_16 + t10_11_17 + t10_11_18 + t10_11_19 + t10_11_20 + t10_11_21 + t10_11_22 + t10_11_23 <= 7
notruetwins_10_12: t0_10_12 + t1_10_12 + t2_10_12 + t3_10_12 + t4_10_12 + t5_10_12 + t6_10_12 + t7_10_12 + t8_10_12 + t9_10_12 + t10_11_12 + t10_12_13 + t10_12_14 + t10_12_15 + t10_12_16 + t10_12_17 + t10_12_18 + t10_12_19 + t10_12_20 + t10_12_21 + t10_12_22 + t10_12_23 <= 7
notruetwins_10_13: t0_10_13 + t1_10_13 + t2_10_13 + t3_10_13 + t4_10_13 + t5_10_13 + t6_10_13 + t7_10_13 + t8_10_13 + t9_10_13 + t10_11_13 + t10_12_13 + t10_13_14 + t10_13_15 + t10_13_16 + t10_13_17 + t10_13_18 + t10_13_19 + t10_13_20 + t10_13_21 + t10_13_22 + t10_13_23 <= 7
notruetwins_10_14: t0_10_14 + t1_10_14 + t2_10_14 + t3_10_14 + t4_10_14 + t5_10_14 + t6_10_14 + t7_10_14 + t8_10_14 + t9_10_14 + t10_11_14 + t10_12_14 + t10_13_14 + t10_14_15 + t10_14_16 + t10_14_17 + t10_14_18 + t10_14_19 + t10_14_20 + t10_14_21 + t10_14_22 + t10_14_23 <= 7
notruetwins_10_15: t0_10_15 + t1_10_15 + t2_10_15 + t3_10_15 + t4_10_15 + t5_10_15 + t6_10_15 + t7_10_15 + t8_10_15 + t9_10_15 + t10_11_15 + t10_12_15 + t10_13_15 + t10_14_15 + t10_15_16 + t10_15_17 + t10_15_18 + t10_15_19 + t10_15_20 + t10_15_21 + t10_15_22 + t10_15_23 <= 7
notruetwins_10_16: t0_10_16 + t1_10_16 + t2_10_16 + t3_10_16 + t4_10_16 + t5_10_16 + t6_10_16 + t7_10_16 + t8_10_16 + t9_10_16 + t10_11_16 + t10_12_16 + t10_13_16 + t10_14_16 + t10_15_16 + t10_16_17 + t10_16_18 + t10_16_19 + t10_16_20 + t10_16_21 + t10_16_22 + t10_16_23 <= 7
notruetwins_10_17: t0_10_17 + t1_10_17 + t2_10_17 + t3_10_17 + t4_10_17 + t5_10_17 + t6_10_17 + t7_10_17 + t8_10_17 + t9_10_17 + t10_11_17 + t10_12_17 + t10_13_17 + t10_14_17 + t10_15_17 + t10_16_17 + t10_17_18 + t10_17_19 + t10_17_20 + t10_17_21 + t10_17_22 + t10_17_23 <= 7
notruetwins_10_18: t0_10_18 + t1_10_18 + t2_10_18 + t3_10_18 + t4_10_18 + t5_10_18 + t6_10_18 + t7_10_18 + t8_10_18 + t9_10_18 + t10_11_18 + t10_12_18 + t10_13_18 + t10_14_18 + t10_15_18 + t10_16_18 + t10_17_18 + t10_18_19 + t10_18_20 + t10_18_21 + t10_18_22 + t10_18_23 <= 7
notruetwins_10_19: t0_10_19 + t1_10_19 + t2_10_19 + t3_10_19 + t4_10_19 + t5_10_19 + t6_10_19 + t7_10_19 + t8_10_19 + t9_10_19 + t10_11_19 + t10_12_19 + t10_13_19 + t10_14_19 + t10_15_19 + t10_16_19 + t10_17_19 + t10_18_19 + t10_19_20 + t10_19_21 + t10_19_22 + t10_19_23 <= 7
notruetwins_10_20: t0_10_20 + t1_10_20 + t2_10_20 + t3_10_20 + t4_10_20 + t5_10_20 + t6_10_20 + t7_10_20 + t8_10_20 + t9_10_20 + t10_11_20 + t10_12_20 + t10_13_20 + t10_14_20 + t10_15_20 + t10_16_20 + t10_17_20 + t10_18_20 + t10_19_20 + t10_20_21 + t10_20_22 + t10_20_23 <= 7
notruetwins_10_21: t0_10_21 + t1_10_21 + t2_10_21 + t3_10_21 + t4_10_21 + t5_10_21 + t6_10_21 + t7_10_21 + t8_10_21 + t9_10_21 + t10_11_21 + t10_12_21 + t10_13_21 + t10_14_21 + t10_15_21 + t10_16_21 + t10_17_21 + t10_18_21 + t10_19_21 + t10_20_21 + t10_21_22 + t10_21_23 <= 7
notruetwins_10_22: t0_10_22 + t1_10_22 + t2_10_22 + t3_10_22 + t4_10_22 + t5_10_22 + t6_10_22 + t7_10_22 + t8_10_22 + t9_10_22 + t10_11_22 + t10_12_22 + t10_13_22 + t10_14_22 + t10_15_22 + t10_16_22 + t10_17_22 + t10_18_22 + t10_19_22 + t10_20_22 + t10_21_22 + t10_22_23 <= 7
notruetwins_10_23: t0_10_23 + t1_10_23 + t2_10_23 + t3_10_23 + t4_10_23 + t5_10_23 + t6_10_23 + t7_10_23 + t8_10_23 + t9_10_23 + t10_11_23 + t10_12_23 + t10_13_23 + t10_14_23 + t10_15_23 + t10_16_23 + t10_17_23 + t10_18_23 + t10_19_23 + t10_20_23 + t10_21_23 + t10_22_23 <= 7
notruetwins_11_12: t0_11_12 + t1_11_12 + t2_11_12 + t3_11_12 + t4_11_12 + t5_11_12 + t6_11_12 + t7_11_12 + t8_11_12 + t9_11_12 + t10_11_12 + t11_12_13 + t11_12_14 + t11_12_15 + t11_12_16 + t11_12_17 + t11_12_18 + t11_12_19 + t11_12_20 + t11_12_21 + t11_12_22 + t11_12_23 <= 7
notruetwins_11_13: t0_11_13 + t1_11_13 + t2_11_13 + t3_11_13 + t4_11_13 + t5_11_13 + t6_11_13 + t7_11_13 + t8_11_13 + t9_11_13 + t10_11_13 + t11_12_13 + t11_13_14 + t11_13_15 + t11_13_16 + t11_13_17 + t11_13_18 + t11_13_19 + t11_13_20 + t11_13_21 + t11_13_22 + t11_13_23 <= 7
notruetwins_11_14: t0_11_14 + t1_11_14 + t2_11_14 + t3_11_14 + t4_11_14 + t5_11_14 + t6_11_14 + t7_11_14 + t8_11_14 + t9_11_14 + t10_11_14 + t11_12_14 + t11_13_14 + t11_14_15 + t11_14_16 + t11_14_17 + t11_14_18 + t11_14_19 + t11_14_20 + t11_14_21 + t11_14_22 + t11_14_23 <= 7
notruetwins_11_15: t0_11_15 + t1_11_15 + t2_11_15 + t3_11_15 + t4_11_15 + t5_11_15 + t6_11_15 + t7_11_15 + t8_11_15 + t9_11_15 + t10_11_15 + t11_12_15 + t11_13_15 + t11_14_15 + t11_15_16 + t11_15_17 + t11_15_18 + t11_15_19 + t11_15_20 + t11_15_21 + t11_15_22 + t11_15_23 <= 7
notruetwins_11_16: t0_11_16 + t1_11_16 + t2_11_16 + t3_11_16 + t4_11_16 + t5_11_16 + t6_11_16 + t7_11_16 + t8_11_16 + t9_11_16 + t10_11_16 + t11_12_16 + t11_13_16 + t11_14_16 + t11_15_16 + t11_16_17 + t11_16_18 + t11_16_19 + t11_16_20 + t11_16_21 + t11_16_22 + t11_16_23 <= 7
notruetwins_11_17: t0_11_17 + t1_11_17 + t2_11_17 + t3_11_17 + t4_11_17 + t5_11_17 + t6_11_17 + t7_11_17 + t8_11_17 + t9_11_17 + t10_11_17 + t11_12_17 + t11_13_17 + t11_14_17 + t11_15_17 + t11_16_17 + t11_17_18 + t11_17_19 + t11_17_20 + t11_17_21 + t11_17_22 + t11_17_23 <= 7
notruetwins_11_18: t0_11_18 + t1_11_18 + t2_11_18 + t3_11_18 + t4_11_18 + t5_11_18 + t6_11_18 + t7_11_18 + t8_11_18 + t9_11_18 + t10_11_18 + t11_12_18 + t11_13_18 + t11_14_18 + t11_15_18 + t11_16_18 + t11_17_18 + t11_18_19 + t11_18_20 + t11_18_21 + t11_18_22 + t11_18_23 <= 7
notruetwins_11_19: t0_11_19 + t1_11_19 + t2_11_19 + t3_11_19 + t4_11_19 + t5_11_19 + t6_11_19 + t7_11_19 + t8_11_19 + t9_11_19 + t10_11_19 + t11_12_19 + t11_13_19 + t11_14_19 + t11_15_19 + t11_16_19 + t11_17_19 + t11_18_19 + t11_19_20 + t11_19_21 + t11_19_22 + t11_19_23 <= 7
notruetwins_11_20: t0_11_20 + t1_11_20 + t2_11_20 + t3_11_20 + t4_11_20 + t5_11_20 + t6_11_20 + t7_11_20 + t8_11_20 + t9_11_20 + t10_11_20 + t11_12_20 + t11_13_20 + t11_14_20 + t11_15_20 + t11_16_20 + t11_17_20 + t11_18_20 + t11_19_20 + t11_20_21 + t11_20_22 + t11_20_23 <= 7
notruetwins_11_21: t0_11_21 + t1_11_21 + t2_11_21 + t3_11_21 + t4_11_21 + t5_11_21 + t6_11_21 + t7_11_21 + t8_11_21 + t9_11_21 + t10_11_21 + t11_12_21 + t11_13_21 + t11_14_21 + t11_15_21 + t11_16_21 + t11_17_21 + t11_18_21 + t11_19_21 + t11_20_21 + t11_21_22 + t11_21_23 <= 7
notruetwins_11_22: t0_11_22 + t1_11_22 + t2_11_22 + t3_11_22 + t4_11_22 + t5_11_22 + t6_11_22 + t7_11_22 + t8_11_22 + t9_11_22 + t10_11_22 + t11_12_22 + t11_13_22 + t11_14_22 + t11_15_22 + t11_16_22 + t11_17_22 + t11_18_22 + t11_19_22 + t11_20_22 + t11_21_22 + t11_22_23 <= 7
notruetwins_11_23: t0_11_23 + t1_11_23 + t2_11_23 + t3_11_23 + t4_11_23 + t5_11_23 + t6_11_23 + t7_11_23 + t8_11_23 + t9_11_23 + t10_11_23 + t11_12_23 + t11_13_23 + t11_14_23 + t11_15_23 + t11_16_23 + t11_17_23 + t11_18_23 + t11_19_23 + t11_20_23 + t11_21_23 + t11_22_23 <= 7
notruetwins_12_13: t0_12_13 + t1_12_13 + t2_12_13 + t3_12_13 + t4_12_13 + t5_12_13 + t6_12_13 + t7_12_13 + t8_12_13 + t9_12_13 + t10_12_13 + t11_12_13 + t12_13_14 + t12_13_15 + t12_13_16 + t12_13_17 + t12_13_18 + t12_13_19 + t12_13_20 + t12_13_21 + t12_13_22 + t12_13_23 <= 7
notruetwins_12_14: t0_12_14 + t1_12_14 + t2_12_14 + t3_12_14 + t4_12_14 + t5_12_14 + t6_12_14 + t7_12_14 + t8_12_14 + t9_12_14 + t10_12_14 + t11_12_14 + t12_13_14 + t12_14_15 + t12_14_16 + t12_14_17 + t12_14_18 + t12_14_19 + t12_14_20 + t12_14_21 + t12_14_22 + t12_14_23 <= 7
notruetwins_12_15: t0_12_15 + t1_12_15 + t2_12_15 + t3_12_15 + t4_12_15 + t5_12_15 + t6_12_15 + t7_12_15 + t8_12_15 + t9_12_15 + t10_12_15 + t11_12_15 + t12_13_15 + t12_14_15 + t12_15_16 + t12_15_17 + t12_15_18 + t12_15_19 + t12_15_20 + t12_15_21 + t12_15_22 + t12_15_23 <= 7
notruetwins_12_16: t0_12_16 + t1_12_16 + t2_12_16 + t3_12_16 + t4_12_16 + t5_12_16 + t6_12_16 + t7_12_16 + t8_12_16 + t9_12_16 + t10_12_16 + t11_12_16 + t12_13_16 + t12_14_16 + t12_15_16 + t12_16_17 + t12_16_18 + t12_16_19 + t12_16_20 + t12_16_21 + t12_16_22 + t12_16_23 <= 7
notruetwins_12_17: t0_12_17 + t1_12_17 + t2_12_17 + t3_12_17 + t4_12_17 + t5_12_17 + t6_12_17 + t7_12_17 + t8_12_17 + t9_12_17 + t10_12_17 + t11_12_17 + t12_13_17 + t12_14_17 + t12_15_17 + t12_16_17 + t12_17_18 + t12_17_19 + t12_17_20 + t12_17_21 + t12_17_22 + t12_17_23 <= 7
notruetwins_12_18: t0_12_18 + t1_12_18 + t2_12_18 + t3_12_18 + t4_12_18 + t5_12_18 + t6_12_18 + t7_12_18 + t8_12_18 + t9_12_18 + t10_12_18 + t11_12_18 + t12_13_18 + t12_14_18 + t12_15_18 + t12_16_18 + t12_17_18 + t12_18_19 + t12_18_20 + t12_18_21 + t12_18_22 + t12_18_23 <= 7
notruetwins_12_19: t0_12_19 + t1_12_19 + t2_12_19 + t3_12_19 + t4_12_19 + t5_12_19 + t6_12_19 + t7_12_19 + t8_12_19 + t9_12_19 + t10_12_19 + t11_12_19 + t12_13_19 + t12_14_19 + t12_15_19 + t12_16_19 + t12_17_19 + t12_18_19 + t12_19_20 + t12_19_21 + t12_19_22 + t12_19_23 <= 7
notruetwins_12_20: t0_12_20 + t1_12_20 + t2_12_20 + t3_12_20 + t4_12_20 + t5_12_20 + t6_12_20 + t7_12_20 + t8_12_20 + t9_12_20 + t10_12_20 + t11_12_20 + t12_13_20 + t12_14_20 + t12_15_20 + t12_16_20 + t12_17_20 + t12_18_20 + t12_19_20 + t12_20_21 + t12_20_22 + t12_20_23 <= 7
notruetwins_12_21: t0_12_21 + t1_12_21 + t2_12_21 + t3_12_21 + t4_12_21 + t5_12_21 + t6_12_21 + t7_12_21 + t8_12_21 + t9_12_21 + t10_12_21 + t11_12_21 + t12_13_21 + t12_14_21 + t12_15_21 + t12_16_21 + t12_17_21 + t12_18_21 + t12_19_21 + t12_20_21 + t12_21_22 + t12_21_23 <= 7
notruetwins_12_22: t0_12_22 + t1_12_22 + t2_12_22 + t3_12_22 + t4_12_22 + t5_12_22 + t6_12_22 + t7_12_22 + t8_12_22 + t9_12_22 + t10_12_22 + t11_12_22 + t12_13_22 + t12_14_22 + t12_15_22 + t12_16_22 + t12_17_22 + t12_18_22 + t12_19_22 + t12_20_22 + t12_21_22 + t12_22_23 <= 7
notruetwins_12_23: t0_12_23 + t1_12_23 + t2_12_23 + t3_12_23 + t4_12_23 + t5_12_23 + t6_12_23 + t7_12_23 + t8_12_23 + t9_12_23 + t10_12_23 + t11_12_23 + t12_13_23 + t12_14_23 + t12_15_23 + t12_16_23 + t12_17_23 + t12_18_23 + t12_19_23 + t12_20_23 + t12_21_23 + t12_22_23 <= 7
notruetwins_13_14: t0_13_14 + t1_13_14 + t2_13_14 + t3_13_14 + t4_13_14 + t5_13_14 + t6_13_14 + t7_13_14 + t8_13_14 + t9_13_14 + t10_13_14 + t11_13_14 + t12_13_14 + t13_14_15 + t13_14_16 + t13_14_17 + t13_14_18 + t13_14_19 + t13_14_20 + t13_14_21 + t13_14_22 + t13_14_23 <= 7
notruetwins_13_15: t0_13_15 + t1_13_15 + t2_13_15 + t3_13_15 + t4_13_15 + t5_13_15 + t6_13_15 + t7_13_15 + t8_13_15 + t9_13_15 + t10_13_15 + t11_13_15 + t12_13_15 + t13_14_15 + t13_15_16 + t13_15_17 + t13_15_18 + t13_15_19 + t13_15_20 + t13_15_21 + t13_15_22 + t13_15_23 <= 7
notruetwins_13_16: t0_13_16 + t1_13_16 + t2_13_16 + t3_13_16 + t4_13_16 + t5_13_16 + t6_13_16 + t7_13_16 + t8_13_16 + t9_13_16 + t10_13_16 + t11_13_16 + t12_13_16 + t13_14_16 + t13_15_16 + t13_16_17 + t13_16_18 + t13_16_19 + t13_16_20 + t13_16_21 + t13_16_22 + t13_16_23 <= 7
notruetwins_13_17: t0_13_17 + t1_13_17 + t2_13_17 + t3_13_17 + t4_13_17 + t5_13_17 + t6_13_17 + t7_13_17 + t8_13_17 + t9_13_17 + t10_13_17 + t11_13_17 + t12_13_17 + t13_14_17 + t13_15_17 + t13_16_17 + t13_17_18 + t13_17_19 + t13_17_20 + t13_17_21 + t13_17_22 + t13_17_23 <= 7
notruetwins_13_18: t0_13_18 + t1_13_18 + t2_13_18 + t3_13_18 + t4_13_18 + t5_13_18 + t6_13_18 + t7_13_18 + t8_13_18 + t9_13_18 + t10_13_18 + t11_13_18 + t12_13_18 + t13_14_18 + t13_15_18 + t13_16_18 + t13_17_18 + t13_18_19 + t13_18_20 + t13_18_21 + t13_18_22 + t13_18_23 <= 7
notruetwins_13_19: t0_13_19 + t1_13_19 + t2_13_19 + t3_13_19 + t4_13_19 + t5_13_19 + t6_13_19 + t7_13_19 + t8_13_19 + t9_13_19 + t10_13_19 + t11_13_19 + t12_13_19 + t13_14_19 + t13_15_19 + t13_16_19 + t13_17_19 + t13_18_19 + t13_19_20 + t13_19_21 + t13_19_22 + t13_19_23 <= 7
notruetwins_13_20: t0_13_20 + t1_13_20 + t2_13_20 + t3_13_20 + t4_13_20 + t5_13_20 + t6_13_20 + t7_13_20 + t8_13_20 + t9_13_20 + t10_13_20 + t11_13_20 + t12_13_20 + t13_14_20 + t13_15_20 + t13_16_20 + t13_17_20 + t13_18_20 + t13_19_20 + t13_20_21 + t13_20_22 + t13_20_23 <= 7
notruetwins_13_21: t0_13_21 + t1_13_21 + t2_13_21 + t3_13_21 + t4_13_21 + t5_13_21 + t6_13_21 + t7_13_21 + t8_13_21 + t9_13_21 + t10_13_21 + t11_13_21 + t12_13_21 + t13_14_21 + t13_15_21 + t13_16_21 + t13_17_21 + t13_18_21 + t13_19_21 + t13_20_21 + t13_21_22 + t13_21_23 <= 7
notruetwins_13_22: t0_13_22 + t1_13_22 + t2_13_22 + t3_13_22 + t4_13_22 + t5_13_22 + t6_13_22 + t7_13_22 + t8_13_22 + t9_13_22 + t10_13_22 + t11_13_22 + t12_13_22 + t13_14_22 + t13_15_22 + t13_16_22 + t13_17_22 + t13_18_22 + t13_19_22 + t13_20_22 + t13_21_22 + t13_22_23 <= 7
notruetwins_13_23: t0_13_23 + t1_13_23 + t2_13_23 + t3_13_23 + t4_13_23 + t5_13_23 + t6_13_23 + t7_13_23 + t8_13_23 + t9_13_23 + t10_13_23 + t11_13_23 + t12_13_23 + t13_14_23 + t13_15_23 + t13_16_23 + t13_17_23 + t13_18_23 + t13_19_23 + t13_20_23 + t13_21_23 + t13_22_23 <= 7
notruetwins_14_15: t0_14_15 + t1_14_15 + t2_14_15 + t3_14_15 + t4_14_15 + t5_14_15 + t6_14_15 + t7_14_15 + t8_14_15 + t9_14_15 + t10_14_15 + t11_14_15 + t12_14_15 + t13_14_15 + t14_15_16 + t14_15_17 + t14_15_18 + t14_15_19 + t14_15_20 + t14_15_21 + t14_15_22 + t14_15_23 <= 7
notruetwins_14_16: t0_14_16 + t1_14_16 + t2_14_16 + t3_14_16 + t4_14_16 + t5_14_16 + t6_14_16 + t7_14_16 + t8_14_16 + t9_14_16 + t10_14_16 + t11_14_16 + t12_14_16 + t13_14_16 + t14_15_16 + t14_16_17 + t14_16_18 + t14_16_19 + t14_16_20 + t14_16_21 + t14_16_22 + t14_16_23 <= 7
notruetwins_14_17: t0_14_17 + t1_14_17 + t2_14_17 + t3_14_17 + t4_14_17 + t5_14_17 + t6_14_17 + t7_14_17 + t8_14_17 + t9_14_17 + t10_14_17 + t11_14_17 + t12_14_17 + t13_14_17 + t14_15_17 + t14_16_17 + t14_17_18 + t14_17_19 + t14_17_20 + t14_17_21 + t14_17_22 + t14_17_23 <= 7
notruetwins_14_18: t0_14_18 + t1_14_18 + t2_14_18 + t3_14_18 + t4_14_18 + t5_14_18 + t6_14_18 + t7_14_18 + t8_14_18 + t9_14_18 + t10_14_18 + t11_14_18 + t12_14_18 + t13_14_18 + t14_15_18 + t14_16_18 + t14_17_18 + t14_18_19 + t14_18_20 + t14_18_21 + t14_18_22 + t14_18_23 <= 7
notruetwins_14_19: t0_14_19 + t1_14_19 + t2_14_19 + t3_14_19 + t4_14_19 + t5_14_19 + t6_14_19 + t7_14_19 + t8_14_19 + t9_14_19 + t10_14_19 + t11_14_19 + t12_14_19 + t13_14_19 + t14_15_19 + t14_16_19 + t14_17_19 + t14_18_19 + t14_19_20 + t14_19_21 + t14_19_22 + t14_19_23 <= 7
notruetwins_14_20: t0_14_20 + t1_14_20 + t2_14_20 + t3_14_20 + t4_14_20 + t5_14_20 + t6_14_20 + t7_14_20 + t8_14_20 + t9_14_20 + t10_14_20 + t11_14_20 + t12_14_20 + t13_14_20 + t14_15_20 + t14_16_20 + t14_17_20 + t14_18_20 + t14_19_20 + t14_20_21 + t14_20_22 + t14_20_23 <= 7
notruetwins_14_21: t0_14_21 + t1_14_21 + t2_14_21 + t3_14_21 + t4_14_21 + t5_14_21 + t6_14_21 + t7_14_21 + t8_14_21 + t9_14_21 + t10_14_21 + t11_14_21 + t12_14_21 + t13_14_21 + t14_15_21 + t14_16_21 + t14_17_21 + t14_18_21 + t14_19_21 + t14_20_21 + t14_21_22 + t14_21_23 <= 7
notruetwins_14_22: t0_14_22 + t1_14_22 + t2_14_22 + t3_14_22 + t4_14_22 + t5_14_22 + t6_14_22 + t7_14_22 + t8_14_22 + t9_14_22 + t10_14_22 + t11_14_22 + t12_14_22 + t13_14_22 + t14_15_22 + t14_16_22 + t14_17_22 + t14_18_22 + t14_19_22 + t14_20_22 + t14_21_22 + t14_22_23 <= 7
notruetwins_14_23: t0_14_23 + t1_14_23 + t2_14_23 + t3_14_23 + t4_14_23 + t5_14_23 + t6_14_23 + t7_14_23 + t8_14_23 + t9_14_23 + t10_14_23 + t11_14_23 + t12_14_23 + t13_14_23 + t14_15_23 + t14_16_23 + t14_17_23 + t14_18_23 + t14_19_23 + t14_20_23 + t14_21_23 + t14_22_23 <= 7
notruetwins_15_16: t0_15_16 + t1_15_16 + t2_15_16 + t3_15_16 + t4_15_16 + t5_15_16 + t6_15_16 + t7_15_16 + t8_15_16 + t9_15_16 + t10_15_16 + t11_15_16 + t12_15_16 + t13_15_16 + t14_15_16 + t15_16_17 + t15_16_18 + t15_16_19 + t15_16_20 + t15_16_21 + t15_16_22 + t15_16_23 <= 7
notruetwins_15_17: t0_15_17 + t1_15_17 + t2_15_17 + t3_15_17 + t4_15_17 + t5_15_17 + t6_15_17 + t7_15_17 + t8_15_17 + t9_15_17 + t10_15_17 + t11_15_17 + t12_15_17 + t13_15_17 + t14_15_17 + t15_16_17 + t15_17_18 + t15_17_19 + t15_17_20 + t15_17_21 + t15_17_22 + t15_17_23 <= 7
notruetwins_15_18: t0_15_18 + t1_15_18 + t2_15_18 + t3_15_18 + t4_15_18 + t5_15_18 + t6_15_18 + t7_15_18 + t8_15_18 + t9_15_18 + t10_15_18 + t11_15_18 + t12_15_18 + t13_15_18 + t14_15_18 + t15_16_18 + t15_17_18 + t15_18_19 + t15_18_20 + t15_18_21 + t15_18_22 + t15_18_23 <= 7
notruetwins_15_19: t0_15_19 + t1_15_19 + t2_15_19 + t3_15_19 + t4_15_19 + t5_15_19 + t6_15_19 + t7_15_19 + t8_15_19 + t9_15_19 + t10_15_19 + t11_15_19 + t12_15_19 + t13_15_19 + t14_15_19 + t15_16_19 + t15_17_19 + t15_18_19 + t15_19_20 + t15_19_21 + t15_19_22 + t15_19_23 <= 7
notruetwins_15_20: t0_15_20 + t1_15_20 + t2_15_20 + t3_15_20 + t4_15_20 + t5_15_20 + t6_15_20 + t7_15_20 + t8_15_20 + t9_15_20 + t10_15_20 + t11_15_20 + t12_15_20 + t13_15_20 + t14_15_20 + t15_16_20 + t15_17_20 + t15_18_20 + t15_19_20 + t15_20_21 + t15_20_22 + t15_20_23 <= 7
notruetwins_15_21: t0_15_21 + t1_15_21 + t2_15_21 + t3_15_21 + t4_15_21 + t5_15_21 + t6_15_21 + t7_15_21 + t8_15_21 + t9_15_21 + t10_15_21 + t11_15_21 + t12_15_21 + t13_15_21 + t14_15_21 + t15_16_21 + t15_17_21 + t15_18_21 + t15_19_21 + t15_20_21 + t15_21_22 + t15_21_23 <= 7
notruetwins_15_22: t0_15_22 + t1_15_22 + t2_15_22 + t3_15_22 + t4_15_22 + t5_15_22 + t6_15_22 + t7_15_22 + t8_15_22 + t9_15_22 + t10_15_22 + t11_15_22 + t12_15_22 + t13_15_22 + t14_15_22 + t15_16_22 + t15_17_22 + t15_18_22 + t15_19_22 + t15_20_22 + t15_21_22 + t15_22_23 <= 7
notruetwins_15_23: t0_15_23 + t1_15_23 + t2_15_23 + t3_15_23 + t4_15_23 + t5_15_23 + t6_15_23 + t7_15_23 + t8_15_23 + t9_15_23 + t10_15_23 + t11_15_23 + t12_15_23 + t13_15_23 + t14_15_23 + t15_16_23 + t15_17_23 + t15_18_23 + t15_19_23 + t15_20_23 + t15_21_23 + t15_22_23 <= 7
notruetwins_16_17: t0_16_17 + t1_16_17 + t2_16_17 + t3_16_17 + t4_16_17 + t5_16_17 + t6_16_17 + t7_16_17 + t8_16_17 + t9_16_17 + t10_16_17 + t11_16_17 + t12_16_17 + t13_16_17 + t14_16_17 + t15_16_17 + t16_17_18 + t16_17_19 + t16_17_20 + t16_17_21 + t16_17_22 + t16_17_23 <= 7
notruetwins_16_18: t0_16_18 + t1_16_18 + t2_16_18 + t3_16_18 + t4_16_18 + t5_16_18 + t6_16_18 + t7_16_18 + t8_16_18 + t9_16_18 + t10_16_18 + t11_16_18 + t12_16_18 + t13_16_18 + t14_16_18 + t15_16_18 + t16_17_18 + t16_18_19 + t16_18_20 + t16_18_21 + t16_18_22 + t16_18_23 <= 7
notruetwins_16_19: t0_16_19 + t1_16_19 + t2_16_19 + t3_16_19 + t4_16_19 + t5_16_19 + t6_16_19 + t7_16_19 + t8_16_19 + t9_16_19 + t10_16_19 + t11_16_19 + t12_16_19 + t13_16_19 + t14_16_19 + t15_16_19 + t16_17_19 + t16_18_19 + t16_19_20 + t16_19_21 + t16_19_22 + t16_19_23 <= 7
notruetwins_16_20: t0_16_20 + t1_16_20 + t2_16_20 + t3_16_20 + t4_16_20 + t5_16_20 + t6_16_20 + t7_16_20 + t8_16_20 + t9_16_20 + t10_16_20 + t11_16_20 + t12_16_20 + t13_16_20 + t14_16_20 + t15_16_20 + t16_17_20 + t16_18_20 + t16_19_20 + t16_20_21 + t16_20_22 + t16_20_23 <= 7
notruetwins_16_21: t0_16_21 + t1_16_21 + t2_16_21 + t3_16_21 + t4_16_21 + t5_16_21 + t6_16_21 + t7_16_21 + t8_16_21 + t9_16_21 + t10_16_21 + t11_16_21 + t12_16_21 + t13_16_21 + t14_16_21 + t15_16_21 + t16_17_21 + t16_18_21 + t16_19_21 + t16_20_21 + t16_21_22 + t16_21_23 <= 7
notruetwins_16_22: t0_16_22 + t1_16_22 + t2_16_22 + t3_16_22 + t4_16_22 + t5_16_22 + t6_16_22 + t7_16_22 + t8_16_22 + t9_16_22 + t10_16_22 + t11_16_22 + t12_16_22 + t13_16_22 + t14_16_22 + t15_16_22 + t16_17_22 + t16_18_22 + t16_19_22 + t16_20_22 + t16_21_22 + t16_22_23 <= 7
notruetwins_16_23: t0_16_23 + t1_16_23 + t2_16_23 + t3_16_23 + t4_16_23 + t5_16_23 + t6_16_23 + t7_16_23 + t8_16_23 + t9_16_23 + t10_16_23 + t11_16_23 + t12_16_23 + t13_16_23 + t14_16_23 + t15_16_23 + t16_17_23 + t16_18_23 + t16_19_23 + t16_20_23 + t16_21_23 + t16_22_23 <= 7
notruetwins_17_18: t0_17_18 + t1_17_18 + t2_17_18 + t3_17_18 + t4_17_18 + t5_17_18 + t6_17_18 + t7_17_18 + t8_17_18 + t9_17_18 + t10_17_18 + t11_17_18 + t12_17_18 + t13_17_18 + t14_17_18 + t15_17_18 + t16_17_18 + t17_18_19 + t17_18_20 + t17_18_21 + t17_18_22 + t17_18_23 <= 7
notruetwins_17_19: t0_17_19 + t1_17_19 + t2_17_19 + t3_17_19 + t4_17_19 + t5_17_19 + t6_17_19 + t7_17_19 + t8_17_19 + t9_17_19 + t10_17_19 + t11_17_19 + t12_17_19 + t13_17_19 + t14_17_19 + t15_17_19 + t16_17_19 + t17_18_19 + t17_19_20 + t17_19_21 + t17_19_22 + t17_19_23 <= 7
notruetwins_17_20: t0_17_20 + t1_17_20 + t2_17_20 + t3_17_20 + t4_17_20 + t5_17_20 + t6_17_20 + t7_17_20 + t8_17_20 + t9_17_20 + t10_17_20 + t11_17_20 + t12_17_20 + t13_17_20 + t14_17_20 + t15_17_20 + t16_17_20 + t17_18_20 + t17_19_20 + t17_20_21 + t17_20_22 + t17_20_23 <= 7
notruetwins_17_21: t0_17_21 + t1_17_21 + t2_17_21 + t3_17_21 + t4_17_21 + t5_17_21 + t6_17_21 + t7_17_21 + t8_17_21 + t9_17_21 + t10_17_21 + t11_17_21 + t12_17_21 + t13_17_21 + t14_17_21 + t15_17_21 + t16_17_21 + t17_18_21 + t17_19_21 + t17_20_21 + t17_21_22 + t17_21_23 <= 7
notruetwins_17_22: t0_17_22 + t1_17_22 + t2_17_22 + t3_17_22 + t4_17_22 + t5_17_22 + t6_17_22 + t7_17_22 + t8_17_22 + t9_17_22 + t10_17_22 + t11_17_22 + t12_17_22 + t13_17_22 + t14_17_22 + t15_17_22 + t16_17_22 + t17_18_22 + t17_19_22 + t17_20_22 + t17_21_22 + t17_22_23 <= 7
notruetwins_17_23: t0_17_23 + t1_17_23 + t2_17_23 + t3_17_23 + t4_17_23 + t5_17_23 + t6_17_23 + t7_17_23 + t8_17_23 + t9_17_23 + t10_17_23 + t11_17_23 + t12_17_23 + t13_17_23 + t14_17_23 + t15_17_23 + t16_17_23 + t17_18_23 + t17_19_23 + t17_20_23 + t17_21_23 + t17_22_23 <= 7
notruetwins_18_19: t0_18_19 + t1_18_19 + t2_18_19 + t3_18_19 + t4_18_19 + t5_18_19 + t6_18_19 + t7_18_19 + t8_18_19 + t9_18_19 + t10_18_19 + t11_18_19 + t12_18_19 + t13_18_19 + t14_18_19 + t15_18_19 + t16_18_19 + t17_18_19 + t18_19_20 + t18_19_21 + t18_19_22 + t18_19_23 <= 7
notruetwins_18_20: t0_18_20 + t1_18_20 + t2_18_20 + t3_18_20 + t4_18_20 + t5_18_20 + t6_18_20 + t7_18_20 + t8_18_20 + t9_18_20 + t10_18_20 + t11_18_20 + t12_18_20 + t13_18_20 + t14_18_20 + t15_18_20 + t16_18_20 + t17_18_20 + t18_19_20 + t18_20_21 + t18_20_22 + t18_20_23 <= 7
notruetwins_18_21: t0_18_21 + t1_18_21 + t2_18_21 + t3_18_21 + t4_18_21 + t5_18_21 + t6_18_21 + t7_18_21 + t8_18_21 + t9_18_21 + t10_18_21 + t11_18_21 + t12_18_21 + t13_18_21 + t14_18_21 + t15_18_21 + t16_18_21 + t17_18_21 + t18_19_21 + t18_20_21 + t18_21_22 + t18_21_23 <= 7
notruetwins_18_22: t0_18_22 + t1_18_22 + t2_18_22 + t3_18_22 + t4_18_22 + t5_18_22 + t6_18_22 + t7_18_22 + t8_18_22 + t9_18_22 + t10_18_22 + t11_18_22 + t12_18_22 + t13_18_22 + t14_18_22 + t15_18_22 + t16_18_22 + t17_18_22 + t18_19_22 + t18_20_22 + t18_21_22 + t18_22_23 <= 7
notruetwins_18_23: t0_18_23 + t1_18_23 + t2_18_23 + t3_18_23 + t4_18_23 + t5_18_23 + t6_18_23 + t7_18_23 + t8_18_23 + t9_18_23 + t10_18_23 + t11_18_23 + t12_18_23 + t13_18_23 + t14_18_23 + t15_18_23 + t16_18_23 + t17_18_23 + t18_19_23 + t18_20_23 + t18_21_23 + t18_22_23 <= 7
notruetwins_19_20: t0_19_20 + t1_19_20 + t2_19_20 + t3_19_20 + t4_19_20 + t5_19_20 + t6_19_20 + t7_19_20 + t8_19_20 + t9_19_20 + t10_19_20 + t11_19_20 + t12_19_20 + t13_19_20 + t14_19_20 + t15_19_20 + t16_19_20 + t17_19_20 + t18_19_20 + t19_20_21 + t19_20_22 + t19_20_23 <= 7
notruetwins_19_21: t0_19_21 + t1_19_21 + t2_19_21 + t3_19_21 + t4_19_21 + t5_19_21 + t6_19_21 + t7_19_21 + t8_19_21 + t9_19_21 + t10_19_21 + t11_19_21 + t12_19_21 + t13_19_21 + t14_19_21 + t15_19_21 + t16_19_21 + t17_19_21 + t18_19_21 + t19_20_21 + t19_21_22 + t19_21_23 <= 7
notruetwins_19_22: t0_19_22 + t1_19_22 + t2_19_22 + t3_19_22 + t4_19_22 + t5_19_22 + t6_19_22 + t7_19_22 + t8_19_22 + t9_19_22 + t10_19_22 + t11_19_22 + t12_19_22 + t13_19_22 + t14_19_22 + t15_19_22 + t16_19_22 + t17_19_22 + t18_19_22 + t19_20_22 + t19_21_22 + t19_22_23 <= 7
notruetwins_19_23: t0_19_23 + t1_19_23 + t2_19_23 + t3_19_23 + t4_19_23 + t5_19_23 + t6_19_23 + t7_19_23 + t8_19_23 + t9_19_23 + t10_19_23 + t11_19_23 + t12_19_23 + t13_19_23 + t14_19_23 + t15_19_23 + t16_19_23 + t17_19_23 + t18_19_23 + t19_20_23 + t19_21_23 + t19_22_23 <= 7
notruetwins_20_21: t0_20_21 + t1_20_21 + t2_20_21 + t3_20_21 + t4_20_21 + t5_20_21 + t6_20_21 + t7_20_21 + t8_20_21 + t9_20_21 + t10_20_21 + t11_20_21 + t12_20_21 + t13_20_21 + t14_20_21 + t15_20_21 + t16_20_21 + t17_20_21 + t18_20_21 + t19_20_21 + t20_21_22 + t20_21_23 <= 7
notruetwins_20_22: t0_20_22 + t1_20_22 + t2_20_22 + t3_20_22 + t4_20_22 + t5_20_22 + t6_20_22 + t7_20_22 + t8_20_22 + t9_20_22 + t10_20_22 + t11_20_22 + t12_20_22 + t13_20_22 + t14_20_22 + t15_20_22 + t16_20_22 + t17_20_22 + t18_20_22 + t19_20_22 + t20_21_22 + t20_22_23 <= 7
notruetwins_20_23: t0_20_23 + t1_20_23 + t2_20_23 + t3_20_23 + t4_20_23 + t5_20_23 + t6_20_23 + t7_20_23 + t8_20_23 + t9_20_23 + t10_20_23 + t11_20_23 + t12_20_23 + t13_20_23 + t14_20_23 + t15_20_23 + t16_20_23 + t17_20_23 + t18_20_23 + t19_20_23 + t20_21_23 + t20_22_23 <= 7
notruetwins_21_22: t0_21_22 + t1_21_22 + t2_21_22 + t3_21_22 + t4_21_22 + t5_21_22 + t6_21_22 + t7_21_22 + t8_21_22 + t9_21_22 + t10_21_22 + t11_21_22 + t12_21_22 + t13_21_22 + t14_21_22 + t15_21_22 + t16_21_22 + t17_21_22 + t18_21_22 + t19_21_22 + t20_21_22 + t21_22_23 <= 7
notruetwins_21_23: t0_21_23 + t1_21_23 + t2_21_23 + t3_21_23 + t4_21_23 + t5_21_23 + t6_21_23 + t7_21_23 + t8_21_23 + t9_21_23 + t10_21_23 + t11_21_23 + t12_21_23 + t13_21_23 + t14_21_23 + t15_21_23 + t16_21_23 + t17_21_23 + t18_21_23 + t19_21_23 + t20_21_23 + t21_22_23 <= 7
notruetwins_22_23: t0_22_23 + t1_22_23 + t2_22_23 + t3_22_23 + t4_22_23 + t5_22_23 + t6_22_23 + t7_22_23 + t8_22_23 + t9_22_23 + t10_22_23 + t11_22_23 + t12_22_23 + t13_22_23 + t14_22_23 + t15_22_23 + t16_22_23 + t17_22_23 + t18_22_23 + t19_22_23 + t20_22_23 + t21_22_23 <= 7

tri1_0_1_2: t0_1_2 - x0_1 <= 0
tri2_0_1_2: t0_1_2 - x0_2 <= 0
tri3_0_1_2: t0_1_2 - x1_2 <= 0
tri4_0_1_2: t0_1_2 - x0_1 - x0_2 - x1_2 >= -2
tri1_0_1_3: t0_1_3 - x0_1 <= 0
tri2_0_1_3: t0_1_3 - x0_3 <= 0
tri3_0_1_3: t0_1_3 - x1_3 <= 0
tri4_0_1_3: t0_1_3 - x0_1 - x0_3 - x1_3 >= -2
tri1_0_1_4: t0_1_4 - x0_1 <= 0
tri2_0_1_4: t0_1_4 - x0_4 <= 0
tri3_0_1_4: t0_1_4 - x1_4 <= 0
tri4_0_1_4: t0_1_4 - x0_1 - x0_4 - x1_4 >= -2
tri1_0_1_5: t0_1_5 - x0_1 <= 0
tri2_0_1_5: t0_1_5 - x0_5 <= 0
tri3_0_1_5: t0_1_5 - x1_5 <= 0
tri4_0_1_5: t0_1_5 - x0_1 - x0_5 - x1_5 >= -2
tri1_0_1_6: t0_1_6 - x0_1 <= 0
tri2_0_1_6: t0_1_6 - x0_6 <= 0
tri3_0_1_6: t0_1_6 - x1_6 <= 0
tri4_0_1_6: t0_1_6 - x0_1 - x0_6 - x1_6 >= -2
tri1_0_1_7: t0_1_7 - x0_1 <= 0
tri2_0_1_7: t0_1_7 - x0_7 <= 0
tri3_0_1_7: t0_1_7 - x1_7 <= 0
tri4_0_1_7: t0_1_7 - x0_1 - x0_7 - x1_7 >= -2
tri1_0_1_8: t0_1_8 - x0_1 <= 0
tri2_0_1_8: t0_1_8 - x0_8 <= 0
tri3_0_1_8: t0_1_8 - x1_8 <= 0
tri4_0_1_8: t0_1_8 - x0_1 - x0_8 - x1_8 >= -2
tri1_0_1_9: t0_1_9 - x0_1 <= 0
tri2_0_1_9: t0_1_9 - x0_9 <= 0
tri3_0_1_9: t0_1_9 - x1_9 <= 0
tri4_0_1_9: t0_1_9 - x0_1 - x0_9 - x1_9 >= -2
tri1_0_1_10: t0_1_10 - x0_1 <= 0
tri2_0_1_10: t0_1_10 - x0_10 <= 0
tri3_0_1_10: t0_1_10 - x1_10 <= 0
tri4_0_1_10: t0_1_10 - x0_1 - x0_10 - x1_10 >= -2
tri1_0_1_11: t0_1_11 - x0_1 <= 0
tri2_0_1_11: t0_1_11 - x0_11 <= 0
tri3_0_1_11: t0_1_11 - x1_11 <= 0
tri4_0_1_11: t0_1_11 - x0_1 - x0_11 - x1_11 >= -2
tri1_0_1_12: t0_1_12 - x0_1 <= 0
tri2_0_1_12: t0_1_12 - x0_12 <= 0
tri3_0_1_12: t0_1_12 - x1_12 <= 0
tri4_0_1_12: t0_1_12 - x0_1 - x0_12 - x1_12 >= -2
tri1_0_1_13: t0_1_13 - x0_1 <= 0
tri2_0_1_13: t0_1_13 - x0_13 <= 0
tri3_0_1_13: t0_1_13 - x1_13 <= 0
tri4_0_1_13: t0_1_13 - x0_1 - x0_13 - x1_13 >= -2
tri1_0_1_14: t0_1_14 - x0_1 <= 0
tri2_0_1_14: t0_1_14 - x0_14 <= 0
tri3_0_1_14: t0_1_14 - x1_14 <= 0
tri4_0_1_14: t0_1_14 - x0_1 - x0_14 - x1_14 >= -2
tri1_0_1_15: t0_1_15 - x0_1 <= 0
tri2_0_1_15: t0_1_15 - x0_15 <= 0
tri3_0_1_15: t0_1_15 - x1_15 <= 0
tri4_0_1_15: t0_1_15 - x0_1 - x0_15 - x1_15 >= -2
tri1_0_1_16: t0_1_16 - x0_1 <= 0
tri2_0_1_16: t0_1_16 - x0_16 <= 0
tri3_0_1_16: t0_1_16 - x1_16 <= 0
tri4_0_1_16: t0_1_16 - x0_1 - x0_16 - x1_16 >= -2
tri1_0_1_17: t0_1_17 - x0_1 <= 0
tri2_0_1_17: t0_1_17 - x0_17 <= 0
tri3_0_1_17: t0_1_17 - x1_17 <= 0
tri4_0_1_17: t0_1_17 - x0_1 - x0_17 - x1_17 >= -2
tri1_0_1_18: t0_1_18 - x0_1 <= 0
tri2_0_1_18: t0_1_18 - x0_18 <= 0
tri3_0_1_18: t0_1_18 - x1_18 <= 0
tri4_0_1_18: t0_1_18 - x0_1 - x0_18 - x1_18 >= -2
tri1_0_1_19: t0_1_19 - x0_1 <= 0
tri2_0_1_19: t0_1_19 - x0_19 <= 0
tri3_0_1_19: t0_1_19 - x1_19 <= 0
tri4_0_1_19: t0_1_19 - x0_1 - x0_19 - x1_19 >= -2
tri1_0_1_20: t0_1_20 - x0_1 <= 0
tri2_0_1_20: t0_1_20 - x0_20 <= 0
tri3_0_1_20: t0_1_20 - x1_20 <= 0
tri4_0_1_20: t0_1_20 - x0_1 - x0_20 - x1_20 >= -2
tri1_0_1_21: t0_1_21 - x0_1 <= 0
tri2_0_1_21: t0_1_21 - x0_21 <= 0
tri3_0_1_21: t0_1_21 - x1_21 <= 0
tri4_0_1_21: t0_1_21 - x0_1 - x0_21 - x1_21 >= -2
tri1_0_1_22: t0_1_22 - x0_1 <= 0
tri2_0_1_22: t0_1_22 - x0_22 <= 0
tri3_0_1_22: t0_1_22 - x1_22 <= 0
tri4_0_1_22: t0_1_22 - x0_1 - x0_22 - x1_22 >= -2
tri1_0_1_23: t0_1_23 - x0_1 <= 0
tri2_0_1_23: t0_1_23 - x0_23 <= 0
tri3_0_1_23: t0_1_23 - x1_23 <= 0
tri4_0_1_23: t0_1_23 - x0_1 - x0_23 - x1_23 >= -2
tri1_0_2_3: t0_2_3 - x0_2 <= 0
tri2_0_2_3: t0_2_3 - x0_3 <= 0
tri3_0_2_3: t0_2_3 - x2_3 <= 0
tri4_0_2_3: t0_2_3 - x0_2 - x0_3 - x2_3 >= -2
tri1_0_2_4: t0_2_4 - x0_2 <= 0
tri2_0_2_4: t0_2_4 - x0_4 <= 0
tri3_0_2_4: t0_2_4 - x2_4 <= 0
tri4_0_2_4: t0_2_4 - x0_2 - x0_4 - x2_4 >= -2
tri1_0_2_5: t0_2_5 - x0_2 <= 0
tri2_0_2_5: t0_2_5 - x0_5 <= 0
tri3_0_2_5: t0_2_5 - x2_5 <= 0
tri4_0_2_5: t0_2_5 - x0_2 - x0_5 - x2_5 >= -2
tri1_0_2_6: t0_2_6 - x0_2 <= 0
tri2_0_2_6: t0_2_6 - x0_6 <= 0
tri3_0_2_6: t0_2_6 - x2_6 <= 0
tri4_0_2_6: t0_2_6 - x0_2 - x0_6 - x2_6 >= -2
tri1_0_2_7: t0_2_7 - x0_2 <= 0
tri2_0_2_7: t0_2_7 - x0_7 <= 0
tri3_0_2_7: t0_2_7 - x2_7 <= 0
tri4_0_2_7: t0_2_7 - x0_2 - x0_7 - x2_7 >= -2
tri1_0_2_8: t0_2_8 - x0_2 <= 0
tri2_0_2_8: t0_2_8 - x0_8 <= 0
tri3_0_2_8: t0_2_8 - x2_8 <= 0
tri4_0_2_8: t0_2_8 - x0_2 - x0_8 - x2_8 >= -2
tri1_0_2_9: t0_2_9 - x0_2 <= 0
tri2_0_2_9: t0_2_9 - x0_9 <= 0
tri3_0_2_9: t0_2_9 - x2_9 <= 0
tri4_0_2_9: t0_2_9 - x0_2 - x0_9 - x2_9 >= -2
tri1_0_2_10: t0_2_10 - x0_2 <= 0
tri2_0_2_10: t0_2_10 - x0_10 <= 0
tri3_0_2_10: t0_2_10 - x2_10 <= 0
tri4_0_2_10: t0_2_10 - x0_2 - x0_10 - x2_10 >= -2
tri1_0_2_11: t0_2_11 - x0_2 <= 0
tri2_0_2_11: t0_2_11 - x0_11 <= 0
tri3_0_2_11: t0_2_11 - x2_11 <= 0
tri4_0_2_11: t0_2_11 - x0_2 - x0_11 - x2_11 >= -2
tri1_0_2_12: t0_2_12 - x0_2 <= 0
tri2_0_2_12: t0_2_12 - x0_12 <= 0
tri3_0_2_12: t0_2_12 - x2_12 <= 0
tri4_0_2_12: t0_2_12 - x0_2 - x0_12 - x2_12 >= -2
tri1_0_2_13: t0_2_13 - x0_2 <= 0
tri2_0_2_13: t0_2_13 - x0_13 <= 0
tri3_0_2_13: t0_2_13 - x2_13 <= 0
tri4_0_2_13: t0_2_13 - x0_2 - x0_13 - x2_13 >= -2
tri1_0_2_14: t0_2_14 - x0_2 <= 0
tri2_0_2_14: t0_2_14 - x0_14 <= 0
tri3_0_2_14: t0_2_14 - x2_14 <= 0
tri4_0_2_14: t0_2_14 - x0_2 - x0_14 - x2_14 >= -2
tri1_0_2_15: t0_2_15 - x0_2 <= 0
tri2_0_2_15: t0_2_15 - x0_15 <= 0
tri3_0_2_15: t0_2_15 - x2_15 <= 0
tri4_0_2_15: t0_2_15 - x0_2 - x0_15 - x2_15 >= -2
tri1_0_2_16: t0_2_16 - x0_2 <= 0
tri2_0_2_16: t0_2_16 - x0_16 <= 0
tri3_0_2_16: t0_2_16 - x2_16 <= 0
tri4_0_2_16: t0_2_16 - x0_2 - x0_16 - x2_16 >= -2
tri1_0_2_17: t0_2_17 - x0_2 <= 0
tri2_0_2_17: t0_2_17 - x0_17 <= 0
tri3_0_2_17: t0_2_17 - x2_17 <= 0
tri4_0_2_17: t0_2_17 - x0_2 - x0_17 - x2_17 >= -2
tri1_0_2_18: t0_2_18 - x0_2 <= 0
tri2_0_2_18: t0_2_18 - x0_18 <= 0
tri3_0_2_18: t0_2_18 - x2_18 <= 0
tri4_0_2_18: t0_2_18 - x0_2 - x0_18 - x2_18 >= -2
tri1_0_2_19: t0_2_19 - x0_2 <= 0
tri2_0_2_19: t0_2_19 - x0_19 <= 0
tri3_0_2_19: t0_2_19 - x2_19 <= 0
tri4_0_2_19: t0_2_19 - x0_2 - x0_19 - x2_19 >= -2
tri1_0_2_20: t0_2_20 - x0_2 <= 0
tri2_0_2_20: t0_2_20 - x0_20 <= 0
tri3_0_2_20: t0_2_20 - x2_20 <= 0
tri4_0_2_20: t0_2_20 - x0_2 - x0_20 - x2_20 >= -2
tri1_0_2_21: t0_2_21 - x0_2 <= 0
tri2_0_2_21: t0_2_21 - x0_21 <= 0
tri3_0_2_21: t0_2_21 - x2_21 <= 0
tri4_0_2_21: t0_2_21 - x0_2 - x0_21 - x2_21 >= -2
tri1_0_2_22: t0_2_22 - x0_2 <= 0
tri2_0_2_22: t0_2_22 - x0_22 <= 0
tri3_0_2_22: t0_2_22 - x2_22 <= 0
tri4_0_2_22: t0_2_22 - x0_2 - x0_22 - x2_22 >= -2
tri1_0_2_23: t0_2_23 - x0_2 <= 0
tri2_0_2_23: t0_2_23 - x0_23 <= 0
tri3_0_2_23: t0_2_23 - x2_23 <= 0
tri4_0_2_23: t0_2_23 - x0_2 - x0_23 - x2_23 >= -2
tri1_0_3_4: t0_3_4 - x0_3 <= 0
tri2_0_3_4: t0_3_4 - x0_4 <= 0
tri3_0_3_4: t0_3_4 - x3_4 <= 0
tri4_0_3_4: t0_3_4 - x0_3 - x0_4 - x3_4 >= -2
tri1_0_3_5: t0_3_5 - x0_3 <= 0
tri2_0_3_5: t0_3_5 - x0_5 <= 0
tri3_0_3_5: t0_3_5 - x3_5 <= 0
tri4_0_3_5: t0_3_5 - x0_3 - x0_5 - x3_5 >= -2
tri1_0_3_6: t0_3_6 - x0_3 <= 0
tri2_0_3_6: t0_3_6 - x0_6 <= 0
tri3_0_3_6: t0_3_6 - x3_6 <= 0
tri4_0_3_6: t0_3_6 - x0_3 - x0_6 - x3_6 >= -2
tri1_0_3_7: t0_3_7 - x0_3 <= 0
tri2_0_3_7: t0_3_7 - x0_7 <= 0
tri3_0_3_7: t0_3_7 - x3_7 <= 0
tri4_0_3_7: t0_3_7 - x0_3 - x0_7 - x3_7 >= -2
tri1_0_3_8: t0_3_8 - x0_3 <= 0
tri2_0_3_8: t0_3_8 - x0_8 <= 0
tri3_0_3_8: t0_3_8 - x3_8 <= 0
tri4_0_3_8: t0_3_8 - x0_3 - x0_8 - x3_8 >= -2
tri1_0_3_9: t0_3_9 - x0_3 <= 0
tri2_0_3_9: t0_3_9 - x0_9 <= 0
tri3_0_3_9: t0_3_9 - x3_9 <= 0
tri4_0_3_9: t0_3_9 - x0_3 - x0_9 - x3_9 >= -2
tri1_0_3_10: t0_3_10 - x0_3 <= 0
tri2_0_3_10: t0_3_10 - x0_10 <= 0
tri3_0_3_10: t0_3_10 - x3_10 <= 0
tri4_0_3_10: t0_3_10 - x0_3 - x0_10 - x3_10 >= -2
tri1_0_3_11: t0_3_11 - x0_3 <= 0
tri2_0_3_11: t0_3_11 - x0_11 <= 0
tri3_0_3_11: t0_3_11 - x3_11 <= 0
tri4_0_3_11: t0_3_11 - x0_3 - x0_11 - x3_11 >= -2
tri1_0_3_12: t0_3_12 - x0_3 <= 0
tri2_0_3_12: t0_3_12 - x0_12 <= 0
tri3_0_3_12: t0_3_12 - x3_12 <= 0
tri4_0_3_12: t0_3_12 - x0_3 - x0_12 - x3_12 >= -2
tri1_0_3_13: t0_3_13 - x0_3 <= 0
tri2_0_3_13: t0_3_13 - x0_13 <= 0
tri3_0_3_13: t0_3_13 - x3_13 <= 0
tri4_0_3_13: t0_3_13 - x0_3 - x0_13 - x3_13 >= -2
tri1_0_3_14: t0_3_14 - x0_3 <= 0
tri2_0_3_14: t0_3_14 - x0_14 <= 0
tri3_0_3_14: t0_3_14 - x3_14 <= 0
tri4_0_3_14: t0_3_14 - x0_3 - x0_14 - x3_14 >= -2
tri1_0_3_15: t0_3_15 - x0_3 <= 0
tri2_0_3_15: t0_3_15 - x0_15 <= 0
tri3_0_3_15: t0_3_15 - x3_15 <= 0
tri4_0_3_15: t0_3_15 - x0_3 - x0_15 - x3_15 >= -2
tri1_0_3_16: t0_3_16 - x0_3 <= 0
tri2_0_3_16: t0_3_16 - x0_16 <= 0
tri3_0_3_16: t0_3_16 - x3_16 <= 0
tri4_0_3_16: t0_3_16 - x0_3 - x0_16 - x3_16 >= -2
tri1_0_3_17: t0_3_17 - x0_3 <= 0
tri2_0_3_17: t0_3_17 - x0_17 <= 0
tri3_0_3_17: t0_3_17 - x3_17 <= 0
tri4_0_3_17: t0_3_17 - x0_3 - x0_17 - x3_17 >= -2
tri1_0_3_18: t0_3_18 - x0_3 <= 0
tri2_0_3_18: t0_3_18 - x0_18 <= 0
tri3_0_3_18: t0_3_18 - x3_18 <= 0
tri4_0_3_18: t0_3_18 - x0_3 - x0_18 - x3_18 >= -2
tri1_0_3_19: t0_3_19 - x0_3 <= 0
tri2_0_3_19: t0_3_19 - x0_19 <= 0
tri3_0_3_19: t0_3_19 - x3_19 <= 0
tri4_0_3_19: t0_3_19 - x0_3 - x0_19 - x3_19 >= -2
tri1_0_3_20: t0_3_20 - x0_3 <= 0
tri2_0_3_20: t0_3_20 - x0_20 <= 0
tri3_0_3_20: t0_3_20 - x3_20 <= 0
tri4_0_3_20: t0_3_20 - x0_3 - x0_20 - x3_20 >= -2
tri1_0_3_21: t0_3_21 - x0_3 <= 0
tri2_0_3_21: t0_3_21 - x0_21 <= 0
tri3_0_3_21: t0_3_21 - x3_21 <= 0
tri4_0_3_21: t0_3_21 - x0_3 - x0_21 - x3_21 >= -2
tri1_0_3_22: t0_3_22 - x0_3 <= 0
tri2_0_3_22: t0_3_22 - x0_22 <= 0
tri3_0_3_22: t0_3_22 - x3_22 <= 0
tri4_0_3_22: t0_3_22 - x0_3 - x0_22 - x3_22 >= -2
tri1_0_3_23: t0_3_23 - x0_3 <= 0
tri2_0_3_23: t0_3_23 - x0_23 <= 0
tri3_0_3_23: t0_3_23 - x3_23 <= 0
tri4_0_3_23: t0_3_23 - x0_3 - x0_23 - x3_23 >= -2
tri1_0_4_5: t0_4_5 - x0_4 <= 0
tri2_0_4_5: t0_4_5 - x0_5 <= 0
tri3_0_4_5: t0_4_5 - x4_5 <= 0
tri4_0_4_5: t0_4_5 - x0_4 - x0_5 - x4_5 >= -2
tri1_0_4_6: t0_4_6 - x0_4 <= 0
tri2_0_4_6: t0_4_6 - x0_6 <= 0
tri3_0_4_6: t0_4_6 - x4_6 <= 0
tri4_0_4_6: t0_4_6 - x0_4 - x0_6 - x4_6 >= -2
tri1_0_4_7: t0_4_7 - x0_4 <= 0
tri2_0_4_7: t0_4_7 - x0_7 <= 0
tri3_0_4_7: t0_4_7 - x4_7 <= 0
tri4_0_4_7: t0_4_7 - x0_4 - x0_7 - x4_7 >= -2
tri1_0_4_8: t0_4_8 - x0_4 <= 0
tri2_0_4_8: t0_4_8 - x0_8 <= 0
tri3_0_4_8: t0_4_8 - x4_8 <= 0
tri4_0_4_8: t0_4_8 - x0_4 - x0_8 - x4_8 >= -2
tri1_0_4_9: t0_4_9 - x0_4 <= 0
tri2_0_4_9: t0_4_9 - x0_9 <= 0
tri3_0_4_9: t0_4_9 - x4_9 <= 0
tri4_0_4_9: t0_4_9 - x0_4 - x0_9 - x4_9 >= -2
tri1_0_4_10: t0_4_10 - x0_4 <= 0
tri2_0_4_10: t0_4_10 - x0_10 <= 0
tri3_0_4_10: t0_4_10 - x4_10 <= 0
tri4_0_4_10: t0_4_10 - x0_4 - x0_10 - x4_10 >= -2
tri1_0_4_11: t0_4_11 - x0_4 <= 0
tri2_0_4_11: t0_4_11 - x0_11 <= 0
tri3_0_4_11: t0_4_11 - x4_11 <= 0
tri4_0_4_11: t0_4_11 - x0_4 - x0_11 - x4_11 >= -2
tri1_0_4_12: t0_4_12 - x0_4 <= 0
tri2_0_4_12: t0_4_12 - x0_12 <= 0
tri3_0_4_12: t0_4_12 - x4_12 <= 0
tri4_0_4_12: t0_4_12 - x0_4 - x0_12 - x4_12 >= -2
tri1_0_4_13: t0_4_13 - x0_4 <= 0
tri2_0_4_13: t0_4_13 - x0_13 <= 0
tri3_0_4_13: t0_4_13 - x4_13 <= 0
tri4_0_4_13: t0_4_13 - x0_4 - x0_13 - x4_13 >= -2
tri1_0_4_14: t0_4_14 - x0_4 <= 0
tri2_0_4_14: t0_4_14 - x0_14 <= 0
tri3_0_4_14: t0_4_14 - x4_14 <= 0
tri4_0_4_14: t0_4_14 - x0_4 - x0_14 - x4_14 >= -2
tri1_0_4_15: t0_4_15 - x0_4 <= 0
tri2_0_4_15: t0_4_15 - x0_15 <= 0
tri3_0_4_15: t0_4_15 - x4_15 <= 0
tri4_0_4_15: t0_4_15 - x0_4 - x0_15 - x4_15 >= -2
tri1_0_4_16: t0_4_16 - x0_4 <= 0
tri2_0_4_16: t0_4_16 - x0_16 <= 0
tri3_0_4_16: t0_4_16 - x4_16 <= 0
tri4_0_4_16: t0_4_16 - x0_4 - x0_16 - x4_16 >= -2
tri1_0_4_17: t0_4_17 - x0_4 <= 0
tri2_0_4_17: t0_4_17 - x0_17 <= 0
tri3_0_4_17: t0_4_17 - x4_17 <= 0
tri4_0_4_17: t0_4_17 - x0_4 - x0_17 - x4_17 >= -2
tri1_0_4_18: t0_4_18 - x0_4 <= 0
tri2_0_4_18: t0_4_18 - x0_18 <= 0
tri3_0_4_18: t0_4_18 - x4_18 <= 0
tri4_0_4_18: t0_4_18 - x0_4 - x0_18 - x4_18 >= -2
tri1_0_4_19: t0_4_19 - x0_4 <= 0
tri2_0_4_19: t0_4_19 - x0_19 <= 0
tri3_0_4_19: t0_4_19 - x4_19 <= 0
tri4_0_4_19: t0_4_19 - x0_4 - x0_19 - x4_19 >= -2
tri1_0_4_20: t0_4_20 - x0_4 <= 0
tri2_0_4_20: t0_4_20 - x0_20 <= 0
tri3_0_4_20: t0_4_20 - x4_20 <= 0
tri4_0_4_20: t0_4_20 - x0_4 - x0_20 - x4_20 >= -2
tri1_0_4_21: t0_4_21 - x0_4 <= 0
tri2_0_4_21: t0_4_21 - x0_21 <= 0
tri3_0_4_21: t0_4_21 - x4_21 <= 0
tri4_0_4_21: t0_4_21 - x0_4 - x0_21 - x4_21 >= -2
tri1_0_4_22: t0_4_22 - x0_4 <= 0
tri2_0_4_22: t0_4_22 - x0_22 <= 0
tri3_0_4_22: t0_4_22 - x4_22 <= 0
tri4_0_4_22: t0_4_22 - x0_4 - x0_22 - x4_22 >= -2
tri1_0_4_23: t0_4_23 - x0_4 <= 0
tri2_0_4_23: t0_4_23 - x0_23 <= 0
tri3_0_4_23: t0_4_23 - x4_23 <= 0
tri4_0_4_23: t0_4_23 - x0_4 - x0_23 - x4_23 >= -2
tri1_0_5_6: t0_5_6 - x0_5 <= 0
tri2_0_5_6: t0_5_6 - x0_6 <= 0
tri3_0_5_6: t0_5_6 - x5_6 <= 0
tri4_0_5_6: t0_5_6 - x0_5 - x0_6 - x5_6 >= -2
tri1_0_5_7: t0_5_7 - x0_5 <= 0
tri2_0_5_7: t0_5_7 - x0_7 <= 0
tri3_0_5_7: t0_5_7 - x5_7 <= 0
tri4_0_5_7: t0_5_7 - x0_5 - x0_7 - x5_7 >= -2
tri1_0_5_8: t0_5_8 - x0_5 <= 0
tri2_0_5_8: t0_5_8 - x0_8 <= 0
tri3_0_5_8: t0_5_8 - x5_8 <= 0
tri4_0_5_8: t0_5_8 - x0_5 - x0_8 - x5_8 >= -2
tri1_0_5_9: t0_5_9 - x0_5 <= 0
tri2_0_5_9: t0_5_9 - x0_9 <= 0
tri3_0_5_9: t0_5_9 - x5_9 <= 0
tri4_0_5_9: t0_5_9 - x0_5 - x0_9 - x5_9 >= -2
tri1_0_5_10: t0_5_10 - x0_5 <= 0
tri2_0_5_10: t0_5_10 - x0_10 <= 0
tri3_0_5_10: t0_5_10 - x5_10 <= 0
tri4_0_5_10: t0_5_10 - x0_5 - x0_10 - x5_10 >= -2
tri1_0_5_11: t0_5_11 - x0_5 <= 0
tri2_0_5_11: t0_5_11 - x0_11 <= 0
tri3_0_5_11: t0_5_11 - x5_11 <= 0
tri4_0_5_11: t0_5_11 - x0_5 - x0_11 - x5_11 >= -2
tri1_0_5_12: t0_5_12 - x0_5 <= 0
tri2_0_5_12: t0_5_12 - x0_12 <= 0
tri3_0_5_12: t0_5_12 - x5_12 <= 0
tri4_0_5_12: t0_5_12 - x0_5 - x0_12 - x5_12 >= -2
tri1_0_5_13: t0_5_13 - x0_5 <= 0
tri2_0_5_13: t0_5_13 - x0_13 <= 0
tri3_0_5_13: t0_5_13 - x5_13 <= 0
tri4_0_5_13: t0_5_13 - x0_5 - x0_13 - x5_13 >= -2
tri1_0_5_14: t0_5_14 - x0_5 <= 0
tri2_0_5_14: t0_5_14 - x0_14 <= 0
tri3_0_5_14: t0_5_14 - x5_14 <= 0
tri4_0_5_14: t0_5_14 - x0_5 - x0_14 - x5_14 >= -2
tri1_0_5_15: t0_5_15 - x0_5 <= 0
tri2_0_5_15: t0_5_15 - x0_15 <= 0
tri3_0_5_15: t0_5_15 - x5_15 <= 0
tri4_0_5_15: t0_5_15 - x0_5 - x0_15 - x5_15 >= -2
tri1_0_5_16: t0_5_16 - x0_5 <= 0
tri2_0_5_16: t0_5_16 - x0_16 <= 0
tri3_0_5_16: t0_5_16 - x5_16 <= 0
tri4_0_5_16: t0_5_16 - x0_5 - x0_16 - x5_16 >= -2
tri1_0_5_17: t0_5_17 - x0_5 <= 0
tri2_0_5_17: t0_5_17 - x0_17 <= 0
tri3_0_5_17: t0_5_17 - x5_17 <= 0
tri4_0_5_17: t0_5_17 - x0_5 - x0_17 - x5_17 >= -2
tri1_0_5_18: t0_5_18 - x0_5 <= 0
tri2_0_5_18: t0_5_18 - x0_18 <= 0
tri3_0_5_18: t0_5_18 - x5_18 <= 0
tri4_0_5_18: t0_5_18 - x0_5 - x0_18 - x5_18 >= -2
tri1_0_5_19: t0_5_19 - x0_5 <= 0
tri2_0_5_19: t0_5_19 - x0_19 <= 0
tri3_0_5_19: t0_5_19 - x5_19 <= 0
tri4_0_5_19: t0_5_19 - x0_5 - x0_19 - x5_19 >= -2
tri1_0_5_20: t0_5_20 - x0_5 <= 0
tri2_0_5_20: t0_5_20 - x0_20 <= 0
tri3_0_5_20: t0_5_20 - x5_20 <= 0
tri4_0_5_20: t0_5_20 - x0_5 - x0_20 - x5_20 >= -2
tri1_0_5_21: t0_5_21 - x0_5 <= 0
tri2_0_5_21: t0_5_21 - x0_21 <= 0
tri3_0_5_21: t0_5_21 - x5_21 <= 0
tri4_0_5_21: t0_5_21 - x0_5 - x0_21 - x5_21 >= -2
tri1_0_5_22: t0_5_22 - x0_5 <= 0
tri2_0_5_22: t0_5_22 - x0_22 <= 0
tri3_0_5_22: t0_5_22 - x5_22 <= 0
tri4_0_5_22: t0_5_22 - x0_5 - x0_22 - x5_22 >= -2
tri1_0_5_23: t0_5_23 - x0_5 <= 0
tri2_0_5_23: t0_5_23 - x0_23 <= 0
tri3_0_5_23: t0_5_23 - x5_23 <= 0
tri4_0_5_23: t0_5_23 - x0_5 - x0_23 - x5_23 >= -2
tri1_0_6_7: t0_6_7 - x0_6 <= 0
tri2_0_6_7: t0_6_7 - x0_7 <= 0
tri3_0_6_7: t0_6_7 - x6_7 <= 0
tri4_0_6_7: t0_6_7 - x0_6 - x0_7 - x6_7 >= -2
tri1_0_6_8: t0_6_8 - x0_6 <= 0
tri2_0_6_8: t0_6_8 - x0_8 <= 0
tri3_0_6_8: t0_6_8 - x6_8 <= 0
tri4_0_6_8: t0_6_8 - x0_6 - x0_8 - x6_8 >= -2
tri1_0_6_9: t0_6_9 - x0_6 <= 0
tri2_0_6_9: t0_6_9 - x0_9 <= 0
tri3_0_6_9: t0_6_9 - x6_9 <= 0
tri4_0_6_9: t0_6_9 - x0_6 - x0_9 - x6_9 >= -2
tri1_0_6_10: t0_6_10 - x0_6 <= 0
tri2_0_6_10: t0_6_10 - x0_10 <= 0
tri3_0_6_10: t0_6_10 - x6_10 <= 0
tri4_0_6_10: t0_6_10 - x0_6 - x0_10 - x6_10 >= -2
tri1_0_6_11: t0_6_11 - x0_6 <= 0
tri2_0_6_11: t0_6_11 - x0_11 <= 0
tri3_0_6_11: t0_6_11 - x6_11 <= 0
tri4_0_6_11: t0_6_11 - x0_6 - x0_11 - x6_11 >= -2
tri1_0_6_12: t0_6_12 - x0_6 <= 0
tri2_0_6_12: t0_6_12 - x0_12 <= 0
tri3_0_6_12: t0_6_12 - x6_12 <= 0
tri4_0_6_12: t0_6_12 - x0_6 - x0_12 - x6_12 >= -2
tri1_0_6_13: t0_6_13 - x0_6 <= 0
tri2_0_6_13: t0_6_13 - x0_13 <= 0
tri3_0_6_13: t0_6_13 - x6_13 <= 0
tri4_0_6_13: t0_6_13 - x0_6 - x0_13 - x6_13 >= -2
tri1_0_6_14: t0_6_14 - x0_6 <= 0
tri2_0_6_14: t0_6_14 - x0_14 <= 0
tri3_0_6_14: t0_6_14 - x6_14 <= 0
tri4_0_6_14: t0_6_14 - x0_6 - x0_14 - x6_14 >= -2
tri1_0_6_15: t0_6_15 - x0_6 <= 0
tri2_0_6_15: t0_6_15 - x0_15 <= 0
tri3_0_6_15: t0_6_15 - x6_15 <= 0
tri4_0_6_15: t0_6_15 - x0_6 - x0_15 - x6_15 >= -2
tri1_0_6_16: t0_6_16 - x0_6 <= 0
tri2_0_6_16: t0_6_16 - x0_16 <= 0
tri3_0_6_16: t0_6_16 - x6_16 <= 0
tri4_0_6_16: t0_6_16 - x0_6 - x0_16 - x6_16 >= -2
tri1_0_6_17: t0_6_17 - x0_6 <= 0
tri2_0_6_17: t0_6_17 - x0_17 <= 0
tri3_0_6_17: t0_6_17 - x6_17 <= 0
tri4_0_6_17: t0_6_17 - x0_6 - x0_17 - x6_17 >= -2
tri1_0_6_18: t0_6_18 - x0_6 <= 0
tri2_0_6_18: t0_6_18 - x0_18 <= 0
tri3_0_6_18: t0_6_18 - x6_18 <= 0
tri4_0_6_18: t0_6_18 - x0_6 - x0_18 - x6_18 >= -2
tri1_0_6_19: t0_6_19 - x0_6 <= 0
tri2_0_6_19: t0_6_19 - x0_19 <= 0
tri3_0_6_19: t0_6_19 - x6_19 <= 0
tri4_0_6_19: t0_6_19 - x0_6 - x0_19 - x6_19 >= -2
tri1_0_6_20: t0_6_20 - x0_6 <= 0
tri2_0_6_20: t0_6_20 - x0_20 <= 0
tri3_0_6_20: t0_6_20 - x6_20 <= 0
tri4_0_6_20: t0_6_20 - x0_6 - x0_20 - x6_20 >= -2
tri1_0_6_21: t0_6_21 - x0_6 <= 0
tri2_0_6_21: t0_6_21 - x0_21 <= 0
tri3_0_6_21: t0_6_21 - x6_21 <= 0
tri4_0_6_21: t0_6_21 - x0_6 - x0_21 - x6_21 >= -2
tri1_0_6_22: t0_6_22 - x0_6 <= 0
tri2_0_6_22: t0_6_22 - x0_22 <= 0
tri3_0_6_22: t0_6_22 - x6_22 <= 0
tri4_0_6_22: t0_6_22 - x0_6 - x0_22 - x6_22 >= -2
tri1_0_6_23: t0_6_23 - x0_6 <= 0
tri2_0_6_23: t0_6_23 - x0_23 <= 0
tri3_0_6_23: t0_6_23 - x6_23 <= 0
tri4_0_6_23: t0_6_23 - x0_6 - x0_23 - x6_23 >= -2
tri1_0_7_8: t0_7_8 - x0_7 <= 0
tri2_0_7_8: t0_7_8 - x0_8 <= 0
tri3_0_7_8: t0_7_8 - x7_8 <= 0
tri4_0_7_8: t0_7_8 - x0_7 - x0_8 - x7_8 >= -2
tri1_0_7_9: t0_7_9 - x0_7 <= 0
tri2_0_7_9: t0_7_9 - x0_9 <= 0
tri3_0_7_9: t0_7_9 - x7_9 <= 0
tri4_0_7_9: t0_7_9 - x0_7 - x0_9 - x7_9 >= -2
tri1_0_7_10: t0_7_10 - x0_7 <= 0
tri2_0_7_10: t0_7_10 - x0_10 <= 0
tri3_0_7_10: t0_7_10 - x7_10 <= 0
tri4_0_7_10: t0_7_10 - x0_7 - x0_10 - x7_10 >= -2
tri1_0_7_11: t0_7_11 - x0_7 <= 0
tri2_0_7_11: t0_7_11 - x0_11 <= 0
tri3_0_7_11: t0_7_11 - x7_11 <= 0
tri4_0_7_11: t0_7_11 - x0_7 - x0_11 - x7_11 >= -2
tri1_0_7_12: t0_7_12 - x0_7 <= 0
tri2_0_7_12: t0_7_12 - x0_12 <= 0
tri3_0_7_12: t0_7_12 - x7_12 <= 0
tri4_0_7_12: t0_7_12 - x0_7 - x0_12 - x7_12 >= -2
tri1_0_7_13: t0_7_13 - x0_7 <= 0
tri2_0_7_13: t0_7_13 - x0_13 <= 0
tri3_0_7_13: t0_7_13 - x7_13 <= 0
tri4_0_7_13: t0_7_13 - x0_7 - x0_13 - x7_13 >= -2
tri1_0_7_14: t0_7_14 - x0_7 <= 0
tri2_0_7_14: t0_7_14 - x0_14 <= 0
tri3_0_7_14: t0_7_14 - x7_14 <= 0
tri4_0_7_14: t0_7_14 - x0_7 - x0_14 - x7_14 >= -2
tri1_0_7_15: t0_7_15 - x0_7 <= 0
tri2_0_7_15: t0_7_15 - x0_15 <= 0
tri3_0_7_15: t0_7_15 - x7_15 <= 0
tri4_0_7_15: t0_7_15 - x0_7 - x0_15 - x7_15 >= -2
tri1_0_7_16: t0_7_16 - x0_7 <= 0
tri2_0_7_16: t0_7_16 - x0_16 <= 0
tri3_0_7_16: t0_7_16 - x7_16 <= 0
tri4_0_7_16: t0_7_16 - x0_7 - x0_16 - x7_16 >= -2
tri1_0_7_17: t0_7_17 - x0_7 <= 0
tri2_0_7_17: t0_7_17 - x0_17 <= 0
tri3_0_7_17: t0_7_17 - x7_17 <= 0
tri4_0_7_17: t0_7_17 - x0_7 - x0_17 - x7_17 >= -2
tri1_0_7_18: t0_7_18 - x0_7 <= 0
tri2_0_7_18: t0_7_18 - x0_18 <= 0
tri3_0_7_18: t0_7_18 - x7_18 <= 0
tri4_0_7_18: t0_7_18 - x0_7 - x0_18 - x7_18 >= -2
tri1_0_7_19: t0_7_19 - x0_7 <= 0
tri2_0_7_19: t0_7_19 - x0_19 <= 0
tri3_0_7_19: t0_7_19 - x7_19 <= 0
tri4_0_7_19: t0_7_19 - x0_7 - x0_19 - x7_19 >= -2
tri1_0_7_20: t0_7_20 - x0_7 <= 0
tri2_0_7_20: t0_7_20 - x0_20 <= 0
tri3_0_7_20: t0_7_20 - x7_20 <= 0
tri4_0_7_20: t0_7_20 - x0_7 - x0_20 - x7_20 >= -2
tri1_0_7_21: t0_7_21 - x0_7 <= 0
tri2_0_7_21: t0_7_21 - x0_21 <= 0
tri3_0_7_21: t0_7_21 - x7_21 <= 0
tri4_0_7_21: t0_7_21 - x0_7 - x0_21 - x7_21 >= -2
tri1_0_7_22: t0_7_22 - x0_7 <= 0
tri2_0_7_22: t0_7_22 - x0_22 <= 0
tri3_0_7_22: t0_7_22 - x7_22 <= 0
tri4_0_7_22: t0_7_22 - x0_7 - x0_22 - x7_22 >= -2
tri1_0_7_23: t0_7_23 - x0_7 <= 0
tri2_0_7_23: t0_7_23 - x0_23 <= 0
tri3_0_7_23: t0_7_23 - x7_23 <= 0
tri4_0_7_23: t0_7_23 - x0_7 - x0_23 - x7_23 >= -2
tri1_0_8_9: t0_8_9 - x0_8 <= 0
tri2_0_8_9: t0_8_9 - x0_9 <= 0
tri3_0_8_9: t0_8_9 - x8_9 <= 0
tri4_0_8_9: t0_8_9 - x0_8 - x0_9 - x8_9 >= -2
tri1_0_8_10: t0_8_10 - x0_8 <= 0
tri2_0_8_10: t0_8_10 - x0_10 <= 0
tri3_0_8_10: t0_8_10 - x8_10 <= 0
tri4_0_8_10: t0_8_10 - x0_8 - x0_10 - x8_10 >= -2
tri1_0_8_11: t0_8_11 - x0_8 <= 0
tri2_0_8_11: t0_8_11 - x0_11 <= 0
tri3_0_8_11: t0_8_11 - x8_11 <= 0
tri4_0_8_11: t0_8_11 - x0_8 - x0_11 - x8_11 >= -2
tri1_0_8_12: t0_8_12 - x0_8 <= 0
tri2_0_8_12: t0_8_12 - x0_12 <= 0
tri3_0_8_12: t0_8_12 - x8_12 <= 0
tri4_0_8_12: t0_8_12 - x0_8 - x0_12 - x8_12 >= -2
tri1_0_8_13: t0_8_13 - x0_8 <= 0
tri2_0_8_13: t0_8_13 - x0_13 <= 0
tri3_0_8_13: t0_8_13 - x8_13 <= 0
tri4_0_8_13: t0_8_13 - x0_8 - x0_13 - x8_13 >= -2
tri1_0_8_14: t0_8_14 - x0_8 <= 0
tri2_0_8_14: t0_8_14 - x0_14 <= 0
tri3_0_8_14: t0_8_14 - x8_14 <= 0
tri4_0_8_14: t0_8_14 - x0_8 - x0_14 - x8_14 >= -2
tri1_0_8_15: t0_8_15 - x0_8 <= 0
tri2_0_8_15: t0_8_15 - x0_15 <= 0
tri3_0_8_15: t0_8_15 - x8_15 <= 0
tri4_0_8_15: t0_8_15 - x0_8 - x0_15 - x8_15 >= -2
tri1_0_8_16: t0_8_16 - x0_8 <= 0
tri2_0_8_16: t0_8_16 - x0_16 <= 0
tri3_0_8_16: t0_8_16 - x8_16 <= 0
tri4_0_8_16: t0_8_16 - x0_8 - x0_16 - x8_16 >= -2
tri1_0_8_17: t0_8_17 - x0_8 <= 0
tri2_0_8_17: t0_8_17 - x0_17 <= 0
tri3_0_8_17: t0_8_17 - x8_17 <= 0
tri4_0_8_17: t0_8_17 - x0_8 - x0_17 - x8_17 >= -2
tri1_0_8_18: t0_8_18 - x0_8 <= 0
tri2_0_8_18: t0_8_18 - x0_18 <= 0
tri3_0_8_18: t0_8_18 - x8_18 <= 0
tri4_0_8_18: t0_8_18 - x0_8 - x0_18 - x8_18 >= -2
tri1_0_8_19: t0_8_19 - x0_8 <= 0
tri2_0_8_19: t0_8_19 - x0_19 <= 0
tri3_0_8_19: t0_8_19 - x8_19 <= 0
tri4_0_8_19: t0_8_19 - x0_8 - x0_19 - x8_19 >= -2
tri1_0_8_20: t0_8_20 - x0_8 <= 0
tri2_0_8_20: t0_8_20 - x0_20 <= 0
tri3_0_8_20: t0_8_20 - x8_20 <= 0
tri4_0_8_20: t0_8_20 - x0_8 - x0_20 - x8_20 >= -2
tri1_0_8_21: t0_8_21 - x0_8 <= 0
tri2_0_8_21: t0_8_21 - x0_21 <= 0
tri3_0_8_21: t0_8_21 - x8_21 <= 0
tri4_0_8_21: t0_8_21 - x0_8 - x0_21 - x8_21 >= -2
tri1_0_8_22: t0_8_22 - x0_8 <= 0
tri2_0_8_22: t0_8_22 - x0_22 <= 0
tri3_0_8_22: t0_8_22 - x8_22 <= 0
tri4_0_8_22: t0_8_22 - x0_8 - x0_22 - x8_22 >= -2
tri1_0_8_23: t0_8_23 - x0_8 <= 0
tri2_0_8_23: t0_8_23 - x0_23 <= 0
tri3_0_8_23: t0_8_23 - x8_23 <= 0
tri4_0_8_23: t0_8_23 - x0_8 - x0_23 - x8_23 >= -2
tri1_0_9_10: t0_9_10 - x0_9 <= 0
tri2_0_9_10: t0_9_10 - x0_10 <= 0
tri3_0_9_10: t0_9_10 - x9_10 <= 0
tri4_0_9_10: t0_9_10 - x0_9 - x0_10 - x9_10 >= -2
tri1_0_9_11: t0_9_11 - x0_9 <= 0
tri2_0_9_11: t0_9_11 - x0_11 <= 0
tri3_0_9_11: t0_9_11 - x9_11 <= 0
tri4_0_9_11: t0_9_11 - x0_9 - x0_11 - x9_11 >= -2
tri1_0_9_12: t0_9_12 - x0_9 <= 0
tri2_0_9_12: t0_9_12 - x0_12 <= 0
tri3_0_9_12: t0_9_12 - x9_12 <= 0
tri4_0_9_12: t0_9_12 - x0_9 - x0_12 - x9_12 >= -2
tri1_0_9_13: t0_9_13 - x0_9 <= 0
tri2_0_9_13: t0_9_13 - x0_13 <= 0
tri3_0_9_13: t0_9_13 - x9_13 <= 0
tri4_0_9_13: t0_9_13 - x0_9 - x0_13 - x9_13 >= -2
tri1_0_9_14: t0_9_14 - x0_9 <= 0
tri2_0_9_14: t0_9_14 - x0_14 <= 0
tri3_0_9_14: t0_9_14 - x9_14 <= 0
tri4_0_9_14: t0_9_14 - x0_9 - x0_14 - x9_14 >= -2
tri1_0_9_15: t0_9_15 - x0_9 <= 0
tri2_0_9_15: t0_9_15 - x0_15 <= 0
tri3_0_9_15: t0_9_15 - x9_15 <= 0
tri4_0_9_15: t0_9_15 - x0_9 - x0_15 - x9_15 >= -2
tri1_0_9_16: t0_9_16 - x0_9 <= 0
tri2_0_9_16: t0_9_16 - x0_16 <= 0
tri3_0_9_16: t0_9_16 - x9_16 <= 0
tri4_0_9_16: t0_9_16 - x0_9 - x0_16 - x9_16 >= -2
tri1_0_9_17: t0_9_17 - x0_9 <= 0
tri2_0_9_17: t0_9_17 - x0_17 <= 0
tri3_0_9_17: t0_9_17 - x9_17 <= 0
tri4_0_9_17: t0_9_17 - x0_9 - x0_17 - x9_17 >= -2
tri1_0_9_18: t0_9_18 - x0_9 <= 0
tri2_0_9_18: t0_9_18 - x0_18 <= 0
tri3_0_9_18: t0_9_18 - x9_18 <= 0
tri4_0_9_18: t0_9_18 - x0_9 - x0_18 - x9_18 >= -2
tri1_0_9_19: t0_9_19 - x0_9 <= 0
tri2_0_9_19: t0_9_19 - x0_19 <= 0
tri3_0_9_19: t0_9_19 - x9_19 <= 0
tri4_0_9_19: t0_9_19 - x0_9 - x0_19 - x9_19 >= -2
tri1_0_9_20: t0_9_20 - x0_9 <= 0
tri2_0_9_20: t0_9_20 - x0_20 <= 0
tri3_0_9_20: t0_9_20 - x9_20 <= 0
tri4_0_9_20: t0_9_20 - x0_9 - x0_20 - x9_20 >= -2
tri1_0_9_21: t0_9_21 - x0_9 <= 0
tri2_0_9_21: t0_9_21 - x0_21 <= 0
tri3_0_9_21: t0_9_21 - x9_21 <= 0
tri4_0_9_21: t0_9_21 - x0_9 - x0_21 - x9_21 >= -2
tri1_0_9_22: t0_9_22 - x0_9 <= 0
tri2_0_9_22: t0_9_22 - x0_22 <= 0
tri3_0_9_22: t0_9_22 - x9_22 <= 0
tri4_0_9_22: t0_9_22 - x0_9 - x0_22 - x9_22 >= -2
tri1_0_9_23: t0_9_23 - x0_9 <= 0
tri2_0_9_23: t0_9_23 - x0_23 <= 0
tri3_0_9_23: t0_9_23 - x9_23 <= 0
tri4_0_9_23: t0_9_23 - x0_9 - x0_23 - x9_23 >= -2
tri1_0_10_11: t0_10_11 - x0_10 <= 0
tri2_0_10_11: t0_10_11 - x0_11 <= 0
tri3_0_10_11: t0_10_11 - x10_11 <= 0
tri4_0_10_11: t0_10_11 - x0_10 - x0_11 - x10_11 >= -2
tri1_0_10_12: t0_10_12 - x0_10 <= 0
tri2_0_10_12: t0_10_12 - x0_12 <= 0
tri3_0_10_12: t0_10_12 - x10_12 <= 0
tri4_0_10_12: t0_10_12 - x0_10 - x0_12 - x10_12 >= -2
tri1_0_10_13: t0_10_13 - x0_10 <= 0
tri2_0_10_13: t0_10_13 - x0_13 <= 0
tri3_0_10_13: t0_10_13 - x10_13 <= 0
tri4_0_10_13: t0_10_13 - x0_10 - x0_13 - x10_13 >= -2
tri1_0_10_14: t0_10_14 - x0_10 <= 0
tri2_0_10_14: t0_10_14 - x0_14 <= 0
tri3_0_10_14: t0_10_14 - x10_14 <= 0
tri4_0_10_14: t0_10_14 - x0_10 - x0_14 - x10_14 >= -2
tri1_0_10_15: t0_10_15 - x0_10 <= 0
tri2_0_10_15: t0_10_15 - x0_15 <= 0
tri3_0_10_15: t0_10_15 - x10_15 <= 0
tri4_0_10_15: t0_10_15 - x0_10 - x0_15 - x10_15 >= -2
tri1_0_10_16: t0_10_16 - x0_10 <= 0
tri2_0_10_16: t0_10_16 - x0_16 <= 0
tri3_0_10_16: t0_10_16 - x10_16 <= 0
tri4_0_10_16: t0_10_16 - x0_10 - x0_16 - x10_16 >= -2
tri1_0_10_17: t0_10_17 - x0_10 <= 0
tri2_0_10_17: t0_10_17 - x0_17 <= 0
tri3_0_10_17: t0_10_17 - x10_17 <= 0
tri4_0_10_17: t0_10_17 - x0_10 - x0_17 - x10_17 >= -2
tri1_0_10_18: t0_10_18 - x0_10 <= 0
tri2_0_10_18: t0_10_18 - x0_18 <= 0
tri3_0_10_18: t0_10_18 - x10_18 <= 0
tri4_0_10_18: t0_10_18 - x0_10 - x0_18 - x10_18 >= -2
tri1_0_10_19: t0_10_19 - x0_10 <= 0
tri2_0_10_19: t0_10_19 - x0_19 <= 0
tri3_0_10_19: t0_10_19 - x10_19 <= 0
tri4_0_10_19: t0_10_19 - x0_10 - x0_19 - x10_19 >= -2
tri1_0_10_20: t0_10_20 - x0_10 <= 0
tri2_0_10_20: t0_10_20 - x0_20 <= 0
tri3_0_10_20: t0_10_20 - x10_20 <= 0
tri4_0_10_20: t0_10_20 - x0_10 - x0_20 - x10_20 >= -2
tri1_0_10_21: t0_10_21 - x0_10 <= 0
tri2_0_10_21: t0_10_21 - x0_21 <= 0
tri3_0_10_21: t0_10_21 - x10_21 <= 0
tri4_0_10_21: t0_10_21 - x0_10 - x0_21 - x10_21 >= -2
tri1_0_10_22: t0_10_22 - x0_10 <= 0
tri2_0_10_22: t0_10_22 - x0_22 <= 0
tri3_0_10_22: t0_10_22 - x10_22 <= 0
tri4_0_10_22: t0_10_22 - x0_10 - x0_22 - x10_22 >= -2
tri1_0_10_23: t0_10_23 - x0_10 <= 0
tri2_0_10_23: t0_10_23 - x0_23 <= 0
tri3_0_10_23: t0_10_23 - x10_23 <= 0
tri4_0_10_23: t0_10_23 - x0_10 - x0_23 - x10_23 >= -2
tri1_0_11_12: t0_11_12 - x0_11 <= 0
tri2_0_11_12: t0_11_12 - x0_12 <= 0
tri3_0_11_12: t0_11_12 - x11_12 <= 0
tri4_0_11_12: t0_11_12 - x0_11 - x0_12 - x11_12 >= -2
tri1_0_11_13: t0_11_13 - x0_11 <= 0
tri2_0_11_13: t0_11_13 - x0_13 <= 0
tri3_0_11_13: t0_11_13 - x11_13 <= 0
tri4_0_11_13: t0_11_13 - x0_11 - x0_13 - x11_13 >= -2
tri1_0_11_14: t0_11_14 - x0_11 <= 0
tri2_0_11_14: t0_11_14 - x0_14 <= 0
tri3_0_11_14: t0_11_14 - x11_14 <= 0
tri4_0_11_14: t0_11_14 - x0_11 - x0_14 - x11_14 >= -2
tri1_0_11_15: t0_11_15 - x0_11 <= 0
tri2_0_11_15: t0_11_15 - x0_15 <= 0
tri3_0_11_15: t0_11_15 - x11_15 <= 0
tri4_0_11_15: t0_11_15 - x0_11 - x0_15 - x11_15 >= -2
tri1_0_11_16: t0_11_16 - x0_11 <= 0
tri2_0_11_16: t0_11_16 - x0_16 <= 0
tri3_0_11_16: t0_11_16 - x11_16 <= 0
tri4_0_11_16: t0_11_16 - x0_11 - x0_16 - x11_16 >= -2
tri1_0_11_17: t0_11_17 - x0_11 <= 0
tri2_0_11_17: t0_11_17 - x0_17 <= 0
tri3_0_11_17: t0_11_17 - x11_17 <= 0
tri4_0_11_17: t0_11_17 - x0_11 - x0_17 - x11_17 >= -2
tri1_0_11_18: t0_11_18 - x0_11 <= 0
tri2_0_11_18: t0_11_18 - x0_18 <= 0
tri3_0_11_18: t0_11_18 - x11_18 <= 0
tri4_0_11_18: t0_11_18 - x0_11 - x0_18 - x11_18 >= -2
tri1_0_11_19: t0_11_19 - x0_11 <= 0
tri2_0_11_19: t0_11_19 - x0_19 <= 0
tri3_0_11_19: t0_11_19 - x11_19 <= 0
tri4_0_11_19: t0_11_19 - x0_11 - x0_19 - x11_19 >= -2
tri1_0_11_20: t0_11_20 - x0_11 <= 0
tri2_0_11_20: t0_11_20 - x0_20 <= 0
tri3_0_11_20: t0_11_20 - x11_20 <= 0
tri4_0_11_20: t0_11_20 - x0_11 - x0_20 - x11_20 >= -2
tri1_0_11_21: t0_11_21 - x0_11 <= 0
tri2_0_11_21: t0_11_21 - x0_21 <= 0
tri3_0_11_21: t0_11_21 - x11_21 <= 0
tri4_0_11_21: t0_11_21 - x0_11 - x0_21 - x11_21 >= -2
tri1_0_11_22: t0_11_22 - x0_11 <= 0
tri2_0_11_22: t0_11_22 - x0_22 <= 0
tri3_0_11_22: t0_11_22 - x11_22 <= 0
tri4_0_11_22: t0_11_22 - x0_11 - x0_22 - x11_22 >= -2
tri1_0_11_23: t0_11_23 - x0_11 <= 0
tri2_0_11_23: t0_11_23 - x0_23 <= 0
tri3_0_11_23: t0_11_23 - x11_23 <= 0
tri4_0_11_23: t0_11_23 - x0_11 - x0_23 - x11_23 >= -2
tri1_0_12_13: t0_12_13 - x0_12 <= 0
tri2_0_12_13: t0_12_13 - x0_13 <= 0
tri3_0_12_13: t0_12_13 - x12_13 <= 0
tri4_0_12_13: t0_12_13 - x0_12 - x0_13 - x12_13 >= -2
tri1_0_12_14: t0_12_14 - x0_12 <= 0
tri2_0_12_14: t0_12_14 - x0_14 <= 0
tri3_0_12_14: t0_12_14 - x12_14 <= 0
tri4_0_12_14: t0_12_14 - x0_12 - x0_14 - x12_14 >= -2
tri1_0_12_15: t0_12_15 - x0_12 <= 0
tri2_0_12_15: t0_12_15 - x0_15 <= 0
tri3_0_12_15: t0_12_15 - x12_15 <= 0
tri4_0_12_15: t0_12_15 - x0_12 - x0_15 - x12_15 >= -2
tri1_0_12_16: t0_12_16 - x0_12 <= 0
tri2_0_12_16: t0_12_16 - x0_16 <= 0
tri3_0_12_16: t0_12_16 - x12_16 <= 0
tri4_0_12_16: t0_12_16 - x0_12 - x0_16 - x12_16 >= -2
tri1_0_12_17: t0_12_17 - x0_12 <= 0
tri2_0_12_17: t0_12_17 - x0_17 <= 0
tri3_0_12_17: t0_12_17 - x12_17 <= 0
tri4_0_12_17: t0_12_17 - x0_12 - x0_17 - x12_17 >= -2
tri1_0_12_18: t0_12_18 - x0_12 <= 0
tri2_0_12_18: t0_12_18 - x0_18 <= 0
tri3_0_12_18: t0_12_18 - x12_18 <= 0
tri4_0_12_18: t0_12_18 - x0_12 - x0_18 - x12_18 >= -2
tri1_0_12_19: t0_12_19 - x0_12 <= 0
tri2_0_12_19: t0_12_19 - x0_19 <= 0
tri3_0_12_19: t0_12_19 - x12_19 <= 0
tri4_0_12_19: t0_12_19 - x0_12 - x0_19 - x12_19 >= -2
tri1_0_12_20: t0_12_20 - x0_12 <= 0
tri2_0_12_20: t0_12_20 - x0_20 <= 0
tri3_0_12_20: t0_12_20 - x12_20 <= 0
tri4_0_12_20: t0_12_20 - x0_12 - x0_20 - x12_20 >= -2
tri1_0_12_21: t0_12_21 - x0_12 <= 0
tri2_0_12_21: t0_12_21 - x0_21 <= 0
tri3_0_12_21: t0_12_21 - x12_21 <= 0
tri4_0_12_21: t0_12_21 - x0_12 - x0_21 - x12_21 >= -2
tri1_0_12_22: t0_12_22 - x0_12 <= 0
tri2_0_12_22: t0_12_22 - x0_22 <= 0
tri3_0_12_22: t0_12_22 - x12_22 <= 0
tri4_0_12_22: t0_12_22 - x0_12 - x0_22 - x12_22 >= -2
tri1_0_12_23: t0_12_23 - x0_12 <= 0
tri2_0_12_23: t0_12_23 - x0_23 <= 0
tri3_0_12_23: t0_12_23 - x12_23 <= 0
tri4_0_12_23: t0_12_23 - x0_12 - x0_23 - x12_23 >= -2
tri1_0_13_14: t0_13_14 - x0_13 <= 0
tri2_0_13_14: t0_13_14 - x0_14 <= 0
tri3_0_13_14: t0_13_14 - x13_14 <= 0
tri4_0_13_14: t0_13_14 - x0_13 - x0_14 - x13_14 >= -2
tri1_0_13_15: t0_13_15 - x0_13 <= 0
tri2_0_13_15: t0_13_15 - x0_15 <= 0
tri3_0_13_15: t0_13_15 - x13_15 <= 0
tri4_0_13_15: t0_13_15 - x0_13 - x0_15 - x13_15 >= -2
tri1_0_13_16: t0_13_16 - x0_13 <= 0
tri2_0_13_16: t0_13_16 - x0_16 <= 0
tri3_0_13_16: t0_13_16 - x13_16 <= 0
tri4_0_13_16: t0_13_16 - x0_13 - x0_16 - x13_16 >= -2
tri1_0_13_17: t0_13_17 - x0_13 <= 0
tri2_0_13_17: t0_13_17 - x0_17 <= 0
tri3_0_13_17: t0_13_17 - x13_17 <= 0
tri4_0_13_17: t0_13_17 - x0_13 - x0_17 - x13_17 >= -2
tri1_0_13_18: t0_13_18 - x0_13 <= 0
tri2_0_13_18: t0_13_18 - x0_18 <= 0
tri3_0_13_18: t0_13_18 - x13_18 <= 0
tri4_0_13_18: t0_13_18 - x0_13 - x0_18 - x13_18 >= -2
tri1_0_13_19: t0_13_19 - x0_13 <= 0
tri2_0_13_19: t0_13_19 - x0_19 <= 0
tri3_0_13_19: t0_13_19 - x13_19 <= 0
tri4_0_13_19: t0_13_19 - x0_13 - x0_19 - x13_19 >= -2
tri1_0_13_20: t0_13_20 - x0_13 <= 0
tri2_0_13_20: t0_13_20 - x0_20 <= 0
tri3_0_13_20: t0_13_20 - x13_20 <= 0
tri4_0_13_20: t0_13_20 - x0_13 - x0_20 - x13_20 >= -2
tri1_0_13_21: t0_13_21 - x0_13 <= 0
tri2_0_13_21: t0_13_21 - x0_21 <= 0
tri3_0_13_21: t0_13_21 - x13_21 <= 0
tri4_0_13_21: t0_13_21 - x0_13 - x0_21 - x13_21 >= -2
tri1_0_13_22: t0_13_22 - x0_13 <= 0
tri2_0_13_22: t0_13_22 - x0_22 <= 0
tri3_0_13_22: t0_13_22 - x13_22 <= 0
tri4_0_13_22: t0_13_22 - x0_13 - x0_22 - x13_22 >= -2
tri1_0_13_23: t0_13_23 - x0_13 <= 0
tri2_0_13_23: t0_13_23 - x0_23 <= 0
tri3_0_13_23: t0_13_23 - x13_23 <= 0
tri4_0_13_23: t0_13_23 - x0_13 - x0_23 - x13_23 >= -2
tri1_0_14_15: t0_14_15 - x0_14 <= 0
tri2_0_14_15: t0_14_15 - x0_15 <= 0
tri3_0_14_15: t0_14_15 - x14_15 <= 0
tri4_0_14_15: t0_14_15 - x0_14 - x0_15 - x14_15 >= -2
tri1_0_14_16: t0_14_16 - x0_14 <= 0
tri2_0_14_16: t0_14_16 - x0_16 <= 0
tri3_0_14_16: t0_14_16 - x14_16 <= 0
tri4_0_14_16: t0_14_16 - x0_14 - x0_16 - x14_16 >= -2
tri1_0_14_17: t0_14_17 - x0_14 <= 0
tri2_0_14_17: t0_14_17 - x0_17 <= 0
tri3_0_14_17: t0_14_17 - x14_17 <= 0
tri4_0_14_17: t0_14_17 - x0_14 - x0_17 - x14_17 >= -2
tri1_0_14_18: t0_14_18 - x0_14 <= 0
tri2_0_14_18: t0_14_18 - x0_18 <= 0
tri3_0_14_18: t0_14_18 - x14_18 <= 0
tri4_0_14_18: t0_14_18 - x0_14 - x0_18 - x14_18 >= -2
tri1_0_14_19: t0_14_19 - x0_14 <= 0
tri2_0_14_19: t0_14_19 - x0_19 <= 0
tri3_0_14_19: t0_14_19 - x14_19 <= 0
tri4_0_14_19: t0_14_19 - x0_14 - x0_19 - x14_19 >= -2
tri1_0_14_20: t0_14_20 - x0_14 <= 0
tri2_0_14_20: t0_14_20 - x0_20 <= 0
tri3_0_14_20: t0_14_20 - x14_20 <= 0
tri4_0_14_20: t0_14_20 - x0_14 - x0_20 - x14_20 >= -2
tri1_0_14_21: t0_14_21 - x0_14 <= 0
tri2_0_14_21: t0_14_21 - x0_21 <= 0
tri3_0_14_21: t0_14_21 - x14_21 <= 0
tri4_0_14_21: t0_14_21 - x0_14 - x0_21 - x14_21 >= -2
tri1_0_14_22: t0_14_22 - x0_14 <= 0
tri2_0_14_22: t0_14_22 - x0_22 <= 0
tri3_0_14_22: t0_14_22 - x14_22 <= 0
tri4_0_14_22: t0_14_22 - x0_14 - x0_22 - x14_22 >= -2
tri1_0_14_23: t0_14_23 - x0_14 <= 0
tri2_0_14_23: t0_14_23 - x0_23 <= 0
tri3_0_14_23: t0_14_23 - x14_23 <= 0
tri4_0_14_23: t0_14_23 - x0_14 - x0_23 - x14_23 >= -2
tri1_0_15_16: t0_15_16 - x0_15 <= 0
tri2_0_15_16: t0_15_16 - x0_16 <= 0
tri3_0_15_16: t0_15_16 - x15_16 <= 0
tri4_0_15_16: t0_15_16 - x0_15 - x0_16 - x15_16 >= -2
tri1_0_15_17: t0_15_17 - x0_15 <= 0
tri2_0_15_17: t0_15_17 - x0_17 <= 0
tri3_0_15_17: t0_15_17 - x15_17 <= 0
tri4_0_15_17: t0_15_17 - x0_15 - x0_17 - x15_17 >= -2
tri1_0_15_18: t0_15_18 - x0_15 <= 0
tri2_0_15_18: t0_15_18 - x0_18 <= 0
tri3_0_15_18: t0_15_18 - x15_18 <= 0
tri4_0_15_18: t0_15_18 - x0_15 - x0_18 - x15_18 >= -2
tri1_0_15_19: t0_15_19 - x0_15 <= 0
tri2_0_15_19: t0_15_19 - x0_19 <= 0
tri3_0_15_19: t0_15_19 - x15_19 <= 0
tri4_0_15_19: t0_15_19 - x0_15 - x0_19 - x15_19 >= -2
tri1_0_15_20: t0_15_20 - x0_15 <= 0
tri2_0_15_20: t0_15_20 - x0_20 <= 0
tri3_0_15_20: t0_15_20 - x15_20 <= 0
tri4_0_15_20: t0_15_20 - x0_15 - x0_20 - x15_20 >= -2
tri1_0_15_21: t0_15_21 - x0_15 <= 0
tri2_0_15_21: t0_15_21 - x0_21 <= 0
tri3_0_15_21: t0_15_21 - x15_21 <= 0
tri4_0_15_21: t0_15_21 - x0_15 - x0_21 - x15_21 >= -2
tri1_0_15_22: t0_15_22 - x0_15 <= 0
tri2_0_15_22: t0_15_22 - x0_22 <= 0
tri3_0_15_22: t0_15_22 - x15_22 <= 0
tri4_0_15_22: t0_15_22 - x0_15 - x0_22 - x15_22 >= -2
tri1_0_15_23: t0_15_23 - x0_15 <= 0
tri2_0_15_23: t0_15_23 - x0_23 <= 0
tri3_0_15_23: t0_15_23 - x15_23 <= 0
tri4_0_15_23: t0_15_23 - x0_15 - x0_23 - x15_23 >= -2
tri1_0_16_17: t0_16_17 - x0_16 <= 0
tri2_0_16_17: t0_16_17 - x0_17 <= 0
tri3_0_16_17: t0_16_17 - x16_17 <= 0
tri4_0_16_17: t0_16_17 - x0_16 - x0_17 - x16_17 >= -2
tri1_0_16_18: t0_16_18 - x0_16 <= 0
tri2_0_16_18: t0_16_18 - x0_18 <= 0
tri3_0_16_18: t0_16_18 - x16_18 <= 0
tri4_0_16_18: t0_16_18 - x0_16 - x0_18 - x16_18 >= -2
tri1_0_16_19: t0_16_19 - x0_16 <= 0
tri2_0_16_19: t0_16_19 - x0_19 <= 0
tri3_0_16_19: t0_16_19 - x16_19 <= 0
tri4_0_16_19: t0_16_19 - x0_16 - x0_19 - x16_19 >= -2
tri1_0_16_20: t0_16_20 - x0_16 <= 0
tri2_0_16_20: t0_16_20 - x0_20 <= 0
tri3_0_16_20: t0_16_20 - x16_20 <= 0
tri4_0_16_20: t0_16_20 - x0_16 - x0_20 - x16_20 >= -2
tri1_0_16_21: t0_16_21 - x0_16 <= 0
tri2_0_16_21: t0_16_21 - x0_21 <= 0
tri3_0_16_21: t0_16_21 - x16_21 <= 0
tri4_0_16_21: t0_16_21 - x0_16 - x0_21 - x16_21 >= -2
tri1_0_16_22: t0_16_22 - x0_16 <= 0
tri2_0_16_22: t0_16_22 - x0_22 <= 0
tri3_0_16_22: t0_16_22 - x16_22 <= 0
tri4_0_16_22: t0_16_22 - x0_16 - x0_22 - x16_22 >= -2
tri1_0_16_23: t0_16_23 - x0_16 <= 0
tri2_0_16_23: t0_16_23 - x0_23 <= 0
tri3_0_16_23: t0_16_23 - x16_23 <= 0
tri4_0_16_23: t0_16_23 - x0_16 - x0_23 - x16_23 >= -2
tri1_0_17_18: t0_17_18 - x0_17 <= 0
tri2_0_17_18: t0_17_18 - x0_18 <= 0
tri3_0_17_18: t0_17_18 - x17_18 <= 0
tri4_0_17_18: t0_17_18 - x0_17 - x0_18 - x17_18 >= -2
tri1_0_17_19: t0_17_19 - x0_17 <= 0
tri2_0_17_19: t0_17_19 - x0_19 <= 0
tri3_0_17_19: t0_17_19 - x17_19 <= 0
tri4_0_17_19: t0_17_19 - x0_17 - x0_19 - x17_19 >= -2
tri1_0_17_20: t0_17_20 - x0_17 <= 0
tri2_0_17_20: t0_17_20 - x0_20 <= 0
tri3_0_17_20: t0_17_20 - x17_20 <= 0
tri4_0_17_20: t0_17_20 - x0_17 - x0_20 - x17_20 >= -2
tri1_0_17_21: t0_17_21 - x0_17 <= 0
tri2_0_17_21: t0_17_21 - x0_21 <= 0
tri3_0_17_21: t0_17_21 - x17_21 <= 0
tri4_0_17_21: t0_17_21 - x0_17 - x0_21 - x17_21 >= -2
tri1_0_17_22: t0_17_22 - x0_17 <= 0
tri2_0_17_22: t0_17_22 - x0_22 <= 0
tri3_0_17_22: t0_17_22 - x17_22 <= 0
tri4_0_17_22: t0_17_22 - x0_17 - x0_22 - x17_22 >= -2
tri1_0_17_23: t0_17_23 - x0_17 <= 0
tri2_0_17_23: t0_17_23 - x0_23 <= 0
tri3_0_17_23: t0_17_23 - x17_23 <= 0
tri4_0_17_23: t0_17_23 - x0_17 - x0_23 - x17_23 >= -2
tri1_0_18_19: t0_18_19 - x0_18 <= 0
tri2_0_18_19: t0_18_19 - x0_19 <= 0
tri3_0_18_19: t0_18_19 - x18_19 <= 0
tri4_0_18_19: t0_18_19 - x0_18 - x0_19 - x18_19 >= -2
tri1_0_18_20: t0_18_20 - x0_18 <= 0
tri2_0_18_20: t0_18_20 - x0_20 <= 0
tri3_0_18_20: t0_18_20 - x18_20 <= 0
tri4_0_18_20: t0_18_20 - x0_18 - x0_20 - x18_20 >= -2
tri1_0_18_21: t0_18_21 - x0_18 <= 0
tri2_0_18_21: t0_18_21 - x0_21 <= 0
tri3_0_18_21: t0_18_21 - x18_21 <= 0
tri4_0_18_21: t0_18_21 - x0_18 - x0_21 - x18_21 >= -2
tri1_0_18_22: t0_18_22 - x0_18 <= 0
tri2_0_18_22: t0_18_22 - x0_22 <= 0
tri3_0_18_22: t0_18_22 - x18_22 <= 0
tri4_0_18_22: t0_18_22 - x0_18 - x0_22 - x18_22 >= -2
tri1_0_18_23: t0_18_23 - x0_18 <= 0
tri2_0_18_23: t0_18_23 - x0_23 <= 0
tri3_0_18_23: t0_18_23 - x18_23 <= 0
tri4_0_18_23: t0_18_23 - x0_18 - x0_23 - x18_23 >= -2
tri1_0_19_20: t0_19_20 - x0_19 <= 0
tri2_0_19_20: t0_19_20 - x0_20 <= 0
tri3_0_19_20: t0_19_20 - x19_20 <= 0
tri4_0_19_20: t0_19_20 - x0_19 - x0_20 - x19_20 >= -2
tri1_0_19_21: t0_19_21 - x0_19 <= 0
tri2_0_19_21: t0_19_21 - x0_21 <= 0
tri3_0_19_21: t0_19_21 - x19_21 <= 0
tri4_0_19_21: t0_19_21 - x0_19 - x0_21 - x19_21 >= -2
tri1_0_19_22: t0_19_22 - x0_19 <= 0
tri2_0_19_22: t0_19_22 - x0_22 <= 0
tri3_0_19_22: t0_19_22 - x19_22 <= 0
tri4_0_19_22: t0_19_22 - x0_19 - x0_22 - x19_22 >= -2
tri1_0_19_23: t0_19_23 - x0_19 <= 0
tri2_0_19_23: t0_19_23 - x0_23 <= 0
tri3_0_19_23: t0_19_23 - x19_23 <= 0
tri4_0_19_23: t0_19_23 - x0_19 - x0_23 - x19_23 >= -2
tri1_0_20_21: t0_20_21 - x0_20 <= 0
tri2_0_20_21: t0_20_21 - x0_21 <= 0
tri3_0_20_21: t0_20_21 - x20_21 <= 0
tri4_0_20_21: t0_20_21 - x0_20 - x0_21 - x20_21 >= -2
tri1_0_20_22: t0_20_22 - x0_20 <= 0
tri2_0_20_22: t0_20_22 - x0_22 <= 0
tri3_0_20_22: t0_20_22 - x20_22 <= 0
tri4_0_20_22: t0_20_22 - x0_20 - x0_22 - x20_22 >= -2
tri1_0_20_23: t0_20_23 - x0_20 <= 0
tri2_0_20_23: t0_20_23 - x0_23 <= 0
tri3_0_20_23: t0_20_23 - x20_23 <= 0
tri4_0_20_23: t0_20_23 - x0_20 - x0_23 - x20_23 >= -2
tri1_0_21_22: t0_21_22 - x0_21 <= 0
tri2_0_21_22: t0_21_22 - x0_22 <= 0
tri3_0_21_22: t0_21_22 - x21_22 <= 0
tri4_0_21_22: t0_21_22 - x0_21 - x0_22 - x21_22 >= -2
tri1_0_21_23: t0_21_23 - x0_21 <= 0
tri2_0_21_23: t0_21_23 - x0_23 <= 0
tri3_0_21_23: t0_21_23 - x21_23 <= 0
tri4_0_21_23: t0_21_23 - x0_21 - x0_23 - x21_23 >= -2
tri1_0_22_23: t0_22_23 - x0_22 <= 0
tri2_0_22_23: t0_22_23 - x0_23 <= 0
tri3_0_22_23: t0_22_23 - x22_23 <= 0
tri4_0_22_23: t0_22_23 - x0_22 - x0_23 - x22_23 >= -2
tri1_1_2_3: t1_2_3 - x1_2 <= 0
tri2_1_2_3: t1_2_3 - x1_3 <= 0
tri3_1_2_3: t1_2_3 - x2_3 <= 0
tri4_1_2_3: t1_2_3 - x1_2 - x1_3 - x2_3 >= -2
tri1_1_2_4: t1_2_4 - x1_2 <= 0
tri2_1_2_4: t1_2_4 - x1_4 <= 0
tri3_1_2_4: t1_2_4 - x2_4 <= 0
tri4_1_2_4: t1_2_4 - x1_2 - x1_4 - x2_4 >= -2
tri1_1_2_5: t1_2_5 - x1_2 <= 0
tri2_1_2_5: t1_2_5 - x1_5 <= 0
tri3_1_2_5: t1_2_5 - x2_5 <= 0
tri4_1_2_5: t1_2_5 - x1_2 - x1_5 - x2_5 >= -2
tri1_1_2_6: t1_2_6 - x1_2 <= 0
tri2_1_2_6: t1_2_6 - x1_6 <= 0
tri3_1_2_6: t1_2_6 - x2_6 <= 0
tri4_1_2_6: t1_2_6 - x1_2 - x1_6 - x2_6 >= -2
tri1_1_2_7: t1_2_7 - x1_2 <= 0
tri2_1_2_7: t1_2_7 - x1_7 <= 0
tri3_1_2_7: t1_2_7 - x2_7 <= 0
tri4_1_2_7: t1_2_7 - x1_2 - x1_7 - x2_7 >= -2
tri1_1_2_8: t1_2_8 - x1_2 <= 0
tri2_1_2_8: t1_2_8 - x1_8 <= 0
tri3_1_2_8: t1_2_8 - x2_8 <= 0
tri4_1_2_8: t1_2_8 - x1_2 - x1_8 - x2_8 >= -2
tri1_1_2_9: t1_2_9 - x1_2 <= 0
tri2_1_2_9: t1_2_9 - x1_9 <= 0
tri3_1_2_9: t1_2_9 - x2_9 <= 0
tri4_1_2_9: t1_2_9 - x1_2 - x1_9 - x2_9 >= -2
tri1_1_2_10: t1_2_10 - x1_2 <= 0
tri2_1_2_10: t1_2_10 - x1_10 <= 0
tri3_1_2_10: t1_2_10 - x2_10 <= 0
tri4_1_2_10: t1_2_10 - x1_2 - x1_10 - x2_10 >= -2
tri1_1_2_11: t1_2_11 - x1_2 <= 0
tri2_1_2_11: t1_2_11 - x1_11 <= 0
tri3_1_2_11: t1_2_11 - x2_11 <= 0
tri4_1_2_11: t1_2_11 - x1_2 - x1_11 - x2_11 >= -2
tri1_1_2_12: t1_2_12 - x1_2 <= 0
tri2_1_2_12: t1_2_12 - x1_12 <= 0
tri3_1_2_12: t1_2_12 - x2_12 <= 0
tri4_1_2_12: t1_2_12 - x1_2 - x1_12 - x2_12 >= -2
tri1_1_2_13: t1_2_13 - x1_2 <= 0
tri2_1_2_13: t1_2_13 - x1_13 <= 0
tri3_1_2_13: t1_2_13 - x2_13 <= 0
tri4_1_2_13: t1_2_13 - x1_2 - x1_13 - x2_13 >= -2
tri1_1_2_14: t1_2_14 - x1_2 <= 0
tri2_1_2_14: t1_2_14 - x1_14 <= 0
tri3_1_2_14: t1_2_14 - x2_14 <= 0
tri4_1_2_14: t1_2_14 - x1_2 - x1_14 - x2_14 >= -2
tri1_1_2_15: t1_2_15 - x1_2 <= 0
tri2_1_2_15: t1_2_15 - x1_15 <= 0
tri3_1_2_15: t1_2_15 - x2_15 <= 0
tri4_1_2_15: t1_2_15 - x1_2 - x1_15 - x2_15 >= -2
tri1_1_2_16: t1_2_16 - x1_2 <= 0
tri2_1_2_16: t1_2_16 - x1_16 <= 0
tri3_1_2_16: t1_2_16 - x2_16 <= 0
tri4_1_2_16: t1_2_16 - x1_2 - x1_16 - x2_16 >= -2
tri1_1_2_17: t1_2_17 - x1_2 <= 0
tri2_1_2_17: t1_2_17 - x1_17 <= 0
tri3_1_2_17: t1_2_17 - x2_17 <= 0
tri4_1_2_17: t1_2_17 - x1_2 - x1_17 - x2_17 >= -2
tri1_1_2_18: t1_2_18 - x1_2 <= 0
tri2_1_2_18: t1_2_18 - x1_18 <= 0
tri3_1_2_18: t1_2_18 - x2_18 <= 0
tri4_1_2_18: t1_2_18 - x1_2 - x1_18 - x2_18 >= -2
tri1_1_2_19: t1_2_19 - x1_2 <= 0
tri2_1_2_19: t1_2_19 - x1_19 <= 0
tri3_1_2_19: t1_2_19 - x2_19 <= 0
tri4_1_2_19: t1_2_19 - x1_2 - x1_19 - x2_19 >= -2
tri1_1_2_20: t1_2_20 - x1_2 <= 0
tri2_1_2_20: t1_2_20 - x1_20 <= 0
tri3_1_2_20: t1_2_20 - x2_20 <= 0
tri4_1_2_20: t1_2_20 - x1_2 - x1_20 - x2_20 >= -2
tri1_1_2_21: t1_2_21 - x1_2 <= 0
tri2_1_2_21: t1_2_21 - x1_21 <= 0
tri3_1_2_21: t1_2_21 - x2_21 <= 0
tri4_1_2_21: t1_2_21 - x1_2 - x1_21 - x2_21 >= -2
tri1_1_2_22: t1_2_22 - x1_2 <= 0
tri2_1_2_22: t1_2_22 - x1_22 <= 0
tri3_1_2_22: t1_2_22 - x2_22 <= 0
tri4_1_2_22: t1_2_22 - x1_2 - x1_22 - x2_22 >= -2
tri1_1_2_23: t1_2_23 - x1_2 <= 0
tri2_1_2_23: t1_2_23 - x1_23 <= 0
tri3_1_2_23: t1_2_23 - x2_23 <= 0
tri4_1_2_23: t1_2_23 - x1_2 - x1_23 - x2_23 >= -2
tri1_1_3_4: t1_3_4 - x1_3 <= 0
tri2_1_3_4: t1_3_4 - x1_4 <= 0
tri3_1_3_4: t1_3_4 - x3_4 <= 0
tri4_1_3_4: t1_3_4 - x1_3 - x1_4 - x3_4 >= -2
tri1_1_3_5: t1_3_5 - x1_3 <= 0
tri2_1_3_5: t1_3_5 - x1_5 <= 0
tri3_1_3_5: t1_3_5 - x3_5 <= 0
tri4_1_3_5: t1_3_5 - x1_3 - x1_5 - x3_5 >= -2
tri1_1_3_6: t1_3_6 - x1_3 <= 0
tri2_1_3_6: t1_3_6 - x1_6 <= 0
tri3_1_3_6: t1_3_6 - x3_6 <= 0
tri4_1_3_6: t1_3_6 - x1_3 - x1_6 - x3_6 >= -2
tri1_1_3_7: t1_3_7 - x1_3 <= 0
tri2_1_3_7: t1_3_7 - x1_7 <= 0
tri3_1_3_7: t1_3_7 - x3_7 <= 0
tri4_1_3_7: t1_3_7 - x1_3 - x1_7 - x3_7 >= -2
tri1_1_3_8: t1_3_8 - x1_3 <= 0
tri2_1_3_8: t1_3_8 - x1_8 <= 0
tri3_1_3_8: t1_3_8 - x3_8 <= 0
tri4_1_3_8: t1_3_8 - x1_3 - x1_8 - x3_8 >= -2
tri1_1_3_9: t1_3_9 - x1_3 <= 0
tri2_1_3_9: t1_3_9 - x1_9 <= 0
tri3_1_3_9: t1_3_9 - x3_9 <= 0
tri4_1_3_9: t1_3_9 - x1_3 - x1_9 - x3_9 >= -2
tri1_1_3_10: t1_3_10 - x1_3 <= 0
tri2_1_3_10: t1_3_10 - x1_10 <= 0
tri3_1_3_10: t1_3_10 - x3_10 <= 0
tri4_1_3_10: t1_3_10 - x1_3 - x1_10 - x3_10 >= -2
tri1_1_3_11: t1_3_11 - x1_3 <= 0
tri2_1_3_11: t1_3_11 - x1_11 <= 0
tri3_1_3_11: t1_3_11 - x3_11 <= 0
tri4_1_3_11: t1_3_11 - x1_3 - x1_11 - x3_11 >= -2
tri1_1_3_12: t1_3_12 - x1_3 <= 0
tri2_1_3_12: t1_3_12 - x1_12 <= 0
tri3_1_3_12: t1_3_12 - x3_12 <= 0
tri4_1_3_12: t1_3_12 - x1_3 - x1_12 - x3_12 >= -2
tri1_1_3_13: t1_3_13 - x1_3 <= 0
tri2_1_3_13: t1_3_13 - x1_13 <= 0
tri3_1_3_13: t1_3_13 - x3_13 <= 0
tri4_1_3_13: t1_3_13 - x1_3 - x1_13 - x3_13 >= -2
tri1_1_3_14: t1_3_14 - x1_3 <= 0
tri2_1_3_14: t1_3_14 - x1_14 <= 0
tri3_1_3_14: t1_3_14 - x3_14 <= 0
tri4_1_3_14: t1_3_14 - x1_3 - x1_14 - x3_14 >= -2
tri1_1_3_15: t1_3_15 - x1_3 <= 0
tri2_1_3_15: t1_3_15 - x1_15 <= 0
tri3_1_3_15: t1_3_15 - x3_15 <= 0
tri4_1_3_15: t1_3_15 - x1_3 - x1_15 - x3_15 >= -2
tri1_1_3_16: t1_3_16 - x1_3 <= 0
tri2_1_3_16: t1_3_16 - x1_16 <= 0
tri3_1_3_16: t1_3_16 - x3_16 <= 0
tri4_1_3_16: t1_3_16 - x1_3 - x1_16 - x3_16 >= -2
tri1_1_3_17: t1_3_17 - x1_3 <= 0
tri2_1_3_17: t1_3_17 - x1_17 <= 0
tri3_1_3_17: t1_3_17 - x3_17 <= 0
tri4_1_3_17: t1_3_17 - x1_3 - x1_17 - x3_17 >= -2
tri1_1_3_18: t1_3_18 - x1_3 <= 0
tri2_1_3_18: t1_3_18 - x1_18 <= 0
tri3_1_3_18: t1_3_18 - x3_18 <= 0
tri4_1_3_18: t1_3_18 - x1_3 - x1_18 - x3_18 >= -2
tri1_1_3_19: t1_3_19 - x1_3 <= 0
tri2_1_3_19: t1_3_19 - x1_19 <= 0
tri3_1_3_19: t1_3_19 - x3_19 <= 0
tri4_1_3_19: t1_3_19 - x1_3 - x1_19 - x3_19 >= -2
tri1_1_3_20: t1_3_20 - x1_3 <= 0
tri2_1_3_20: t1_3_20 - x1_20 <= 0
tri3_1_3_20: t1_3_20 - x3_20 <= 0
tri4_1_3_20: t1_3_20 - x1_3 - x1_20 - x3_20 >= -2
tri1_1_3_21: t1_3_21 - x1_3 <= 0
tri2_1_3_21: t1_3_21 - x1_21 <= 0
tri3_1_3_21: t1_3_21 - x3_21 <= 0
tri4_1_3_21: t1_3_21 - x1_3 - x1_21 - x3_21 >= -2
tri1_1_3_22: t1_3_22 - x1_3 <= 0
tri2_1_3_22: t1_3_22 - x1_22 <= 0
tri3_1_3_22: t1_3_22 - x3_22 <= 0
tri4_1_3_22: t1_3_22 - x1_3 - x1_22 - x3_22 >= -2
tri1_1_3_23: t1_3_23 - x1_3 <= 0
tri2_1_3_23: t1_3_23 - x1_23 <= 0
tri3_1_3_23: t1_3_23 - x3_23 <= 0
tri4_1_3_23: t1_3_23 - x1_3 - x1_23 - x3_23 >= -2
tri1_1_4_5: t1_4_5 - x1_4 <= 0
tri2_1_4_5: t1_4_5 - x1_5 <= 0
tri3_1_4_5: t1_4_5 - x4_5 <= 0
tri4_1_4_5: t1_4_5 - x1_4 - x1_5 - x4_5 >= -2
tri1_1_4_6: t1_4_6 - x1_4 <= 0
tri2_1_4_6: t1_4_6 - x1_6 <= 0
tri3_1_4_6: t1_4_6 - x4_6 <= 0
tri4_1_4_6: t1_4_6 - x1_4 - x1_6 - x4_6 >= -2
tri1_1_4_7: t1_4_7 - x1_4 <= 0
tri2_1_4_7: t1_4_7 - x1_7 <= 0
tri3_1_4_7: t1_4_7 - x4_7 <= 0
tri4_1_4_7: t1_4_7 - x1_4 - x1_7 - x4_7 >= -2
tri1_1_4_8: t1_4_8 - x1_4 <= 0
tri2_1_4_8: t1_4_8 - x1_8 <= 0
tri3_1_4_8: t1_4_8 - x4_8 <= 0
tri4_1_4_8: t1_4_8 - x1_4 - x1_8 - x4_8 >= -2
tri1_1_4_9: t1_4_9 - x1_4 <= 0
tri2_1_4_9: t1_4_9 - x1_9 <= 0
tri3_1_4_9: t1_4_9 - x4_9 <= 0
tri4_1_4_9: t1_4_9 - x1_4 - x1_9 - x4_9 >= -2
tri1_1_4_10: t1_4_10 - x1_4 <= 0
tri2_1_4_10: t1_4_10 - x1_10 <= 0
tri3_1_4_10: t1_4_10 - x4_10 <= 0
tri4_1_4_10: t1_4_10 - x1_4 - x1_10 - x4_10 >= -2
tri1_1_4_11: t1_4_11 - x1_4 <= 0
tri2_1_4_11: t1_4_11 - x1_11 <= 0
tri3_1_4_11: t1_4_11 - x4_11 <= 0
tri4_1_4_11: t1_4_11 - x1_4 - x1_11 - x4_11 >= -2
tri1_1_4_12: t1_4_12 - x1_4 <= 0
tri2_1_4_12: t1_4_12 - x1_12 <= 0
tri3_1_4_12: t1_4_12 - x4_12 <= 0
tri4_1_4_12: t1_4_12 - x1_4 - x1_12 - x4_12 >= -2
tri1_1_4_13: t1_4_13 - x1_4 <= 0
tri2_1_4_13: t1_4_13 - x1_13 <= 0
tri3_1_4_13: t1_4_13 - x4_13 <= 0
tri4_1_4_13: t1_4_13 - x1_4 - x1_13 - x4_13 >= -2
tri1_1_4_14: t1_4_14 - x1_4 <= 0
tri2_1_4_14: t1_4_14 - x1_14 <= 0
tri3_1_4_14: t1_4_14 - x4_14 <= 0
tri4_1_4_14: t1_4_14 - x1_4 - x1_14 - x4_14 >= -2
tri1_1_4_15: t1_4_15 - x1_4 <= 0
tri2_1_4_15: t1_4_15 - x1_15 <= 0
tri3_1_4_15: t1_4_15 - x4_15 <= 0
tri4_1_4_15: t1_4_15 - x1_4 - x1_15 - x4_15 >= -2
tri1_1_4_16: t1_4_16 - x1_4 <= 0
tri2_1_4_16: t1_4_16 - x1_16 <= 0
tri3_1_4_16: t1_4_16 - x4_16 <= 0
tri4_1_4_16: t1_4_16 - x1_4 - x1_16 - x4_16 >= -2
tri1_1_4_17: t1_4_17 - x1_4 <= 0
tri2_1_4_17: t1_4_17 - x1_17 <= 0
tri3_1_4_17: t1_4_17 - x4_17 <= 0
tri4_1_4_17: t1_4_17 - x1_4 - x1_17 - x4_17 >= -2
tri1_1_4_18: t1_4_18 - x1_4 <= 0
tri2_1_4_18: t1_4_18 - x1_18 <= 0
tri3_1_4_18: t1_4_18 - x4_18 <= 0
tri4_1_4_18: t1_4_18 - x1_4 - x1_18 - x4_18 >= -2
tri1_1_4_19: t1_4_19 - x1_4 <= 0
tri2_1_4_19: t1_4_19 - x1_19 <= 0
tri3_1_4_19: t1_4_19 - x4_19 <= 0
tri4_1_4_19: t1_4_19 - x1_4 - x1_19 - x4_19 >= -2
tri1_1_4_20: t1_4_20 - x1_4 <= 0
tri2_1_4_20: t1_4_20 - x1_20 <= 0
tri3_1_4_20: t1_4_20 - x4_20 <= 0
tri4_1_4_20: t1_4_20 - x1_4 - x1_20 - x4_20 >= -2
tri1_1_4_21: t1_4_21 - x1_4 <= 0
tri2_1_4_21: t1_4_21 - x1_21 <= 0
tri3_1_4_21: t1_4_21 - x4_21 <= 0
tri4_1_4_21: t1_4_21 - x1_4 - x1_21 - x4_21 >= -2
tri1_1_4_22: t1_4_22 - x1_4 <= 0
tri2_1_4_22: t1_4_22 - x1_22 <= 0
tri3_1_4_22: t1_4_22 - x4_22 <= 0
tri4_1_4_22: t1_4_22 - x1_4 - x1_22 - x4_22 >= -2
tri1_1_4_23: t1_4_23 - x1_4 <= 0
tri2_1_4_23: t1_4_23 - x1_23 <= 0
tri3_1_4_23: t1_4_23 - x4_23 <= 0
tri4_1_4_23: t1_4_23 - x1_4 - x1_23 - x4_23 >= -2
tri1_1_5_6: t1_5_6 - x1_5 <= 0
tri2_1_5_6: t1_5_6 - x1_6 <= 0
tri3_1_5_6: t1_5_6 - x5_6 <= 0
tri4_1_5_6: t1_5_6 - x1_5 - x1_6 - x5_6 >= -2
tri1_1_5_7: t1_5_7 - x1_5 <= 0
tri2_1_5_7: t1_5_7 - x1_7 <= 0
tri3_1_5_7: t1_5_7 - x5_7 <= 0
tri4_1_5_7: t1_5_7 - x1_5 - x1_7 - x5_7 >= -2
tri1_1_5_8: t1_5_8 - x1_5 <= 0
tri2_1_5_8: t1_5_8 - x1_8 <= 0
tri3_1_5_8: t1_5_8 - x5_8 <= 0
tri4_1_5_8: t1_5_8 - x1_5 - x1_8 - x5_8 >= -2
tri1_1_5_9: t1_5_9 - x1_5 <= 0
tri2_1_5_9: t1_5_9 - x1_9 <= 0
tri3_1_5_9: t1_5_9 - x5_9 <= 0
tri4_1_5_9: t1_5_9 - x1_5 - x1_9 - x5_9 >= -2
tri1_1_5_10: t1_5_10 - x1_5 <= 0
tri2_1_5_10: t1_5_10 - x1_10 <= 0
tri3_1_5_10: t1_5_10 - x5_10 <= 0
tri4_1_5_10: t1_5_10 - x1_5 - x1_10 - x5_10 >= -2
tri1_1_5_11: t1_5_11 - x1_5 <= 0
tri2_1_5_11: t1_5_11 - x1_11 <= 0
tri3_1_5_11: t1_5_11 - x5_11 <= 0
tri4_1_5_11: t1_5_11 - x1_5 - x1_11 - x5_11 >= -2
tri1_1_5_12: t1_5_12 - x1_5 <= 0
tri2_1_5_12: t1_5_12 - x1_12 <= 0
tri3_1_5_12: t1_5_12 - x5_12 <= 0
tri4_1_5_12: t1_5_12 - x1_5 - x1_12 - x5_12 >= -2
tri1_1_5_13: t1_5_13 - x1_5 <= 0
tri2_1_5_13: t1_5_13 - x1_13 <= 0
tri3_1_5_13: t1_5_13 - x5_13 <= 0
tri4_1_5_13: t1_5_13 - x1_5 - x1_13 - x5_13 >= -2
tri1_1_5_14: t1_5_14 - x1_5 <= 0
tri2_1_5_14: t1_5_14 - x1_14 <= 0
tri3_1_5_14: t1_5_14 - x5_14 <= 0
tri4_1_5_14: t1_5_14 - x1_5 - x1_14 - x5_14 >= -2
tri1_1_5_15: t1_5_15 - x1_5 <= 0
tri2_1_5_15: t1_5_15 - x1_15 <= 0
tri3_1_5_15: t1_5_15 - x5_15 <= 0
tri4_1_5_15: t1_5_15 - x1_5 - x1_15 - x5_15 >= -2
tri1_1_5_16: t1_5_16 - x1_5 <= 0
tri2_1_5_16: t1_5_16 - x1_16 <= 0
tri3_1_5_16: t1_5_16 - x5_16 <= 0
tri4_1_5_16: t1_5_16 - x1_5 - x1_16 - x5_16 >= -2
tri1_1_5_17: t1_5_17 - x1_5 <= 0
tri2_1_5_17: t1_5_17 - x1_17 <= 0
tri3_1_5_17: t1_5_17 - x5_17 <= 0
tri4_1_5_17: t1_5_17 - x1_5 - x1_17 - x5_17 >= -2
tri1_1_5_18: t1_5_18 - x1_5 <= 0
tri2_1_5_18: t1_5_18 - x1_18 <= 0
tri3_1_5_18: t1_5_18 - x5_18 <= 0
tri4_1_5_18: t1_5_18 - x1_5 - x1_18 - x5_18 >= -2
tri1_1_5_19: t1_5_19 - x1_5 <= 0
tri2_1_5_19: t1_5_19 - x1_19 <= 0
tri3_1_5_19: t1_5_19 - x5_19 <= 0
tri4_1_5_19: t1_5_19 - x1_5 - x1_19 - x5_19 >= -2
tri1_1_5_20: t1_5_20 - x1_5 <= 0
tri2_1_5_20: t1_5_20 - x1_20 <= 0
tri3_1_5_20: t1_5_20 - x5_20 <= 0
tri4_1_5_20: t1_5_20 - x1_5 - x1_20 - x5_20 >= -2
tri1_1_5_21: t1_5_21 - x1_5 <= 0
tri2_1_5_21: t1_5_21 - x1_21 <= 0
tri3_1_5_21: t1_5_21 - x5_21 <= 0
tri4_1_5_21: t1_5_21 - x1_5 - x1_21 - x5_21 >= -2
tri1_1_5_22: t1_5_22 - x1_5 <= 0
tri2_1_5_22: t1_5_22 - x1_22 <= 0
tri3_1_5_22: t1_5_22 - x5_22 <= 0
tri4_1_5_22: t1_5_22 - x1_5 - x1_22 - x5_22 >= -2
tri1_1_5_23: t1_5_23 - x1_5 <= 0
tri2_1_5_23: t1_5_23 - x1_23 <= 0
tri3_1_5_23: t1_5_23 - x5_23 <= 0
tri4_1_5_23: t1_5_23 - x1_5 - x1_23 - x5_23 >= -2
tri1_1_6_7: t1_6_7 - x1_6 <= 0
tri2_1_6_7: t1_6_7 - x1_7 <= 0
tri3_1_6_7: t1_6_7 - x6_7 <= 0
tri4_1_6_7: t1_6_7 - x1_6 - x1_7 - x6_7 >= -2
tri1_1_6_8: t1_6_8 - x1_6 <= 0
tri2_1_6_8: t1_6_8 - x1_8 <= 0
tri3_1_6_8: t1_6_8 - x6_8 <= 0
tri4_1_6_8: t1_6_8 - x1_6 - x1_8 - x6_8 >= -2
tri1_1_6_9: t1_6_9 - x1_6 <= 0
tri2_1_6_9: t1_6_9 - x1_9 <= 0
tri3_1_6_9: t1_6_9 - x6_9 <= 0
tri4_1_6_9: t1_6_9 - x1_6 - x1_9 - x6_9 >= -2
tri1_1_6_10: t1_6_10 - x1_6 <= 0
tri2_1_6_10: t1_6_10 - x1_10 <= 0
tri3_1_6_10: t1_6_10 - x6_10 <= 0
tri4_1_6_10: t1_6_10 - x1_6 - x1_10 - x6_10 >= -2
tri1_1_6_11: t1_6_11 - x1_6 <= 0
tri2_1_6_11: t1_6_11 - x1_11 <= 0
tri3_1_6_11: t1_6_11 - x6_11 <= 0
tri4_1_6_11: t1_6_11 - x1_6 - x1_11 - x6_11 >= -2
tri1_1_6_12: t1_6_12 - x1_6 <= 0
tri2_1_6_12: t1_6_12 - x1_12 <= 0
tri3_1_6_12: t1_6_12 - x6_12 <= 0
tri4_1_6_12: t1_6_12 - x1_6 - x1_12 - x6_12 >= -2
tri1_1_6_13: t1_6_13 - x1_6 <= 0
tri2_1_6_13: t1_6_13 - x1_13 <= 0
tri3_1_6_13: t1_6_13 - x6_13 <= 0
tri4_1_6_13: t1_6_13 - x1_6 - x1_13 - x6_13 >= -2
tri1_1_6_14: t1_6_14 - x1_6 <= 0
tri2_1_6_14: t1_6_14 - x1_14 <= 0
tri3_1_6_14: t1_6_14 - x6_14 <= 0
tri4_1_6_14: t1_6_14 - x1_6 - x1_14 - x6_14 >= -2
tri1_1_6_15: t1_6_15 - x1_6 <= 0
tri2_1_6_15: t1_6_15 - x1_15 <= 0
tri3_1_6_15: t1_6_15 - x6_15 <= 0
tri4_1_6_15: t1_6_15 - x1_6 - x1_15 - x6_15 >= -2
tri1_1_6_16: t1_6_16 - x1_6 <= 0
tri2_1_6_16: t1_6_16 - x1_16 <= 0
tri3_1_6_16: t1_6_16 - x6_16 <= 0
tri4_1_6_16: t1_6_16 - x1_6 - x1_16 - x6_16 >= -2
tri1_1_6_17: t1_6_17 - x1_6 <= 0
tri2_1_6_17: t1_6_17 - x1_17 <= 0
tri3_1_6_17: t1_6_17 - x6_17 <= 0
tri4_1_6_17: t1_6_17 - x1_6 - x1_17 - x6_17 >= -2
tri1_1_6_18: t1_6_18 - x1_6 <= 0
tri2_1_6_18: t1_6_18 - x1_18 <= 0
tri3_1_6_18: t1_6_18 - x6_18 <= 0
tri4_1_6_18: t1_6_18 - x1_6 - x1_18 - x6_18 >= -2
tri1_1_6_19: t1_6_19 - x1_6 <= 0
tri2_1_6_19: t1_6_19 - x1_19 <= 0
tri3_1_6_19: t1_6_19 - x6_19 <= 0
tri4_1_6_19: t1_6_19 - x1_6 - x1_19 - x6_19 >= -2
tri1_1_6_20: t1_6_20 - x1_6 <= 0
tri2_1_6_20: t1_6_20 - x1_20 <= 0
tri3_1_6_20: t1_6_20 - x6_20 <= 0
tri4_1_6_20: t1_6_20 - x1_6 - x1_20 - x6_20 >= -2
tri1_1_6_21: t1_6_21 - x1_6 <= 0
tri2_1_6_21: t1_6_21 - x1_21 <= 0
tri3_1_6_21: t1_6_21 - x6_21 <= 0
tri4_1_6_21: t1_6_21 - x1_6 - x1_21 - x6_21 >= -2
tri1_1_6_22: t1_6_22 - x1_6 <= 0
tri2_1_6_22: t1_6_22 - x1_22 <= 0
tri3_1_6_22: t1_6_22 - x6_22 <= 0
tri4_1_6_22: t1_6_22 - x1_6 - x1_22 - x6_22 >= -2
tri1_1_6_23: t1_6_23 - x1_6 <= 0
tri2_1_6_23: t1_6_23 - x1_23 <= 0
tri3_1_6_23: t1_6_23 - x6_23 <= 0
tri4_1_6_23: t1_6_23 - x1_6 - x1_23 - x6_23 >= -2
tri1_1_7_8: t1_7_8 - x1_7 <= 0
tri2_1_7_8: t1_7_8 - x1_8 <= 0
tri3_1_7_8: t1_7_8 - x7_8 <= 0
tri4_1_7_8: t1_7_8 - x1_7 - x1_8 - x7_8 >= -2
tri1_1_7_9: t1_7_9 - x1_7 <= 0
tri2_1_7_9: t1_7_9 - x1_9 <= 0
tri3_1_7_9: t1_7_9 - x7_9 <= 0
tri4_1_7_9: t1_7_9 - x1_7 - x1_9 - x7_9 >= -2
tri1_1_7_10: t1_7_10 - x1_7 <= 0
tri2_1_7_10: t1_7_10 - x1_10 <= 0
tri3_1_7_10: t1_7_10 - x7_10 <= 0
tri4_1_7_10: t1_7_10 - x1_7 - x1_10 - x7_10 >= -2
tri1_1_7_11: t1_7_11 - x1_7 <= 0
tri2_1_7_11: t1_7_11 - x1_11 <= 0
tri3_1_7_11: t1_7_11 - x7_11 <= 0
tri4_1_7_11: t1_7_11 - x1_7 - x1_11 - x7_11 >= -2
tri1_1_7_12: t1_7_12 - x1_7 <= 0
tri2_1_7_12: t1_7_12 - x1_12 <= 0
tri3_1_7_12: t1_7_12 - x7_12 <= 0
tri4_1_7_12: t1_7_12 - x1_7 - x1_12 - x7_12 >= -2
tri1_1_7_13: t1_7_13 - x1_7 <= 0
tri2_1_7_13: t1_7_13 - x1_13 <= 0
tri3_1_7_13: t1_7_13 - x7_13 <= 0
tri4_1_7_13: t1_7_13 - x1_7 - x1_13 - x7_13 >= -2
tri1_1_7_14: t1_7_14 - x1_7 <= 0
tri2_1_7_14: t1_7_14 - x1_14 <= 0
tri3_1_7_14: t1_7_14 - x7_14 <= 0
tri4_1_7_14: t1_7_14 - x1_7 - x1_14 - x7_14 >= -2
tri1_1_7_15: t1_7_15 - x1_7 <= 0
tri2_1_7_15: t1_7_15 - x1_15 <= 0
tri3_1_7_15: t1_7_15 - x7_15 <= 0
tri4_1_7_15: t1_7_15 - x1_7 - x1_15 - x7_15 >= -2
tri1_1_7_16: t1_7_16 - x1_7 <= 0
tri2_1_7_16: t1_7_16 - x1_16 <= 0
tri3_1_7_16: t1_7_16 - x7_16 <= 0
tri4_1_7_16: t1_7_16 - x1_7 - x1_16 - x7_16 >= -2
tri1_1_7_17: t1_7_17 - x1_7 <= 0
tri2_1_7_17: t1_7_17 - x1_17 <= 0
tri3_1_7_17: t1_7_17 - x7_17 <= 0
tri4_1_7_17: t1_7_17 - x1_7 - x1_17 - x7_17 >= -2
tri1_1_7_18: t1_7_18 - x1_7 <= 0
tri2_1_7_18: t1_7_18 - x1_18 <= 0
tri3_1_7_18: t1_7_18 - x7_18 <= 0
tri4_1_7_18: t1_7_18 - x1_7 - x1_18 - x7_18 >= -2
tri1_1_7_19: t1_7_19 - x1_7 <= 0
tri2_1_7_19: t1_7_19 - x1_19 <= 0
tri3_1_7_19: t1_7_19 - x7_19 <= 0
tri4_1_7_19: t1_7_19 - x1_7 - x1_19 - x7_19 >= -2
tri1_1_7_20: t1_7_20 - x1_7 <= 0
tri2_1_7_20: t1_7_20 - x1_20 <= 0
tri3_1_7_20: t1_7_20 - x7_20 <= 0
tri4_1_7_20: t1_7_20 - x1_7 - x1_20 - x7_20 >= -2
tri1_1_7_21: t1_7_21 - x1_7 <= 0
tri2_1_7_21: t1_7_21 - x1_21 <= 0
tri3_1_7_21: t1_7_21 - x7_21 <= 0
tri4_1_7_21: t1_7_21 - x1_7 - x1_21 - x7_21 >= -2
tri1_1_7_22: t1_7_22 - x1_7 <= 0
tri2_1_7_22: t1_7_22 - x1_22 <= 0
tri3_1_7_22: t1_7_22 - x7_22 <= 0
tri4_1_7_22: t1_7_22 - x1_7 - x1_22 - x7_22 >= -2
tri1_1_7_23: t1_7_23 - x1_7 <= 0
tri2_1_7_23: t1_7_23 - x1_23 <= 0
tri3_1_7_23: t1_7_23 - x7_23 <= 0
tri4_1_7_23: t1_7_23 - x1_7 - x1_23 - x7_23 >= -2
tri1_1_8_9: t1_8_9 - x1_8 <= 0
tri2_1_8_9: t1_8_9 - x1_9 <= 0
tri3_1_8_9: t1_8_9 - x8_9 <= 0
tri4_1_8_9: t1_8_9 - x1_8 - x1_9 - x8_9 >= -2
tri1_1_8_10: t1_8_10 - x1_8 <= 0
tri2_1_8_10: t1_8_10 - x1_10 <= 0
tri3_1_8_10: t1_8_10 - x8_10 <= 0
tri4_1_8_10: t1_8_10 - x1_8 - x1_10 - x8_10 >= -2
tri1_1_8_11: t1_8_11 - x1_8 <= 0
tri2_1_8_11: t1_8_11 - x1_11 <= 0
tri3_1_8_11: t1_8_11 - x8_11 <= 0
tri4_1_8_11: t1_8_11 - x1_8 - x1_11 - x8_11 >= -2
tri1_1_8_12: t1_8_12 - x1_8 <= 0
tri2_1_8_12: t1_8_12 - x1_12 <= 0
tri3_1_8_12: t1_8_12 - x8_12 <= 0
tri4_1_8_12: t1_8_12 - x1_8 - x1_12 - x8_12 >= -2
tri1_1_8_13: t1_8_13 - x1_8 <= 0
tri2_1_8_13: t1_8_13 - x1_13 <= 0
tri3_1_8_13: t1_8_13 - x8_13 <= 0
tri4_1_8_13: t1_8_13 - x1_8 - x1_13 - x8_13 >= -2
tri1_1_8_14: t1_8_14 - x1_8 <= 0
tri2_1_8_14: t1_8_14 - x1_14 <= 0
tri3_1_8_14: t1_8_14 - x8_14 <= 0
tri4_1_8_14: t1_8_14 - x1_8 - x1_14 - x8_14 >= -2
tri1_1_8_15: t1_8_15 - x1_8 <= 0
tri2_1_8_15: t1_8_15 - x1_15 <= 0
tri3_1_8_15: t1_8_15 - x8_15 <= 0
tri4_1_8_15: t1_8_15 - x1_8 - x1_15 - x8_15 >= -2
tri1_1_8_16: t1_8_16 - x1_8 <= 0
tri2_1_8_16: t1_8_16 - x1_16 <= 0
tri3_1_8_16: t1_8_16 - x8_16 <= 0
tri4_1_8_16: t1_8_16 - x1_8 - x1_16 - x8_16 >= -2
tri1_1_8_17: t1_8_17 - x1_8 <= 0
tri2_1_8_17: t1_8_17 - x1_17 <= 0
tri3_1_8_17: t1_8_17 - x8_17 <= 0
tri4_1_8_17: t1_8_17 - x1_8 - x1_17 - x8_17 >= -2
tri1_1_8_18: t1_8_18 - x1_8 <= 0
tri2_1_8_18: t1_8_18 - x1_18 <= 0
tri3_1_8_18: t1_8_18 - x8_18 <= 0
tri4_1_8_18: t1_8_18 - x1_8 - x1_18 - x8_18 >= -2
tri1_1_8_19: t1_8_19 - x1_8 <= 0
tri2_1_8_19: t1_8_19 - x1_19 <= 0
tri3_1_8_19: t1_8_19 - x8_19 <= 0
tri4_1_8_19: t1_8_19 - x1_8 - x1_19 - x8_19 >= -2
tri1_1_8_20: t1_8_20 - x1_8 <= 0
tri2_1_8_20: t1_8_20 - x1_20 <= 0
tri3_1_8_20: t1_8_20 - x8_20 <= 0
tri4_1_8_20: t1_8_20 - x1_8 - x1_20 - x8_20 >= -2
tri1_1_8_21: t1_8_21 - x1_8 <= 0
tri2_1_8_21: t1_8_21 - x1_21 <= 0
tri3_1_8_21: t1_8_21 - x8_21 <= 0
tri4_1_8_21: t1_8_21 - x1_8 - x1_21 - x8_21 >= -2
tri1_1_8_22: t1_8_22 - x1_8 <= 0
tri2_1_8_22: t1_8_22 - x1_22 <= 0
tri3_1_8_22: t1_8_22 - x8_22 <= 0
tri4_1_8_22: t1_8_22 - x1_8 - x1_22 - x8_22 >= -2
tri1_1_8_23: t1_8_23 - x1_8 <= 0
tri2_1_8_23: t1_8_23 - x1_23 <= 0
tri3_1_8_23: t1_8_23 - x8_23 <= 0
tri4_1_8_23: t1_8_23 - x1_8 - x1_23 - x8_23 >= -2
tri1_1_9_10: t1_9_10 - x1_9 <= 0
tri2_1_9_10: t1_9_10 - x1_10 <= 0
tri3_1_9_10: t1_9_10 - x9_10 <= 0
tri4_1_9_10: t1_9_10 - x1_9 - x1_10 - x9_10 >= -2
tri1_1_9_11: t1_9_11 - x1_9 <= 0
tri2_1_9_11: t1_9_11 - x1_11 <= 0
tri3_1_9_11: t1_9_11 - x9_11 <= 0
tri4_1_9_11: t1_9_11 - x1_9 - x1_11 - x9_11 >= -2
tri1_1_9_12: t1_9_12 - x1_9 <= 0
tri2_1_9_12: t1_9_12 - x1_12 <= 0
tri3_1_9_12: t1_9_12 - x9_12 <= 0
tri4_1_9_12: t1_9_12 - x1_9 - x1_12 - x9_12 >= -2
tri1_1_9_13: t1_9_13 - x1_9 <= 0
tri2_1_9_13: t1_9_13 - x1_13 <= 0
tri3_1_9_13: t1_9_13 - x9_13 <= 0
tri4_1_9_13: t1_9_13 - x1_9 - x1_13 - x9_13 >= -2
tri1_1_9_14: t1_9_14 - x1_9 <= 0
tri2_1_9_14: t1_9_14 - x1_14 <= 0
tri3_1_9_14: t1_9_14 - x9_14 <= 0
tri4_1_9_14: t1_9_14 - x1_9 - x1_14 - x9_14 >= -2
tri1_1_9_15: t1_9_15 - x1_9 <= 0
tri2_1_9_15: t1_9_15 - x1_15 <= 0
tri3_1_9_15: t1_9_15 - x9_15 <= 0
tri4_1_9_15: t1_9_15 - x1_9 - x1_15 - x9_15 >= -2
tri1_1_9_16: t1_9_16 - x1_9 <= 0
tri2_1_9_16: t1_9_16 - x1_16 <= 0
tri3_1_9_16: t1_9_16 - x9_16 <= 0
tri4_1_9_16: t1_9_16 - x1_9 - x1_16 - x9_16 >= -2
tri1_1_9_17: t1_9_17 - x1_9 <= 0
tri2_1_9_17: t1_9_17 - x1_17 <= 0
tri3_1_9_17: t1_9_17 - x9_17 <= 0
tri4_1_9_17: t1_9_17 - x1_9 - x1_17 - x9_17 >= -2
tri1_1_9_18: t1_9_18 - x1_9 <= 0
tri2_1_9_18: t1_9_18 - x1_18 <= 0
tri3_1_9_18: t1_9_18 - x9_18 <= 0
tri4_1_9_18: t1_9_18 - x1_9 - x1_18 - x9_18 >= -2
tri1_1_9_19: t1_9_19 - x1_9 <= 0
tri2_1_9_19: t1_9_19 - x1_19 <= 0
tri3_1_9_19: t1_9_19 - x9_19 <= 0
tri4_1_9_19: t1_9_19 - x1_9 - x1_19 - x9_19 >= -2
tri1_1_9_20: t1_9_20 - x1_9 <= 0
tri2_1_9_20: t1_9_20 - x1_20 <= 0
tri3_1_9_20: t1_9_20 - x9_20 <= 0
tri4_1_9_20: t1_9_20 - x1_9 - x1_20 - x9_20 >= -2
tri1_1_9_21: t1_9_21 - x1_9 <= 0
tri2_1_9_21: t1_9_21 - x1_21 <= 0
tri3_1_9_21: t1_9_21 - x9_21 <= 0
tri4_1_9_21: t1_9_21 - x1_9 - x1_21 - x9_21 >= -2
tri1_1_9_22: t1_9_22 - x1_9 <= 0
tri2_1_9_22: t1_9_22 - x1_22 <= 0
tri3_1_9_22: t1_9_22 - x9_22 <= 0
tri4_1_9_22: t1_9_22 - x1_9 - x1_22 - x9_22 >= -2
tri1_1_9_23: t1_9_23 - x1_9 <= 0
tri2_1_9_23: t1_9_23 - x1_23 <= 0
tri3_1_9_23: t1_9_23 - x9_23 <= 0
tri4_1_9_23: t1_9_23 - x1_9 - x1_23 - x9_23 >= -2
tri1_1_10_11: t1_10_11 - x1_10 <= 0
tri2_1_10_11: t1_10_11 - x1_11 <= 0
tri3_1_10_11: t1_10_11 - x10_11 <= 0
tri4_1_10_11: t1_10_11 - x1_10 - x1_11 - x10_11 >= -2
tri1_1_10_12: t1_10_12 - x1_10 <= 0
tri2_1_10_12: t1_10_12 - x1_12 <= 0
tri3_1_10_12: t1_10_12 - x10_12 <= 0
tri4_1_10_12: t1_10_12 - x1_10 - x1_12 - x10_12 >= -2
tri1_1_10_13: t1_10_13 - x1_10 <= 0
tri2_1_10_13: t1_10_13 - x1_13 <= 0
tri3_1_10_13: t1_10_13 - x10_13 <= 0
tri4_1_10_13: t1_10_13 - x1_10 - x1_13 - x10_13 >= -2
tri1_1_10_14: t1_10_14 - x1_10 <= 0
tri2_1_10_14: t1_10_14 - x1_14 <= 0
tri3_1_10_14: t1_10_14 - x10_14 <= 0
tri4_1_10_14: t1_10_14 - x1_10 - x1_14 - x10_14 >= -2
tri1_1_10_15: t1_10_15 - x1_10 <= 0
tri2_1_10_15: t1_10_15 - x1_15 <= 0
tri3_1_10_15: t1_10_15 - x10_15 <= 0
tri4_1_10_15: t1_10_15 - x1_10 - x1_15 - x10_15 >= -2
tri1_1_10_16: t1_10_16 - x1_10 <= 0
tri2_1_10_16: t1_10_16 - x1_16 <= 0
tri3_1_10_16: t1_10_16 - x10_16 <= 0
tri4_1_10_16: t1_10_16 - x1_10 - x1_16 - x10_16 >= -2
tri1_1_10_17: t1_10_17 - x1_10 <= 0
tri2_1_10_17: t1_10_17 - x1_17 <= 0
tri3_1_10_17: t1_10_17 - x10_17 <= 0
tri4_1_10_17: t1_10_17 - x1_10 - x1_17 - x10_17 >= -2
tri1_1_10_18: t1_10_18 - x1_10 <= 0
tri2_1_10_18: t1_10_18 - x1_18 <= 0
tri3_1_10_18: t1_10_18 - x10_18 <= 0
tri4_1_10_18: t1_10_18 - x1_10 - x1_18 - x10_18 >= -2
tri1_1_10_19: t1_10_19 - x1_10 <= 0
tri2_1_10_19: t1_10_19 - x1_19 <= 0
tri3_1_10_19: t1_10_19 - x10_19 <= 0
tri4_1_10_19: t1_10_19 - x1_10 - x1_19 - x10_19 >= -2
tri1_1_10_20: t1_10_20 - x1_10 <= 0
tri2_1_10_20: t1_10_20 - x1_20 <= 0
tri3_1_10_20: t1_10_20 - x10_20 <= 0
tri4_1_10_20: t1_10_20 - x1_10 - x1_20 - x10_20 >= -2
tri1_1_10_21: t1_10_21 - x1_10 <= 0
tri2_1_10_21: t1_10_21 - x1_21 <= 0
tri3_1_10_21: t1_10_21 - x10_21 <= 0
tri4_1_10_21: t1_10_21 - x1_10 - x1_21 - x10_21 >= -2
tri1_1_10_22: t1_10_22 - x1_10 <= 0
tri2_1_10_22: t1_10_22 - x1_22 <= 0
tri3_1_10_22: t1_10_22 - x10_22 <= 0
tri4_1_10_22: t1_10_22 - x1_10 - x1_22 - x10_22 >= -2
tri1_1_10_23: t1_10_23 - x1_10 <= 0
tri2_1_10_23: t1_10_23 - x1_23 <= 0
tri3_1_10_23: t1_10_23 - x10_23 <= 0
tri4_1_10_23: t1_10_23 - x1_10 - x1_23 - x10_23 >= -2
tri1_1_11_12: t1_11_12 - x1_11 <= 0
tri2_1_11_12: t1_11_12 - x1_12 <= 0
tri3_1_11_12: t1_11_12 - x11_12 <= 0
tri4_1_11_12: t1_11_12 - x1_11 - x1_12 - x11_12 >= -2
tri1_1_11_13: t1_11_13 - x1_11 <= 0
tri2_1_11_13: t1_11_13 - x1_13 <= 0
tri3_1_11_13: t1_11_13 - x11_13 <= 0
tri4_1_11_13: t1_11_13 - x1_11 - x1_13 - x11_13 >= -2
tri1_1_11_14: t1_11_14 - x1_11 <= 0
tri2_1_11_14: t1_11_14 - x1_14 <= 0
tri3_1_11_14: t1_11_14 - x11_14 <= 0
tri4_1_11_14: t1_11_14 - x1_11 - x1_14 - x11_14 >= -2
tri1_1_11_15: t1_11_15 - x1_11 <= 0
tri2_1_11_15: t1_11_15 - x1_15 <= 0
tri3_1_11_15: t1_11_15 - x11_15 <= 0
tri4_1_11_15: t1_11_15 - x1_11 - x1_15 - x11_15 >= -2
tri1_1_11_16: t1_11_16 - x1_11 <= 0
tri2_1_11_16: t1_11_16 - x1_16 <= 0
tri3_1_11_16: t1_11_16 - x11_16 <= 0
tri4_1_11_16: t1_11_16 - x1_11 - x1_16 - x11_16 >= -2
tri1_1_11_17: t1_11_17 - x1_11 <= 0
tri2_1_11_17: t1_11_17 - x1_17 <= 0
tri3_1_11_17: t1_11_17 - x11_17 <= 0
tri4_1_11_17: t1_11_17 - x1_11 - x1_17 - x11_17 >= -2
tri1_1_11_18: t1_11_18 - x1_11 <= 0
tri2_1_11_18: t1_11_18 - x1_18 <= 0
tri3_1_11_18: t1_11_18 - x11_18 <= 0
tri4_1_11_18: t1_11_18 - x1_11 - x1_18 - x11_18 >= -2
tri1_1_11_19: t1_11_19 - x1_11 <= 0
tri2_1_11_19: t1_11_19 - x1_19 <= 0
tri3_1_11_19: t1_11_19 - x11_19 <= 0
tri4_1_11_19: t1_11_19 - x1_11 - x1_19 - x11_19 >= -2
tri1_1_11_20: t1_11_20 - x1_11 <= 0
tri2_1_11_20: t1_11_20 - x1_20 <= 0
tri3_1_11_20: t1_11_20 - x11_20 <= 0
tri4_1_11_20: t1_11_20 - x1_11 - x1_20 - x11_20 >= -2
tri1_1_11_21: t1_11_21 - x1_11 <= 0
tri2_1_11_21: t1_11_21 - x1_21 <= 0
tri3_1_11_21: t1_11_21 - x11_21 <= 0
tri4_1_11_21: t1_11_21 - x1_11 - x1_21 - x11_21 >= -2
tri1_1_11_22: t1_11_22 - x1_11 <= 0
tri2_1_11_22: t1_11_22 - x1_22 <= 0
tri3_1_11_22: t1_11_22 - x11_22 <= 0
tri4_1_11_22: t1_11_22 - x1_11 - x1_22 - x11_22 >= -2
tri1_1_11_23: t1_11_23 - x1_11 <= 0
tri2_1_11_23: t1_11_23 - x1_23 <= 0
tri3_1_11_23: t1_11_23 - x11_23 <= 0
tri4_1_11_23: t1_11_23 - x1_11 - x1_23 - x11_23 >= -2
tri1_1_12_13: t1_12_13 - x1_12 <= 0
tri2_1_12_13: t1_12_13 - x1_13 <= 0
tri3_1_12_13: t1_12_13 - x12_13 <= 0
tri4_1_12_13: t1_12_13 - x1_12 - x1_13 - x12_13 >= -2
tri1_1_12_14: t1_12_14 - x1_12 <= 0
tri2_1_12_14: t1_12_14 - x1_14 <= 0
tri3_1_12_14: t1_12_14 - x12_14 <= 0
tri4_1_12_14: t1_12_14 - x1_12 - x1_14 - x12_14 >= -2
tri1_1_12_15: t1_12_15 - x1_12 <= 0
tri2_1_12_15: t1_12_15 - x1_15 <= 0
tri3_1_12_15: t1_12_15 - x12_15 <= 0
tri4_1_12_15: t1_12_15 - x1_12 - x1_15 - x12_15 >= -2
tri1_1_12_16: t1_12_16 - x1_12 <= 0
tri2_1_12_16: t1_12_16 - x1_16 <= 0
tri3_1_12_16: t1_12_16 - x12_16 <= 0
tri4_1_12_16: t1_12_16 - x1_12 - x1_16 - x12_16 >= -2
tri1_1_12_17: t1_12_17 - x1_12 <= 0
tri2_1_12_17: t1_12_17 - x1_17 <= 0
tri3_1_12_17: t1_12_17 - x12_17 <= 0
tri4_1_12_17: t1_12_17 - x1_12 - x1_17 - x12_17 >= -2
tri1_1_12_18: t1_12_18 - x1_12 <= 0
tri2_1_12_18: t1_12_18 - x1_18 <= 0
tri3_1_12_18: t1_12_18 - x12_18 <= 0
tri4_1_12_18: t1_12_18 - x1_12 - x1_18 - x12_18 >= -2
tri1_1_12_19: t1_12_19 - x1_12 <= 0
tri2_1_12_19: t1_12_19 - x1_19 <= 0
tri3_1_12_19: t1_12_19 - x12_19 <= 0
tri4_1_12_19: t1_12_19 - x1_12 - x1_19 - x12_19 >= -2
tri1_1_12_20: t1_12_20 - x1_12 <= 0
tri2_1_12_20: t1_12_20 - x1_20 <= 0
tri3_1_12_20: t1_12_20 - x12_20 <= 0
tri4_1_12_20: t1_12_20 - x1_12 - x1_20 - x12_20 >= -2
tri1_1_12_21: t1_12_21 - x1_12 <= 0
tri2_1_12_21: t1_12_21 - x1_21 <= 0
tri3_1_12_21: t1_12_21 - x12_21 <= 0
tri4_1_12_21: t1_12_21 - x1_12 - x1_21 - x12_21 >= -2
tri1_1_12_22: t1_12_22 - x1_12 <= 0
tri2_1_12_22: t1_12_22 - x1_22 <= 0
tri3_1_12_22: t1_12_22 - x12_22 <= 0
tri4_1_12_22: t1_12_22 - x1_12 - x1_22 - x12_22 >= -2
tri1_1_12_23: t1_12_23 - x1_12 <= 0
tri2_1_12_23: t1_12_23 - x1_23 <= 0
tri3_1_12_23: t1_12_23 - x12_23 <= 0
tri4_1_12_23: t1_12_23 - x1_12 - x1_23 - x12_23 >= -2
tri1_1_13_14: t1_13_14 - x1_13 <= 0
tri2_1_13_14: t1_13_14 - x1_14 <= 0
tri3_1_13_14: t1_13_14 - x13_14 <= 0
tri4_1_13_14: t1_13_14 - x1_13 - x1_14 - x13_14 >= -2
tri1_1_13_15: t1_13_15 - x1_13 <= 0
tri2_1_13_15: t1_13_15 - x1_15 <= 0
tri3_1_13_15: t1_13_15 - x13_15 <= 0
tri4_1_13_15: t1_13_15 - x1_13 - x1_15 - x13_15 >= -2
tri1_1_13_16: t1_13_16 - x1_13 <= 0
tri2_1_13_16: t1_13_16 - x1_16 <= 0
tri3_1_13_16: t1_13_16 - x13_16 <= 0
tri4_1_13_16: t1_13_16 - x1_13 - x1_16 - x13_16 >= -2
tri1_1_13_17: t1_13_17 - x1_13 <= 0
tri2_1_13_17: t1_13_17 - x1_17 <= 0
tri3_1_13_17: t1_13_17 - x13_17 <= 0
tri4_1_13_17: t1_13_17 - x1_13 - x1_17 - x13_17 >= -2
tri1_1_13_18: t1_13_18 - x1_13 <= 0
tri2_1_13_18: t1_13_18 - x1_18 <= 0
tri3_1_13_18: t1_13_18 - x13_18 <= 0
tri4_1_13_18: t1_13_18 - x1_13 - x1_18 - x13_18 >= -2
tri1_1_13_19: t1_13_19 - x1_13 <= 0
tri2_1_13_19: t1_13_19 - x1_19 <= 0
tri3_1_13_19: t1_13_19 - x13_19 <= 0
tri4_1_13_19: t1_13_19 - x1_13 - x1_19 - x13_19 >= -2
tri1_1_13_20: t1_13_20 - x1_13 <= 0
tri2_1_13_20: t1_13_20 - x1_20 <= 0
tri3_1_13_20: t1_13_20 - x13_20 <= 0
tri4_1_13_20: t1_13_20 - x1_13 - x1_20 - x13_20 >= -2
tri1_1_13_21: t1_13_21 - x1_13 <= 0
tri2_1_13_21: t1_13_21 - x1_21 <= 0
tri3_1_13_21: t1_13_21 - x13_21 <= 0
tri4_1_13_21: t1_13_21 - x1_13 - x1_21 - x13_21 >= -2
tri1_1_13_22: t1_13_22 - x1_13 <= 0
tri2_1_13_22: t1_13_22 - x1_22 <= 0
tri3_1_13_22: t1_13_22 - x13_22 <= 0
tri4_1_13_22: t1_13_22 - x1_13 - x1_22 - x13_22 >= -2
tri1_1_13_23: t1_13_23 - x1_13 <= 0
tri2_1_13_23: t1_13_23 - x1_23 <= 0
tri3_1_13_23: t1_13_23 - x13_23 <= 0
tri4_1_13_23: t1_13_23 - x1_13 - x1_23 - x13_23 >= -2
tri1_1_14_15: t1_14_15 - x1_14 <= 0
tri2_1_14_15: t1_14_15 - x1_15 <= 0
tri3_1_14_15: t1_14_15 - x14_15 <= 0
tri4_1_14_15: t1_14_15 - x1_14 - x1_15 - x14_15 >= -2
tri1_1_14_16: t1_14_16 - x1_14 <= 0
tri2_1_14_16: t1_14_16 - x1_16 <= 0
tri3_1_14_16: t1_14_16 - x14_16 <= 0
tri4_1_14_16: t1_14_16 - x1_14 - x1_16 - x14_16 >= -2
tri1_1_14_17: t1_14_17 - x1_14 <= 0
tri2_1_14_17: t1_14_17 - x1_17 <= 0
tri3_1_14_17: t1_14_17 - x14_17 <= 0
tri4_1_14_17: t1_14_17 - x1_14 - x1_17 - x14_17 >= -2
tri1_1_14_18: t1_14_18 - x1_14 <= 0
tri2_1_14_18: t1_14_18 - x1_18 <= 0
tri3_1_14_18: t1_14_18 - x14_18 <= 0
tri4_1_14_18: t1_14_18 - x1_14 - x1_18 - x14_18 >= -2
tri1_1_14_19: t1_14_19 - x1_14 <= 0
tri2_1_14_19: t1_14_19 - x1_19 <= 0
tri3_1_14_19: t1_14_19 - x14_19 <= 0
tri4_1_14_19: t1_14_19 - x1_14 - x1_19 - x14_19 >= -2
tri1_1_14_20: t1_14_20 - x1_14 <= 0
tri2_1_14_20: t1_14_20 - x1_20 <= 0
tri3_1_14_20: t1_14_20 - x14_20 <= 0
tri4_1_14_20: t1_14_20 - x1_14 - x1_20 - x14_20 >= -2
tri1_1_14_21: t1_14_21 - x1_14 <= 0
tri2_1_14_21: t1_14_21 - x1_21 <= 0
tri3_1_14_21: t1_14_21 - x14_21 <= 0
tri4_1_14_21: t1_14_21 - x1_14 - x1_21 - x14_21 >= -2
tri1_1_14_22: t1_14_22 - x1_14 <= 0
tri2_1_14_22: t1_14_22 - x1_22 <= 0
tri3_1_14_22: t1_14_22 - x14_22 <= 0
tri4_1_14_22: t1_14_22 - x1_14 - x1_22 - x14_22 >= -2
tri1_1_14_23: t1_14_23 - x1_14 <= 0
tri2_1_14_23: t1_14_23 - x1_23 <= 0
tri3_1_14_23: t1_14_23 - x14_23 <= 0
tri4_1_14_23: t1_14_23 - x1_14 - x1_23 - x14_23 >= -2
tri1_1_15_16: t1_15_16 - x1_15 <= 0
tri2_1_15_16: t1_15_16 - x1_16 <= 0
tri3_1_15_16: t1_15_16 - x15_16 <= 0
tri4_1_15_16: t1_15_16 - x1_15 - x1_16 - x15_16 >= -2
tri1_1_15_17: t1_15_17 - x1_15 <= 0
tri2_1_15_17: t1_15_17 - x1_17 <= 0
tri3_1_15_17: t1_15_17 - x15_17 <= 0
tri4_1_15_17: t1_15_17 - x1_15 - x1_17 - x15_17 >= -2
tri1_1_15_18: t1_15_18 - x1_15 <= 0
tri2_1_15_18: t1_15_18 - x1_18 <= 0
tri3_1_15_18: t1_15_18 - x15_18 <= 0
tri4_1_15_18: t1_15_18 - x1_15 - x1_18 - x15_18 >= -2
tri1_1_15_19: t1_15_19 - x1_15 <= 0
tri2_1_15_19: t1_15_19 - x1_19 <= 0
tri3_1_15_19: t1_15_19 - x15_19 <= 0
tri4_1_15_19: t1_15_19 - x1_15 - x1_19 - x15_19 >= -2
tri1_1_15_20: t1_15_20 - x1_15 <= 0
tri2_1_15_20: t1_15_20 - x1_20 <= 0
tri3_1_15_20: t1_15_20 - x15_20 <= 0
tri4_1_15_20: t1_15_20 - x1_15 - x1_20 - x15_20 >= -2
tri1_1_15_21: t1_15_21 - x1_15 <= 0
tri2_1_15_21: t1_15_21 - x1_21 <= 0
tri3_1_15_21: t1_15_21 - x15_21 <= 0
tri4_1_15_21: t1_15_21 - x1_15 - x1_21 - x15_21 >= -2
tri1_1_15_22: t1_15_22 - x1_15 <= 0
tri2_1_15_22: t1_15_22 - x1_22 <= 0
tri3_1_15_22: t1_15_22 - x15_22 <= 0
tri4_1_15_22: t1_15_22 - x1_15 - x1_22 - x15_22 >= -2
tri1_1_15_23: t1_15_23 - x1_15 <= 0
tri2_1_15_23: t1_15_23 - x1_23 <= 0
tri3_1_15_23: t1_15_23 - x15_23 <= 0
tri4_1_15_23: t1_15_23 - x1_15 - x1_23 - x15_23 >= -2
tri1_1_16_17: t1_16_17 - x1_16 <= 0
tri2_1_16_17: t1_16_17 - x1_17 <= 0
tri3_1_16_17: t1_16_17 - x16_17 <= 0
tri4_1_16_17: t1_16_17 - x1_16 - x1_17 - x16_17 >= -2
tri1_1_16_18: t1_16_18 - x1_16 <= 0
tri2_1_16_18: t1_16_18 - x1_18 <= 0
tri3_1_16_18: t1_16_18 - x16_18 <= 0
tri4_1_16_18: t1_16_18 - x1_16 - x1_18 - x16_18 >= -2
tri1_1_16_19: t1_16_19 - x1_16 <= 0
tri2_1_16_19: t1_16_19 - x1_19 <= 0
tri3_1_16_19: t1_16_19 - x16_19 <= 0
tri4_1_16_19: t1_16_19 - x1_16 - x1_19 - x16_19 >= -2
tri1_1_16_20: t1_16_20 - x1_16 <= 0
tri2_1_16_20: t1_16_20 - x1_20 <= 0
tri3_1_16_20: t1_16_20 - x16_20 <= 0
tri4_1_16_20: t1_16_20 - x1_16 - x1_20 - x16_20 >= -2
tri1_1_16_21: t1_16_21 - x1_16 <= 0
tri2_1_16_21: t1_16_21 - x1_21 <= 0
tri3_1_16_21: t1_16_21 - x16_21 <= 0
tri4_1_16_21: t1_16_21 - x1_16 - x1_21 - x16_21 >= -2
tri1_1_16_22: t1_16_22 - x1_16 <= 0
tri2_1_16_22: t1_16_22 - x1_22 <= 0
tri3_1_16_22: t1_16_22 - x16_22 <= 0
tri4_1_16_22: t1_16_22 - x1_16 - x1_22 - x16_22 >= -2
tri1_1_16_23: t1_16_23 - x1_16 <= 0
tri2_1_16_23: t1_16_23 - x1_23 <= 0
tri3_1_16_23: t1_16_23 - x16_23 <= 0
tri4_1_16_23: t1_16_23 - x1_16 - x1_23 - x16_23 >= -2
tri1_1_17_18: t1_17_18 - x1_17 <= 0
tri2_1_17_18: t1_17_18 - x1_18 <= 0
tri3_1_17_18: t1_17_18 - x17_18 <= 0
tri4_1_17_18: t1_17_18 - x1_17 - x1_18 - x17_18 >= -2
tri1_1_17_19: t1_17_19 - x1_17 <= 0
tri2_1_17_19: t1_17_19 - x1_19 <= 0
tri3_1_17_19: t1_17_19 - x17_19 <= 0
tri4_1_17_19: t1_17_19 - x1_17 - x1_19 - x17_19 >= -2
tri1_1_17_20: t1_17_20 - x1_17 <= 0
tri2_1_17_20: t1_17_20 - x1_20 <= 0
tri3_1_17_20: t1_17_20 - x17_20 <= 0
tri4_1_17_20: t1_17_20 - x1_17 - x1_20 - x17_20 >= -2
tri1_1_17_21: t1_17_21 - x1_17 <= 0
tri2_1_17_21: t1_17_21 - x1_21 <= 0
tri3_1_17_21: t1_17_21 - x17_21 <= 0
tri4_1_17_21: t1_17_21 - x1_17 - x1_21 - x17_21 >= -2
tri1_1_17_22: t1_17_22 - x1_17 <= 0
tri2_1_17_22: t1_17_22 - x1_22 <= 0
tri3_1_17_22: t1_17_22 - x17_22 <= 0
tri4_1_17_22: t1_17_22 - x1_17 - x1_22 - x17_22 >= -2
tri1_1_17_23: t1_17_23 - x1_17 <= 0
tri2_1_17_23: t1_17_23 - x1_23 <= 0
tri3_1_17_23: t1_17_23 - x17_23 <= 0
tri4_1_17_23: t1_17_23 - x1_17 - x1_23 - x17_23 >= -2
tri1_1_18_19: t1_18_19 - x1_18 <= 0
tri2_1_18_19: t1_18_19 - x1_19 <= 0
tri3_1_18_19: t1_18_19 - x18_19 <= 0
tri4_1_18_19: t1_18_19 - x1_18 - x1_19 - x18_19 >= -2
tri1_1_18_20: t1_18_20 - x1_18 <= 0
tri2_1_18_20: t1_18_20 - x1_20 <= 0
tri3_1_18_20: t1_18_20 - x18_20 <= 0
tri4_1_18_20: t1_18_20 - x1_18 - x1_20 - x18_20 >= -2
tri1_1_18_21: t1_18_21 - x1_18 <= 0
tri2_1_18_21: t1_18_21 - x1_21 <= 0
tri3_1_18_21: t1_18_21 - x18_21 <= 0
tri4_1_18_21: t1_18_21 - x1_18 - x1_21 - x18_21 >= -2
tri1_1_18_22: t1_18_22 - x1_18 <= 0
tri2_1_18_22: t1_18_22 - x1_22 <= 0
tri3_1_18_22: t1_18_22 - x18_22 <= 0
tri4_1_18_22: t1_18_22 - x1_18 - x1_22 - x18_22 >= -2
tri1_1_18_23: t1_18_23 - x1_18 <= 0
tri2_1_18_23: t1_18_23 - x1_23 <= 0
tri3_1_18_23: t1_18_23 - x18_23 <= 0
tri4_1_18_23: t1_18_23 - x1_18 - x1_23 - x18_23 >= -2
tri1_1_19_20: t1_19_20 - x1_19 <= 0
tri2_1_19_20: t1_19_20 - x1_20 <= 0
tri3_1_19_20: t1_19_20 - x19_20 <= 0
tri4_1_19_20: t1_19_20 - x1_19 - x1_20 - x19_20 >= -2
tri1_1_19_21: t1_19_21 - x1_19 <= 0
tri2_1_19_21: t1_19_21 - x1_21 <= 0
tri3_1_19_21: t1_19_21 - x19_21 <= 0
tri4_1_19_21: t1_19_21 - x1_19 - x1_21 - x19_21 >= -2
tri1_1_19_22: t1_19_22 - x1_19 <= 0
tri2_1_19_22: t1_19_22 - x1_22 <= 0
tri3_1_19_22: t1_19_22 - x19_22 <= 0
tri4_1_19_22: t1_19_22 - x1_19 - x1_22 - x19_22 >= -2
tri1_1_19_23: t1_19_23 - x1_19 <= 0
tri2_1_19_23: t1_19_23 - x1_23 <= 0
tri3_1_19_23: t1_19_23 - x19_23 <= 0
tri4_1_19_23: t1_19_23 - x1_19 - x1_23 - x19_23 >= -2
tri1_1_20_21: t1_20_21 - x1_20 <= 0
tri2_1_20_21: t1_20_21 - x1_21 <= 0
tri3_1_20_21: t1_20_21 - x20_21 <= 0
tri4_1_20_21: t1_20_21 - x1_20 - x1_21 - x20_21 >= -2
tri1_1_20_22: t1_20_22 - x1_20 <= 0
tri2_1_20_22: t1_20_22 - x1_22 <= 0
tri3_1_20_22: t1_20_22 - x20_22 <= 0
tri4_1_20_22: t1_20_22 - x1_20 - x1_22 - x20_22 >= -2
tri1_1_20_23: t1_20_23 - x1_20 <= 0
tri2_1_20_23: t1_20_23 - x1_23 <= 0
tri3_1_20_23: t1_20_23 - x20_23 <= 0
tri4_1_20_23: t1_20_23 - x1_20 - x1_23 - x20_23 >= -2
tri1_1_21_22: t1_21_22 - x1_21 <= 0
tri2_1_21_22: t1_21_22 - x1_22 <= 0
tri3_1_21_22: t1_21_22 - x21_22 <= 0
tri4_1_21_22: t1_21_22 - x1_21 - x1_22 - x21_22 >= -2
tri1_1_21_23: t1_21_23 - x1_21 <= 0
tri2_1_21_23: t1_21_23 - x1_23 <= 0
tri3_1_21_23: t1_21_23 - x21_23 <= 0
tri4_1_21_23: t1_21_23 - x1_21 - x1_23 - x21_23 >= -2
tri1_1_22_23: t1_22_23 - x1_22 <= 0
tri2_1_22_23: t1_22_23 - x1_23 <= 0
tri3_1_22_23: t1_22_23 - x22_23 <= 0
tri4_1_22_23: t1_22_23 - x1_22 - x1_23 - x22_23 >= -2
tri1_2_3_4: t2_3_4 - x2_3 <= 0
tri2_2_3_4: t2_3_4 - x2_4 <= 0
tri3_2_3_4: t2_3_4 - x3_4 <= 0
tri4_2_3_4: t2_3_4 - x2_3 - x2_4 - x3_4 >= -2
tri1_2_3_5: t2_3_5 - x2_3 <= 0
tri2_2_3_5: t2_3_5 - x2_5 <= 0
tri3_2_3_5: t2_3_5 - x3_5 <= 0
tri4_2_3_5: t2_3_5 - x2_3 - x2_5 - x3_5 >= -2
tri1_2_3_6: t2_3_6 - x2_3 <= 0
tri2_2_3_6: t2_3_6 - x2_6 <= 0
tri3_2_3_6: t2_3_6 - x3_6 <= 0
tri4_2_3_6: t2_3_6 - x2_3 - x2_6 - x3_6 >= -2
tri1_2_3_7: t2_3_7 - x2_3 <= 0
tri2_2_3_7: t2_3_7 - x2_7 <= 0
tri3_2_3_7: t2_3_7 - x3_7 <= 0
tri4_2_3_7: t2_3_7 - x2_3 - x2_7 - x3_7 >= -2
tri1_2_3_8: t2_3_8 - x2_3 <= 0
tri2_2_3_8: t2_3_8 - x2_8 <= 0
tri3_2_3_8: t2_3_8 - x3_8 <= 0
tri4_2_3_8: t2_3_8 - x2_3 - x2_8 - x3_8 >= -2
tri1_2_3_9: t2_3_9 - x2_3 <= 0
tri2_2_3_9: t2_3_9 - x2_9 <= 0
tri3_2_3_9: t2_3_9 - x3_9 <= 0
tri4_2_3_9: t2_3_9 - x2_3 - x2_9 - x3_9 >= -2
tri1_2_3_10: t2_3_10 - x2_3 <= 0
tri2_2_3_10: t2_3_10 - x2_10 <= 0
tri3_2_3_10: t2_3_10 - x3_10 <= 0
tri4_2_3_10: t2_3_10 - x2_3 - x2_10 - x3_10 >= -2
tri1_2_3_11: t2_3_11 - x2_3 <= 0
tri2_2_3_11: t2_3_11 - x2_11 <= 0
tri3_2_3_11: t2_3_11 - x3_11 <= 0
tri4_2_3_11: t2_3_11 - x2_3 - x2_11 - x3_11 >= -2
tri1_2_3_12: t2_3_12 - x2_3 <= 0
tri2_2_3_12: t2_3_12 - x2_12 <= 0
tri3_2_3_12: t2_3_12 - x3_12 <= 0
tri4_2_3_12: t2_3_12 - x2_3 - x2_12 - x3_12 >= -2
tri1_2_3_13: t2_3_13 - x2_3 <= 0
tri2_2_3_13: t2_3_13 - x2_13 <= 0
tri3_2_3_13: t2_3_13 - x3_13 <= 0
tri4_2_3_13: t2_3_13 - x2_3 - x2_13 - x3_13 >= -2
tri1_2_3_14: t2_3_14 - x2_3 <= 0
tri2_2_3_14: t2_3_14 - x2_14 <= 0
tri3_2_3_14: t2_3_14 - x3_14 <= 0
tri4_2_3_14: t2_3_14 - x2_3 - x2_14 - x3_14 >= -2
tri1_2_3_15: t2_3_15 - x2_3 <= 0
tri2_2_3_15: t2_3_15 - x2_15 <= 0
tri3_2_3_15: t2_3_15 - x3_15 <= 0
tri4_2_3_15: t2_3_15 - x2_3 - x2_15 - x3_15 >= -2
tri1_2_3_16: t2_3_16 - x2_3 <= 0
tri2_2_3_16: t2_3_16 - x2_16 <= 0
tri3_2_3_16: t2_3_16 - x3_16 <= 0
tri4_2_3_16: t2_3_16 - x2_3 - x2_16 - x3_16 >= -2
tri1_2_3_17: t2_3_17 - x2_3 <= 0
tri2_2_3_17: t2_3_17 - x2_17 <= 0
tri3_2_3_17: t2_3_17 - x3_17 <= 0
tri4_2_3_17: t2_3_17 - x2_3 - x2_17 - x3_17 >= -2
tri1_2_3_18: t2_3_18 - x2_3 <= 0
tri2_2_3_18: t2_3_18 - x2_18 <= 0
tri3_2_3_18: t2_3_18 - x3_18 <= 0
tri4_2_3_18: t2_3_18 - x2_3 - x2_18 - x3_18 >= -2
tri1_2_3_19: t2_3_19 - x2_3 <= 0
tri2_2_3_19: t2_3_19 - x2_19 <= 0
tri3_2_3_19: t2_3_19 - x3_19 <= 0
tri4_2_3_19: t2_3_19 - x2_3 - x2_19 - x3_19 >= -2
tri1_2_3_20: t2_3_20 - x2_3 <= 0
tri2_2_3_20: t2_3_20 - x2_20 <= 0
tri3_2_3_20: t2_3_20 - x3_20 <= 0
tri4_2_3_20: t2_3_20 - x2_3 - x2_20 - x3_20 >= -2
tri1_2_3_21: t2_3_21 - x2_3 <= 0
tri2_2_3_21: t2_3_21 - x2_21 <= 0
tri3_2_3_21: t2_3_21 - x3_21 <= 0
tri4_2_3_21: t2_3_21 - x2_3 - x2_21 - x3_21 >= -2
tri1_2_3_22: t2_3_22 - x2_3 <= 0
tri2_2_3_22: t2_3_22 - x2_22 <= 0
tri3_2_3_22: t2_3_22 - x3_22 <= 0
tri4_2_3_22: t2_3_22 - x2_3 - x2_22 - x3_22 >= -2
tri1_2_3_23: t2_3_23 - x2_3 <= 0
tri2_2_3_23: t2_3_23 - x2_23 <= 0
tri3_2_3_23: t2_3_23 - x3_23 <= 0
tri4_2_3_23: t2_3_23 - x2_3 - x2_23 - x3_23 >= -2
tri1_2_4_5: t2_4_5 - x2_4 <= 0
tri2_2_4_5: t2_4_5 - x2_5 <= 0
tri3_2_4_5: t2_4_5 - x4_5 <= 0
tri4_2_4_5: t2_4_5 - x2_4 - x2_5 - x4_5 >= -2
tri1_2_4_6: t2_4_6 - x2_4 <= 0
tri2_2_4_6: t2_4_6 - x2_6 <= 0
tri3_2_4_6: t2_4_6 - x4_6 <= 0
tri4_2_4_6: t2_4_6 - x2_4 - x2_6 - x4_6 >= -2
tri1_2_4_7: t2_4_7 - x2_4 <= 0
tri2_2_4_7: t2_4_7 - x2_7 <= 0
tri3_2_4_7: t2_4_7 - x4_7 <= 0
tri4_2_4_7: t2_4_7 - x2_4 - x2_7 - x4_7 >= -2
tri1_2_4_8: t2_4_8 - x2_4 <= 0
tri2_2_4_8: t2_4_8 - x2_8 <= 0
tri3_2_4_8: t2_4_8 - x4_8 <= 0
tri4_2_4_8: t2_4_8 - x2_4 - x2_8 - x4_8 >= -2
tri1_2_4_9: t2_4_9 - x2_4 <= 0
tri2_2_4_9: t2_4_9 - x2_9 <= 0
tri3_2_4_9: t2_4_9 - x4_9 <= 0
tri4_2_4_9: t2_4_9 - x2_4 - x2_9 - x4_9 >= -2
tri1_2_4_10: t2_4_10 - x2_4 <= 0
tri2_2_4_10: t2_4_10 - x2_10 <= 0
tri3_2_4_10: t2_4_10 - x4_10 <= 0
tri4_2_4_10: t2_4_10 - x2_4 - x2_10 - x4_10 >= -2
tri1_2_4_11: t2_4_11 - x2_4 <= 0
tri2_2_4_11: t2_4_11 - x2_11 <= 0
tri3_2_4_11: t2_4_11 - x4_11 <= 0
tri4_2_4_11: t2_4_11 - x2_4 - x2_11 - x4_11 >= -2
tri1_2_4_12: t2_4_12 - x2_4 <= 0
tri2_2_4_12: t2_4_12 - x2_12 <= 0
tri3_2_4_12: t2_4_12 - x4_12 <= 0
tri4_2_4_12: t2_4_12 - x2_4 - x2_12 - x4_12 >= -2
tri1_2_4_13: t2_4_13 - x2_4 <= 0
tri2_2_4_13: t2_4_13 - x2_13 <= 0
tri3_2_4_13: t2_4_13 - x4_13 <= 0
tri4_2_4_13: t2_4_13 - x2_4 - x2_13 - x4_13 >= -2
tri1_2_4_14: t2_4_14 - x2_4 <= 0
tri2_2_4_14: t2_4_14 - x2_14 <= 0
tri3_2_4_14: t2_4_14 - x4_14 <= 0
tri4_2_4_14: t2_4_14 - x2_4 - x2_14 - x4_14 >= -2
tri1_2_4_15: t2_4_15 - x2_4 <= 0
tri2_2_4_15: t2_4_15 - x2_15 <= 0
tri3_2_4_15: t2_4_15 - x4_15 <= 0
tri4_2_4_15: t2_4_15 - x2_4 - x2_15 - x4_15 >= -2
tri1_2_4_16: t2_4_16 - x2_4 <= 0
tri2_2_4_16: t2_4_16 - x2_16 <= 0
tri3_2_4_16: t2_4_16 - x4_16 <= 0
tri4_2_4_16: t2_4_16 - x2_4 - x2_16 - x4_16 >= -2
tri1_2_4_17: t2_4_17 - x2_4 <= 0
tri2_2_4_17: t2_4_17 - x2_17 <= 0
tri3_2_4_17: t2_4_17 - x4_17 <= 0
tri4_2_4_17: t2_4_17 - x2_4 - x2_17 - x4_17 >= -2
tri1_2_4_18: t2_4_18 - x2_4 <= 0
tri2_2_4_18: t2_4_18 - x2_18 <= 0
tri3_2_4_18: t2_4_18 - x4_18 <= 0
tri4_2_4_18: t2_4_18 - x2_4 - x2_18 - x4_18 >= -2
tri1_2_4_19: t2_4_19 - x2_4 <= 0
tri2_2_4_19: t2_4_19 - x2_19 <= 0
tri3_2_4_19: t2_4_19 - x4_19 <= 0
tri4_2_4_19: t2_4_19 - x2_4 - x2_19 - x4_19 >= -2
tri1_2_4_20: t2_4_20 - x2_4 <= 0
tri2_2_4_20: t2_4_20 - x2_20 <= 0
tri3_2_4_20: t2_4_20 - x4_20 <= 0
tri4_2_4_20: t2_4_20 - x2_4 - x2_20 - x4_20 >= -2
tri1_2_4_21: t2_4_21 - x2_4 <= 0
tri2_2_4_21: t2_4_21 - x2_21 <= 0
tri3_2_4_21: t2_4_21 - x4_21 <= 0
tri4_2_4_21: t2_4_21 - x2_4 - x2_21 - x4_21 >= -2
tri1_2_4_22: t2_4_22 - x2_4 <= 0
tri2_2_4_22: t2_4_22 - x2_22 <= 0
tri3_2_4_22: t2_4_22 - x4_22 <= 0
tri4_2_4_22: t2_4_22 - x2_4 - x2_22 - x4_22 >= -2
tri1_2_4_23: t2_4_23 - x2_4 <= 0
tri2_2_4_23: t2_4_23 - x2_23 <= 0
tri3_2_4_23: t2_4_23 - x4_23 <= 0
tri4_2_4_23: t2_4_23 - x2_4 - x2_23 - x4_23 >= -2
tri1_2_5_6: t2_5_6 - x2_5 <= 0
tri2_2_5_6: t2_5_6 - x2_6 <= 0
tri3_2_5_6: t2_5_6 - x5_6 <= 0
tri4_2_5_6: t2_5_6 - x2_5 - x2_6 - x5_6 >= -2
tri1_2_5_7: t2_5_7 - x2_5 <= 0
tri2_2_5_7: t2_5_7 - x2_7 <= 0
tri3_2_5_7: t2_5_7 - x5_7 <= 0
tri4_2_5_7: t2_5_7 - x2_5 - x2_7 - x5_7 >= -2
tri1_2_5_8: t2_5_8 - x2_5 <= 0
tri2_2_5_8: t2_5_8 - x2_8 <= 0
tri3_2_5_8: t2_5_8 - x5_8 <= 0
tri4_2_5_8: t2_5_8 - x2_5 - x2_8 - x5_8 >= -2
tri1_2_5_9: t2_5_9 - x2_5 <= 0
tri2_2_5_9: t2_5_9 - x2_9 <= 0
tri3_2_5_9: t2_5_9 - x5_9 <= 0
tri4_2_5_9: t2_5_9 - x2_5 - x2_9 - x5_9 >= -2
tri1_2_5_10: t2_5_10 - x2_5 <= 0
tri2_2_5_10: t2_5_10 - x2_10 <= 0
tri3_2_5_10: t2_5_10 - x5_10 <= 0
tri4_2_5_10: t2_5_10 - x2_5 - x2_10 - x5_10 >= -2
tri1_2_5_11: t2_5_11 - x2_5 <= 0
tri2_2_5_11: t2_5_11 - x2_11 <= 0
tri3_2_5_11: t2_5_11 - x5_11 <= 0
tri4_2_5_11: t2_5_11 - x2_5 - x2_11 - x5_11 >= -2
tri1_2_5_12: t2_5_12 - x2_5 <= 0
tri2_2_5_12: t2_5_12 - x2_12 <= 0
tri3_2_5_12: t2_5_12 - x5_12 <= 0
tri4_2_5_12: t2_5_12 - x2_5 - x2_12 - x5_12 >= -2
tri1_2_5_13: t2_5_13 - x2_5 <= 0
tri2_2_5_13: t2_5_13 - x2_13 <= 0
tri3_2_5_13: t2_5_13 - x5_13 <= 0
tri4_2_5_13: t2_5_13 - x2_5 - x2_13 - x5_13 >= -2
tri1_2_5_14: t2_5_14 - x2_5 <= 0
tri2_2_5_14: t2_5_14 - x2_14 <= 0
tri3_2_5_14: t2_5_14 - x5_14 <= 0
tri4_2_5_14: t2_5_14 - x2_5 - x2_14 - x5_14 >= -2
tri1_2_5_15: t2_5_15 - x2_5 <= 0
tri2_2_5_15: t2_5_15 - x2_15 <= 0
tri3_2_5_15: t2_5_15 - x5_15 <= 0
tri4_2_5_15: t2_5_15 - x2_5 - x2_15 - x5_15 >= -2
tri1_2_5_16: t2_5_16 - x2_5 <= 0
tri2_2_5_16: t2_5_16 - x2_16 <= 0
tri3_2_5_16: t2_5_16 - x5_16 <= 0
tri4_2_5_16: t2_5_16 - x2_5 - x2_16 - x5_16 >= -2
tri1_2_5_17: t2_5_17 - x2_5 <= 0
tri2_2_5_17: t2_5_17 - x2_17 <= 0
tri3_2_5_17: t2_5_17 - x5_17 <= 0
tri4_2_5_17: t2_5_17 - x2_5 - x2_17 - x5_17 >= -2
tri1_2_5_18: t2_5_18 - x2_5 <= 0
tri2_2_5_18: t2_5_18 - x2_18 <= 0
tri3_2_5_18: t2_5_18 - x5_18 <= 0
tri4_2_5_18: t2_5_18 - x2_5 - x2_18 - x5_18 >= -2
tri1_2_5_19: t2_5_19 - x2_5 <= 0
tri2_2_5_19: t2_5_19 - x2_19 <= 0
tri3_2_5_19: t2_5_19 - x5_19 <= 0
tri4_2_5_19: t2_5_19 - x2_5 - x2_19 - x5_19 >= -2
tri1_2_5_20: t2_5_20 - x2_5 <= 0
tri2_2_5_20: t2_5_20 - x2_20 <= 0
tri3_2_5_20: t2_5_20 - x5_20 <= 0
tri4_2_5_20: t2_5_20 - x2_5 - x2_20 - x5_20 >= -2
tri1_2_5_21: t2_5_21 - x2_5 <= 0
tri2_2_5_21: t2_5_21 - x2_21 <= 0
tri3_2_5_21: t2_5_21 - x5_21 <= 0
tri4_2_5_21: t2_5_21 - x2_5 - x2_21 - x5_21 >= -2
tri1_2_5_22: t2_5_22 - x2_5 <= 0
tri2_2_5_22: t2_5_22 - x2_22 <= 0
tri3_2_5_22: t2_5_22 - x5_22 <= 0
tri4_2_5_22: t2_5_22 - x2_5 - x2_22 - x5_22 >= -2
tri1_2_5_23: t2_5_23 - x2_5 <= 0
tri2_2_5_23: t2_5_23 - x2_23 <= 0
tri3_2_5_23: t2_5_23 - x5_23 <= 0
tri4_2_5_23: t2_5_23 - x2_5 - x2_23 - x5_23 >= -2
tri1_2_6_7: t2_6_7 - x2_6 <= 0
tri2_2_6_7: t2_6_7 - x2_7 <= 0
tri3_2_6_7: t2_6_7 - x6_7 <= 0
tri4_2_6_7: t2_6_7 - x2_6 - x2_7 - x6_7 >= -2
tri1_2_6_8: t2_6_8 - x2_6 <= 0
tri2_2_6_8: t2_6_8 - x2_8 <= 0
tri3_2_6_8: t2_6_8 - x6_8 <= 0
tri4_2_6_8: t2_6_8 - x2_6 - x2_8 - x6_8 >= -2
tri1_2_6_9: t2_6_9 - x2_6 <= 0
tri2_2_6_9: t2_6_9 - x2_9 <= 0
tri3_2_6_9: t2_6_9 - x6_9 <= 0
tri4_2_6_9: t2_6_9 - x2_6 - x2_9 - x6_9 >= -2
tri1_2_6_10: t2_6_10 - x2_6 <= 0
tri2_2_6_10: t2_6_10 - x2_10 <= 0
tri3_2_6_10: t2_6_10 - x6_10 <= 0
tri4_2_6_10: t2_6_10 - x2_6 - x2_10 - x6_10 >= -2
tri1_2_6_11: t2_6_11 - x2_6 <= 0
tri2_2_6_11: t2_6_11 - x2_11 <= 0
tri3_2_6_11: t2_6_11 - x6_11 <= 0
tri4_2_6_11: t2_6_11 - x2_6 - x2_11 - x6_11 >= -2
tri1_2_6_12: t2_6_12 - x2_6 <= 0
tri2_2_6_12: t2_6_12 - x2_12 <= 0
tri3_2_6_12: t2_6_12 - x6_12 <= 0
tri4_2_6_12: t2_6_12 - x2_6 - x2_12 - x6_12 >= -2
tri1_2_6_13: t2_6_13 - x2_6 <= 0
tri2_2_6_13: t2_6_13 - x2_13 <= 0
tri3_2_6_13: t2_6_13 - x6_13 <= 0
tri4_2_6_13: t2_6_13 - x2_6 - x2_13 - x6_13 >= -2
tri1_2_6_14: t2_6_14 - x2_6 <= 0
tri2_2_6_14: t2_6_14 - x2_14 <= 0
tri3_2_6_14: t2_6_14 - x6_14 <= 0
tri4_2_6_14: t2_6_14 - x2_6 - x2_14 - x6_14 >= -2
tri1_2_6_15: t2_6_15 - x2_6 <= 0
tri2_2_6_15: t2_6_15 - x2_15 <= 0
tri3_2_6_15: t2_6_15 - x6_15 <= 0
tri4_2_6_15: t2_6_15 - x2_6 - x2_15 - x6_15 >= -2
tri1_2_6_16: t2_6_16 - x2_6 <= 0
tri2_2_6_16: t2_6_16 - x2_16 <= 0
tri3_2_6_16: t2_6_16 - x6_16 <= 0
tri4_2_6_16: t2_6_16 - x2_6 - x2_16 - x6_16 >= -2
tri1_2_6_17: t2_6_17 - x2_6 <= 0
tri2_2_6_17: t2_6_17 - x2_17 <= 0
tri3_2_6_17: t2_6_17 - x6_17 <= 0
tri4_2_6_17: t2_6_17 - x2_6 - x2_17 - x6_17 >= -2
tri1_2_6_18: t2_6_18 - x2_6 <= 0
tri2_2_6_18: t2_6_18 - x2_18 <= 0
tri3_2_6_18: t2_6_18 - x6_18 <= 0
tri4_2_6_18: t2_6_18 - x2_6 - x2_18 - x6_18 >= -2
tri1_2_6_19: t2_6_19 - x2_6 <= 0
tri2_2_6_19: t2_6_19 - x2_19 <= 0
tri3_2_6_19: t2_6_19 - x6_19 <= 0
tri4_2_6_19: t2_6_19 - x2_6 - x2_19 - x6_19 >= -2
tri1_2_6_20: t2_6_20 - x2_6 <= 0
tri2_2_6_20: t2_6_20 - x2_20 <= 0
tri3_2_6_20: t2_6_20 - x6_20 <= 0
tri4_2_6_20: t2_6_20 - x2_6 - x2_20 - x6_20 >= -2
tri1_2_6_21: t2_6_21 - x2_6 <= 0
tri2_2_6_21: t2_6_21 - x2_21 <= 0
tri3_2_6_21: t2_6_21 - x6_21 <= 0
tri4_2_6_21: t2_6_21 - x2_6 - x2_21 - x6_21 >= -2
tri1_2_6_22: t2_6_22 - x2_6 <= 0
tri2_2_6_22: t2_6_22 - x2_22 <= 0
tri3_2_6_22: t2_6_22 - x6_22 <= 0
tri4_2_6_22: t2_6_22 - x2_6 - x2_22 - x6_22 >= -2
tri1_2_6_23: t2_6_23 - x2_6 <= 0
tri2_2_6_23: t2_6_23 - x2_23 <= 0
tri3_2_6_23: t2_6_23 - x6_23 <= 0
tri4_2_6_23: t2_6_23 - x2_6 - x2_23 - x6_23 >= -2
tri1_2_7_8: t2_7_8 - x2_7 <= 0
tri2_2_7_8: t2_7_8 - x2_8 <= 0
tri3_2_7_8: t2_7_8 - x7_8 <= 0
tri4_2_7_8: t2_7_8 - x2_7 - x2_8 - x7_8 >= -2
tri1_2_7_9: t2_7_9 - x2_7 <= 0
tri2_2_7_9: t2_7_9 - x2_9 <= 0
tri3_2_7_9: t2_7_9 - x7_9 <= 0
tri4_2_7_9: t2_7_9 - x2_7 - x2_9 - x7_9 >= -2
tri1_2_7_10: t2_7_10 - x2_7 <= 0
tri2_2_7_10: t2_7_10 - x2_10 <= 0
tri3_2_7_10: t2_7_10 - x7_10 <= 0
tri4_2_7_10: t2_7_10 - x2_7 - x2_10 - x7_10 >= -2
tri1_2_7_11: t2_7_11 - x2_7 <= 0
tri2_2_7_11: t2_7_11 - x2_11 <= 0
tri3_2_7_11: t2_7_11 - x7_11 <= 0
tri4_2_7_11: t2_7_11 - x2_7 - x2_11 - x7_11 >= -2
tri1_2_7_12: t2_7_12 - x2_7 <= 0
tri2_2_7_12: t2_7_12 - x2_12 <= 0
tri3_2_7_12: t2_7_12 - x7_12 <= 0
tri4_2_7_12: t2_7_12 - x2_7 - x2_12 - x7_12 >= -2
tri1_2_7_13: t2_7_13 - x2_7 <= 0
tri2_2_7_13: t2_7_13 - x2_13 <= 0
tri3_2_7_13: t2_7_13 - x7_13 <= 0
tri4_2_7_13: t2_7_13 - x2_7 - x2_13 - x7_13 >= -2
tri1_2_7_14: t2_7_14 - x2_7 <= 0
tri2_2_7_14: t2_7_14 - x2_14 <= 0
tri3_2_7_14: t2_7_14 - x7_14 <= 0
tri4_2_7_14: t2_7_14 - x2_7 - x2_14 - x7_14 >= -2
tri1_2_7_15: t2_7_15 - x2_7 <= 0
tri2_2_7_15: t2_7_15 - x2_15 <= 0
tri3_2_7_15: t2_7_15 - x7_15 <= 0
tri4_2_7_15: t2_7_15 - x2_7 - x2_15 - x7_15 >= -2
tri1_2_7_16: t2_7_16 - x2_7 <= 0
tri2_2_7_16: t2_7_16 - x2_16 <= 0
tri3_2_7_16: t2_7_16 - x7_16 <= 0
tri4_2_7_16: t2_7_16 - x2_7 - x2_16 - x7_16 >= -2
tri1_2_7_17: t2_7_17 - x2_7 <= 0
tri2_2_7_17: t2_7_17 - x2_17 <= 0
tri3_2_7_17: t2_7_17 - x7_17 <= 0
tri4_2_7_17: t2_7_17 - x2_7 - x2_17 - x7_17 >= -2
tri1_2_7_18: t2_7_18 - x2_7 <= 0
tri2_2_7_18: t2_7_18 - x2_18 <= 0
tri3_2_7_18: t2_7_18 - x7_18 <= 0
tri4_2_7_18: t2_7_18 - x2_7 - x2_18 - x7_18 >= -2
tri1_2_7_19: t2_7_19 - x2_7 <= 0
tri2_2_7_19: t2_7_19 - x2_19 <= 0
tri3_2_7_19: t2_7_19 - x7_19 <= 0
tri4_2_7_19: t2_7_19 - x2_7 - x2_19 - x7_19 >= -2
tri1_2_7_20: t2_7_20 - x2_7 <= 0
tri2_2_7_20: t2_7_20 - x2_20 <= 0
tri3_2_7_20: t2_7_20 - x7_20 <= 0
tri4_2_7_20: t2_7_20 - x2_7 - x2_20 - x7_20 >= -2
tri1_2_7_21: t2_7_21 - x2_7 <= 0
tri2_2_7_21: t2_7_21 - x2_21 <= 0
tri3_2_7_21: t2_7_21 - x7_21 <= 0
tri4_2_7_21: t2_7_21 - x2_7 - x2_21 - x7_21 >= -2
tri1_2_7_22: t2_7_22 - x2_7 <= 0
tri2_2_7_22: t2_7_22 - x2_22 <= 0
tri3_2_7_22: t2_7_22 - x7_22 <= 0
tri4_2_7_22: t2_7_22 - x2_7 - x2_22 - x7_22 >= -2
tri1_2_7_23: t2_7_23 - x2_7 <= 0
tri2_2_7_23: t2_7_23 - x2_23 <= 0
tri3_2_7_23: t2_7_23 - x7_23 <= 0
tri4_2_7_23: t2_7_23 - x2_7 - x2_23 - x7_23 >= -2
tri1_2_8_9: t2_8_9 - x2_8 <= 0
tri2_2_8_9: t2_8_9 - x2_9 <= 0
tri3_2_8_9: t2_8_9 - x8_9 <= 0
tri4_2_8_9: t2_8_9 - x2_8 - x2_9 - x8_9 >= -2
tri1_2_8_10: t2_8_10 - x2_8 <= 0
tri2_2_8_10: t2_8_10 - x2_10 <= 0
tri3_2_8_10: t2_8_10 - x8_10 <= 0
tri4_2_8_10: t2_8_10 - x2_8 - x2_10 - x8_10 >= -2
tri1_2_8_11: t2_8_11 - x2_8 <= 0
tri2_2_8_11: t2_8_11 - x2_11 <= 0
tri3_2_8_11: t2_8_11 - x8_11 <= 0
tri4_2_8_11: t2_8_11 - x2_8 - x2_11 - x8_11 >= -2
tri1_2_8_12: t2_8_12 - x2_8 <= 0
tri2_2_8_12: t2_8_12 - x2_12 <= 0
tri3_2_8_12: t2_8_12 - x8_12 <= 0
tri4_2_8_12: t2_8_12 - x2_8 - x2_12 - x8_12 >= -2
tri1_2_8_13: t2_8_13 - x2_8 <= 0
tri2_2_8_13: t2_8_13 - x2_13 <= 0
tri3_2_8_13: t2_8_13 - x8_13 <= 0
tri4_2_8_13: t2_8_13 - x2_8 - x2_13 - x8_13 >= -2
tri1_2_8_14: t2_8_14 - x2_8 <= 0
tri2_2_8_14: t2_8_14 - x2_14 <= 0
tri3_2_8_14: t2_8_14 - x8_14 <= 0
tri4_2_8_14: t2_8_14 - x2_8 - x2_14 - x8_14 >= -2
tri1_2_8_15: t2_8_15 - x2_8 <= 0
tri2_2_8_15: t2_8_15 - x2_15 <= 0
tri3_2_8_15: t2_8_15 - x8_15 <= 0
tri4_2_8_15: t2_8_15 - x2_8 - x2_15 - x8_15 >= -2
tri1_2_8_16: t2_8_16 - x2_8 <= 0
tri2_2_8_16: t2_8_16 - x2_16 <= 0
tri3_2_8_16: t2_8_16 - x8_16 <= 0
tri4_2_8_16: t2_8_16 - x2_8 - x2_16 - x8_16 >= -2
tri1_2_8_17: t2_8_17 - x2_8 <= 0
tri2_2_8_17: t2_8_17 - x2_17 <= 0
tri3_2_8_17: t2_8_17 - x8_17 <= 0
tri4_2_8_17: t2_8_17 - x2_8 - x2_17 - x8_17 >= -2
tri1_2_8_18: t2_8_18 - x2_8 <= 0
tri2_2_8_18: t2_8_18 - x2_18 <= 0
tri3_2_8_18: t2_8_18 - x8_18 <= 0
tri4_2_8_18: t2_8_18 - x2_8 - x2_18 - x8_18 >= -2
tri1_2_8_19: t2_8_19 - x2_8 <= 0
tri2_2_8_19: t2_8_19 - x2_19 <= 0
tri3_2_8_19: t2_8_19 - x8_19 <= 0
tri4_2_8_19: t2_8_19 - x2_8 - x2_19 - x8_19 >= -2
tri1_2_8_20: t2_8_20 - x2_8 <= 0
tri2_2_8_20: t2_8_20 - x2_20 <= 0
tri3_2_8_20: t2_8_20 - x8_20 <= 0
tri4_2_8_20: t2_8_20 - x2_8 - x2_20 - x8_20 >= -2
tri1_2_8_21: t2_8_21 - x2_8 <= 0
tri2_2_8_21: t2_8_21 - x2_21 <= 0
tri3_2_8_21: t2_8_21 - x8_21 <= 0
tri4_2_8_21: t2_8_21 - x2_8 - x2_21 - x8_21 >= -2
tri1_2_8_22: t2_8_22 - x2_8 <= 0
tri2_2_8_22: t2_8_22 - x2_22 <= 0
tri3_2_8_22: t2_8_22 - x8_22 <= 0
tri4_2_8_22: t2_8_22 - x2_8 - x2_22 - x8_22 >= -2
tri1_2_8_23: t2_8_23 - x2_8 <= 0
tri2_2_8_23: t2_8_23 - x2_23 <= 0
tri3_2_8_23: t2_8_23 - x8_23 <= 0
tri4_2_8_23: t2_8_23 - x2_8 - x2_23 - x8_23 >= -2
tri1_2_9_10: t2_9_10 - x2_9 <= 0
tri2_2_9_10: t2_9_10 - x2_10 <= 0
tri3_2_9_10: t2_9_10 - x9_10 <= 0
tri4_2_9_10: t2_9_10 - x2_9 - x2_10 - x9_10 >= -2
tri1_2_9_11: t2_9_11 - x2_9 <= 0
tri2_2_9_11: t2_9_11 - x2_11 <= 0
tri3_2_9_11: t2_9_11 - x9_11 <= 0
tri4_2_9_11: t2_9_11 - x2_9 - x2_11 - x9_11 >= -2
tri1_2_9_12: t2_9_12 - x2_9 <= 0
tri2_2_9_12: t2_9_12 - x2_12 <= 0
tri3_2_9_12: t2_9_12 - x9_12 <= 0
tri4_2_9_12: t2_9_12 - x2_9 - x2_12 - x9_12 >= -2
tri1_2_9_13: t2_9_13 - x2_9 <= 0
tri2_2_9_13: t2_9_13 - x2_13 <= 0
tri3_2_9_13: t2_9_13 - x9_13 <= 0
tri4_2_9_13: t2_9_13 - x2_9 - x2_13 - x9_13 >= -2
tri1_2_9_14: t2_9_14 - x2_9 <= 0
tri2_2_9_14: t2_9_14 - x2_14 <= 0
tri3_2_9_14: t2_9_14 - x9_14 <= 0
tri4_2_9_14: t2_9_14 - x2_9 - x2_14 - x9_14 >= -2
tri1_2_9_15: t2_9_15 - x2_9 <= 0
tri2_2_9_15: t2_9_15 - x2_15 <= 0
tri3_2_9_15: t2_9_15 - x9_15 <= 0
tri4_2_9_15: t2_9_15 - x2_9 - x2_15 - x9_15 >= -2
tri1_2_9_16: t2_9_16 - x2_9 <= 0
tri2_2_9_16: t2_9_16 - x2_16 <= 0
tri3_2_9_16: t2_9_16 - x9_16 <= 0
tri4_2_9_16: t2_9_16 - x2_9 - x2_16 - x9_16 >= -2
tri1_2_9_17: t2_9_17 - x2_9 <= 0
tri2_2_9_17: t2_9_17 - x2_17 <= 0
tri3_2_9_17: t2_9_17 - x9_17 <= 0
tri4_2_9_17: t2_9_17 - x2_9 - x2_17 - x9_17 >= -2
tri1_2_9_18: t2_9_18 - x2_9 <= 0
tri2_2_9_18: t2_9_18 - x2_18 <= 0
tri3_2_9_18: t2_9_18 - x9_18 <= 0
tri4_2_9_18: t2_9_18 - x2_9 - x2_18 - x9_18 >= -2
tri1_2_9_19: t2_9_19 - x2_9 <= 0
tri2_2_9_19: t2_9_19 - x2_19 <= 0
tri3_2_9_19: t2_9_19 - x9_19 <= 0
tri4_2_9_19: t2_9_19 - x2_9 - x2_19 - x9_19 >= -2
tri1_2_9_20: t2_9_20 - x2_9 <= 0
tri2_2_9_20: t2_9_20 - x2_20 <= 0
tri3_2_9_20: t2_9_20 - x9_20 <= 0
tri4_2_9_20: t2_9_20 - x2_9 - x2_20 - x9_20 >= -2
tri1_2_9_21: t2_9_21 - x2_9 <= 0
tri2_2_9_21: t2_9_21 - x2_21 <= 0
tri3_2_9_21: t2_9_21 - x9_21 <= 0
tri4_2_9_21: t2_9_21 - x2_9 - x2_21 - x9_21 >= -2
tri1_2_9_22: t2_9_22 - x2_9 <= 0
tri2_2_9_22: t2_9_22 - x2_22 <= 0
tri3_2_9_22: t2_9_22 - x9_22 <= 0
tri4_2_9_22: t2_9_22 - x2_9 - x2_22 - x9_22 >= -2
tri1_2_9_23: t2_9_23 - x2_9 <= 0
tri2_2_9_23: t2_9_23 - x2_23 <= 0
tri3_2_9_23: t2_9_23 - x9_23 <= 0
tri4_2_9_23: t2_9_23 - x2_9 - x2_23 - x9_23 >= -2
tri1_2_10_11: t2_10_11 - x2_10 <= 0
tri2_2_10_11: t2_10_11 - x2_11 <= 0
tri3_2_10_11: t2_10_11 - x10_11 <= 0
tri4_2_10_11: t2_10_11 - x2_10 - x2_11 - x10_11 >= -2
tri1_2_10_12: t2_10_12 - x2_10 <= 0
tri2_2_10_12: t2_10_12 - x2_12 <= 0
tri3_2_10_12: t2_10_12 - x10_12 <= 0
tri4_2_10_12: t2_10_12 - x2_10 - x2_12 - x10_12 >= -2
tri1_2_10_13: t2_10_13 - x2_10 <= 0
tri2_2_10_13: t2_10_13 - x2_13 <= 0
tri3_2_10_13: t2_10_13 - x10_13 <= 0
tri4_2_10_13: t2_10_13 - x2_10 - x2_13 - x10_13 >= -2
tri1_2_10_14: t2_10_14 - x2_10 <= 0
tri2_2_10_14: t2_10_14 - x2_14 <= 0
tri3_2_10_14: t2_10_14 - x10_14 <= 0
tri4_2_10_14: t2_10_14 - x2_10 - x2_14 - x10_14 >= -2
tri1_2_10_15: t2_10_15 - x2_10 <= 0
tri2_2_10_15: t2_10_15 - x2_15 <= 0
tri3_2_10_15: t2_10_15 - x10_15 <= 0
tri4_2_10_15: t2_10_15 - x2_10 - x2_15 - x10_15 >= -2
tri1_2_10_16: t2_10_16 - x2_10 <= 0
tri2_2_10_16: t2_10_16 - x2_16 <= 0
tri3_2_10_16: t2_10_16 - x10_16 <= 0
tri4_2_10_16: t2_10_16 - x2_10 - x2_16 - x10_16 >= -2
tri1_2_10_17: t2_10_17 - x2_10 <= 0
tri2_2_10_17: t2_10_17 - x2_17 <= 0
tri3_2_10_17: t2_10_17 - x10_17 <= 0
tri4_2_10_17: t2_10_17 - x2_10 - x2_17 - x10_17 >= -2
tri1_2_10_18: t2_10_18 - x2_10 <= 0
tri2_2_10_18: t2_10_18 - x2_18 <= 0
tri3_2_10_18: t2_10_18 - x10_18 <= 0
tri4_2_10_18: t2_10_18 - x2_10 - x2_18 - x10_18 >= -2
tri1_2_10_19: t2_10_19 - x2_10 <= 0
tri2_2_10_19: t2_10_19 - x2_19 <= 0
tri3_2_10_19: t2_10_19 - x10_19 <= 0
tri4_2_10_19: t2_10_19 - x2_10 - x2_19 - x10_19 >= -2
tri1_2_10_20: t2_10_20 - x2_10 <= 0
tri2_2_10_20: t2_10_20 - x2_20 <= 0
tri3_2_10_20: t2_10_20 - x10_20 <= 0
tri4_2_10_20: t2_10_20 - x2_10 - x2_20 - x10_20 >= -2
tri1_2_10_21: t2_10_21 - x2_10 <= 0
tri2_2_10_21: t2_10_21 - x2_21 <= 0
tri3_2_10_21: t2_10_21 - x10_21 <= 0
tri4_2_10_21: t2_10_21 - x2_10 - x2_21 - x10_21 >= -2
tri1_2_10_22: t2_10_22 - x2_10 <= 0
tri2_2_10_22: t2_10_22 - x2_22 <= 0
tri3_2_10_22: t2_10_22 - x10_22 <= 0
tri4_2_10_22: t2_10_22 - x2_10 - x2_22 - x10_22 >= -2
tri1_2_10_23: t2_10_23 - x2_10 <= 0
tri2_2_10_23: t2_10_23 - x2_23 <= 0
tri3_2_10_23: t2_10_23 - x10_23 <= 0
tri4_2_10_23: t2_10_23 - x2_10 - x2_23 - x10_23 >= -2
tri1_2_11_12: t2_11_12 - x2_11 <= 0
tri2_2_11_12: t2_11_12 - x2_12 <= 0
tri3_2_11_12: t2_11_12 - x11_12 <= 0
tri4_2_11_12: t2_11_12 - x2_11 - x2_12 - x11_12 >= -2
tri1_2_11_13: t2_11_13 - x2_11 <= 0
tri2_2_11_13: t2_11_13 - x2_13 <= 0
tri3_2_11_13: t2_11_13 - x11_13 <= 0
tri4_2_11_13: t2_11_13 - x2_11 - x2_13 - x11_13 >= -2
tri1_2_11_14: t2_11_14 - x2_11 <= 0
tri2_2_11_14: t2_11_14 - x2_14 <= 0
tri3_2_11_14: t2_11_14 - x11_14 <= 0
tri4_2_11_14: t2_11_14 - x2_11 - x2_14 - x11_14 >= -2
tri1_2_11_15: t2_11_15 - x2_11 <= 0
tri2_2_11_15: t2_11_15 - x2_15 <= 0
tri3_2_11_15: t2_11_15 - x11_15 <= 0
tri4_2_11_15: t2_11_15 - x2_11 - x2_15 - x11_15 >= -2
tri1_2_11_16: t2_11_16 - x2_11 <= 0
tri2_2_11_16: t2_11_16 - x2_16 <= 0
tri3_2_11_16: t2_11_16 - x11_16 <= 0
tri4_2_11_16: t2_11_16 - x2_11 - x2_16 - x11_16 >= -2
tri1_2_11_17: t2_11_17 - x2_11 <= 0
tri2_2_11_17: t2_11_17 - x2_17 <= 0
tri3_2_11_17: t2_11_17 - x11_17 <= 0
tri4_2_11_17: t2_11_17 - x2_11 - x2_17 - x11_17 >= -2
tri1_2_11_18: t2_11_18 - x2_11 <= 0
tri2_2_11_18: t2_11_18 - x2_18 <= 0
tri3_2_11_18: t2_11_18 - x11_18 <= 0
tri4_2_11_18: t2_11_18 - x2_11 - x2_18 - x11_18 >= -2
tri1_2_11_19: t2_11_19 - x2_11 <= 0
tri2_2_11_19: t2_11_19 - x2_19 <= 0
tri3_2_11_19: t2_11_19 - x11_19 <= 0
tri4_2_11_19: t2_11_19 - x2_11 - x2_19 - x11_19 >= -2
tri1_2_11_20: t2_11_20 - x2_11 <= 0
tri2_2_11_20: t2_11_20 - x2_20 <= 0
tri3_2_11_20: t2_11_20 - x11_20 <= 0
tri4_2_11_20: t2_11_20 - x2_11 - x2_20 - x11_20 >= -2
tri1_2_11_21: t2_11_21 - x2_11 <= 0
tri2_2_11_21: t2_11_21 - x2_21 <= 0
tri3_2_11_21: t2_11_21 - x11_21 <= 0
tri4_2_11_21: t2_11_21 - x2_11 - x2_21 - x11_21 >= -2
tri1_2_11_22: t2_11_22 - x2_11 <= 0
tri2_2_11_22: t2_11_22 - x2_22 <= 0
tri3_2_11_22: t2_11_22 - x11_22 <= 0
tri4_2_11_22: t2_11_22 - x2_11 - x2_22 - x11_22 >= -2
tri1_2_11_23: t2_11_23 - x2_11 <= 0
tri2_2_11_23: t2_11_23 - x2_23 <= 0
tri3_2_11_23: t2_11_23 - x11_23 <= 0
tri4_2_11_23: t2_11_23 - x2_11 - x2_23 - x11_23 >= -2
tri1_2_12_13: t2_12_13 - x2_12 <= 0
tri2_2_12_13: t2_12_13 - x2_13 <= 0
tri3_2_12_13: t2_12_13 - x12_13 <= 0
tri4_2_12_13: t2_12_13 - x2_12 - x2_13 - x12_13 >= -2
tri1_2_12_14: t2_12_14 - x2_12 <= 0
tri2_2_12_14: t2_12_14 - x2_14 <= 0
tri3_2_12_14: t2_12_14 - x12_14 <= 0
tri4_2_12_14: t2_12_14 - x2_12 - x2_14 - x12_14 >= -2
tri1_2_12_15: t2_12_15 - x2_12 <= 0
tri2_2_12_15: t2_12_15 - x2_15 <= 0
tri3_2_12_15: t2_12_15 - x12_15 <= 0
tri4_2_12_15: t2_12_15 - x2_12 - x2_15 - x12_15 >= -2
tri1_2_12_16: t2_12_16 - x2_12 <= 0
tri2_2_12_16: t2_12_16 - x2_16 <= 0
tri3_2_12_16: t2_12_16 - x12_16 <= 0
tri4_2_12_16: t2_12_16 - x2_12 - x2_16 - x12_16 >= -2
tri1_2_12_17: t2_12_17 - x2_12 <= 0
tri2_2_12_17: t2_12_17 - x2_17 <= 0
tri3_2_12_17: t2_12_17 - x12_17 <= 0
tri4_2_12_17: t2_12_17 - x2_12 - x2_17 - x12_17 >= -2
tri1_2_12_18: t2_12_18 - x2_12 <= 0
tri2_2_12_18: t2_12_18 - x2_18 <= 0
tri3_2_12_18: t2_12_18 - x12_18 <= 0
tri4_2_12_18: t2_12_18 - x2_12 - x2_18 - x12_18 >= -2
tri1_2_12_19: t2_12_19 - x2_12 <= 0
tri2_2_12_19: t2_12_19 - x2_19 <= 0
tri3_2_12_19: t2_12_19 - x12_19 <= 0
tri4_2_12_19: t2_12_19 - x2_12 - x2_19 - x12_19 >= -2
tri1_2_12_20: t2_12_20 - x2_12 <= 0
tri2_2_12_20: t2_12_20 - x2_20 <= 0
tri3_2_12_20: t2_12_20 - x12_20 <= 0
tri4_2_12_20: t2_12_20 - x2_12 - x2_20 - x12_20 >= -2
tri1_2_12_21: t2_12_21 - x2_12 <= 0
tri2_2_12_21: t2_12_21 - x2_21 <= 0
tri3_2_12_21: t2_12_21 - x12_21 <= 0
tri4_2_12_21: t2_12_21 - x2_12 - x2_21 - x12_21 >= -2
tri1_2_12_22: t2_12_22 - x2_12 <= 0
tri2_2_12_22: t2_12_22 - x2_22 <= 0
tri3_2_12_22: t2_12_22 - x12_22 <= 0
tri4_2_12_22: t2_12_22 - x2_12 - x2_22 - x12_22 >= -2
tri1_2_12_23: t2_12_23 - x2_12 <= 0
tri2_2_12_23: t2_12_23 - x2_23 <= 0
tri3_2_12_23: t2_12_23 - x12_23 <= 0
tri4_2_12_23: t2_12_23 - x2_12 - x2_23 - x12_23 >= -2
tri1_2_13_14: t2_13_14 - x2_13 <= 0
tri2_2_13_14: t2_13_14 - x2_14 <= 0
tri3_2_13_14: t2_13_14 - x13_14 <= 0
tri4_2_13_14: t2_13_14 - x2_13 - x2_14 - x13_14 >= -2
tri1_2_13_15: t2_13_15 - x2_13 <= 0
tri2_2_13_15: t2_13_15 - x2_15 <= 0
tri3_2_13_15: t2_13_15 - x13_15 <= 0
tri4_2_13_15: t2_13_15 - x2_13 - x2_15 - x13_15 >= -2
tri1_2_13_16: t2_13_16 - x2_13 <= 0
tri2_2_13_16: t2_13_16 - x2_16 <= 0
tri3_2_13_16: t2_13_16 - x13_16 <= 0
tri4_2_13_16: t2_13_16 - x2_13 - x2_16 - x13_16 >= -2
tri1_2_13_17: t2_13_17 - x2_13 <= 0
tri2_2_13_17: t2_13_17 - x2_17 <= 0
tri3_2_13_17: t2_13_17 - x13_17 <= 0
tri4_2_13_17: t2_13_17 - x2_13 - x2_17 - x13_17 >= -2
tri1_2_13_18: t2_13_18 - x2_13 <= 0
tri2_2_13_18: t2_13_18 - x2_18 <= 0
tri3_2_13_18: t2_13_18 - x13_18 <= 0
tri4_2_13_18: t2_13_18 - x2_13 - x2_18 - x13_18 >= -2
tri1_2_13_19: t2_13_19 - x2_13 <= 0
tri2_2_13_19: t2_13_19 - x2_19 <= 0
tri3_2_13_19: t2_13_19 - x13_19 <= 0
tri4_2_13_19: t2_13_19 - x2_13 - x2_19 - x13_19 >= -2
tri1_2_13_20: t2_13_20 - x2_13 <= 0
tri2_2_13_20: t2_13_20 - x2_20 <= 0
tri3_2_13_20: t2_13_20 - x13_20 <= 0
tri4_2_13_20: t2_13_20 - x2_13 - x2_20 - x13_20 >= -2
tri1_2_13_21: t2_13_21 - x2_13 <= 0
tri2_2_13_21: t2_13_21 - x2_21 <= 0
tri3_2_13_21: t2_13_21 - x13_21 <= 0
tri4_2_13_21: t2_13_21 - x2_13 - x2_21 - x13_21 >= -2
tri1_2_13_22: t2_13_22 - x2_13 <= 0
tri2_2_13_22: t2_13_22 - x2_22 <= 0
tri3_2_13_22: t2_13_22 - x13_22 <= 0
tri4_2_13_22: t2_13_22 - x2_13 - x2_22 - x13_22 >= -2
tri1_2_13_23: t2_13_23 - x2_13 <= 0
tri2_2_13_23: t2_13_23 - x2_23 <= 0
tri3_2_13_23: t2_13_23 - x13_23 <= 0
tri4_2_13_23: t2_13_23 - x2_13 - x2_23 - x13_23 >= -2
tri1_2_14_15: t2_14_15 - x2_14 <= 0
tri2_2_14_15: t2_14_15 - x2_15 <= 0
tri3_2_14_15: t2_14_15 - x14_15 <= 0
tri4_2_14_15: t2_14_15 - x2_14 - x2_15 - x14_15 >= -2
tri1_2_14_16: t2_14_16 - x2_14 <= 0
tri2_2_14_16: t2_14_16 - x2_16 <= 0
tri3_2_14_16: t2_14_16 - x14_16 <= 0
tri4_2_14_16: t2_14_16 - x2_14 - x2_16 - x14_16 >= -2
tri1_2_14_17: t2_14_17 - x2_14 <= 0
tri2_2_14_17: t2_14_17 - x2_17 <= 0
tri3_2_14_17: t2_14_17 - x14_17 <= 0
tri4_2_14_17: t2_14_17 - x2_14 - x2_17 - x14_17 >= -2
tri1_2_14_18: t2_14_18 - x2_14 <= 0
tri2_2_14_18: t2_14_18 - x2_18 <= 0
tri3_2_14_18: t2_14_18 - x14_18 <= 0
tri4_2_14_18: t2_14_18 - x2_14 - x2_18 - x14_18 >= -2
tri1_2_14_19: t2_14_19 - x2_14 <= 0
tri2_2_14_19: t2_14_19 - x2_19 <= 0
tri3_2_14_19: t2_14_19 - x14_19 <= 0
tri4_2_14_19: t2_14_19 - x2_14 - x2_19 - x14_19 >= -2
tri1_2_14_20: t2_14_20 - x2_14 <= 0
tri2_2_14_20: t2_14_20 - x2_20 <= 0
tri3_2_14_20: t2_14_20 - x14_20 <= 0
tri4_2_14_20: t2_14_20 - x2_14 - x2_20 - x14_20 >= -2
tri1_2_14_21: t2_14_21 - x2_14 <= 0
tri2_2_14_21: t2_14_21 - x2_21 <= 0
tri3_2_14_21: t2_14_21 - x14_21 <= 0
tri4_2_14_21: t2_14_21 - x2_14 - x2_21 - x14_21 >= -2
tri1_2_14_22: t2_14_22 - x2_14 <= 0
tri2_2_14_22: t2_14_22 - x2_22 <= 0
tri3_2_14_22: t2_14_22 - x14_22 <= 0
tri4_2_14_22: t2_14_22 - x2_14 - x2_22 - x14_22 >= -2
tri1_2_14_23: t2_14_23 - x2_14 <= 0
tri2_2_14_23: t2_14_23 - x2_23 <= 0
tri3_2_14_23: t2_14_23 - x14_23 <= 0
tri4_2_14_23: t2_14_23 - x2_14 - x2_23 - x14_23 >= -2
tri1_2_15_16: t2_15_16 - x2_15 <= 0
tri2_2_15_16: t2_15_16 - x2_16 <= 0
tri3_2_15_16: t2_15_16 - x15_16 <= 0
tri4_2_15_16: t2_15_16 - x2_15 - x2_16 - x15_16 >= -2
tri1_2_15_17: t2_15_17 - x2_15 <= 0
tri2_2_15_17: t2_15_17 - x2_17 <= 0
tri3_2_15_17: t2_15_17 - x15_17 <= 0
tri4_2_15_17: t2_15_17 - x2_15 - x2_17 - x15_17 >= -2
tri1_2_15_18: t2_15_18 - x2_15 <= 0
tri2_2_15_18: t2_15_18 - x2_18 <= 0
tri3_2_15_18: t2_15_18 - x15_18 <= 0
tri4_2_15_18: t2_15_18 - x2_15 - x2_18 - x15_18 >= -2
tri1_2_15_19: t2_15_19 - x2_15 <= 0
tri2_2_15_19: t2_15_19 - x2_19 <= 0
tri3_2_15_19: t2_15_19 - x15_19 <= 0
tri4_2_15_19: t2_15_19 - x2_15 - x2_19 - x15_19 >= -2
tri1_2_15_20: t2_15_20 - x2_15 <= 0
tri2_2_15_20: t2_15_20 - x2_20 <= 0
tri3_2_15_20: t2_15_20 - x15_20 <= 0
tri4_2_15_20: t2_15_20 - x2_15 - x2_20 - x15_20 >= -2
tri1_2_15_21: t2_15_21 - x2_15 <= 0
tri2_2_15_21: t2_15_21 - x2_21 <= 0
tri3_2_15_21: t2_15_21 - x15_21 <= 0
tri4_2_15_21: t2_15_21 - x2_15 - x2_21 - x15_21 >= -2
tri1_2_15_22: t2_15_22 - x2_15 <= 0
tri2_2_15_22: t2_15_22 - x2_22 <= 0
tri3_2_15_22: t2_15_22 - x15_22 <= 0
tri4_2_15_22: t2_15_22 - x2_15 - x2_22 - x15_22 >= -2
tri1_2_15_23: t2_15_23 - x2_15 <= 0
tri2_2_15_23: t2_15_23 - x2_23 <= 0
tri3_2_15_23: t2_15_23 - x15_23 <= 0
tri4_2_15_23: t2_15_23 - x2_15 - x2_23 - x15_23 >= -2
tri1_2_16_17: t2_16_17 - x2_16 <= 0
tri2_2_16_17: t2_16_17 - x2_17 <= 0
tri3_2_16_17: t2_16_17 - x16_17 <= 0
tri4_2_16_17: t2_16_17 - x2_16 - x2_17 - x16_17 >= -2
tri1_2_16_18: t2_16_18 - x2_16 <= 0
tri2_2_16_18: t2_16_18 - x2_18 <= 0
tri3_2_16_18: t2_16_18 - x16_18 <= 0
tri4_2_16_18: t2_16_18 - x2_16 - x2_18 - x16_18 >= -2
tri1_2_16_19: t2_16_19 - x2_16 <= 0
tri2_2_16_19: t2_16_19 - x2_19 <= 0
tri3_2_16_19: t2_16_19 - x16_19 <= 0
tri4_2_16_19: t2_16_19 - x2_16 - x2_19 - x16_19 >= -2
tri1_2_16_20: t2_16_20 - x2_16 <= 0
tri2_2_16_20: t2_16_20 - x2_20 <= 0
tri3_2_16_20: t2_16_20 - x16_20 <= 0
tri4_2_16_20: t2_16_20 - x2_16 - x2_20 - x16_20 >= -2
tri1_2_16_21: t2_16_21 - x2_16 <= 0
tri2_2_16_21: t2_16_21 - x2_21 <= 0
tri3_2_16_21: t2_16_21 - x16_21 <= 0
tri4_2_16_21: t2_16_21 - x2_16 - x2_21 - x16_21 >= -2
tri1_2_16_22: t2_16_22 - x2_16 <= 0
tri2_2_16_22: t2_16_22 - x2_22 <= 0
tri3_2_16_22: t2_16_22 - x16_22 <= 0
tri4_2_16_22: t2_16_22 - x2_16 - x2_22 - x16_22 >= -2
tri1_2_16_23: t2_16_23 - x2_16 <= 0
tri2_2_16_23: t2_16_23 - x2_23 <= 0
tri3_2_16_23: t2_16_23 - x16_23 <= 0
tri4_2_16_23: t2_16_23 - x2_16 - x2_23 - x16_23 >= -2
tri1_2_17_18: t2_17_18 - x2_17 <= 0
tri2_2_17_18: t2_17_18 - x2_18 <= 0
tri3_2_17_18: t2_17_18 - x17_18 <= 0
tri4_2_17_18: t2_17_18 - x2_17 - x2_18 - x17_18 >= -2
tri1_2_17_19: t2_17_19 - x2_17 <= 0
tri2_2_17_19: t2_17_19 - x2_19 <= 0
tri3_2_17_19: t2_17_19 - x17_19 <= 0
tri4_2_17_19: t2_17_19 - x2_17 - x2_19 - x17_19 >= -2
tri1_2_17_20: t2_17_20 - x2_17 <= 0
tri2_2_17_20: t2_17_20 - x2_20 <= 0
tri3_2_17_20: t2_17_20 - x17_20 <= 0
tri4_2_17_20: t2_17_20 - x2_17 - x2_20 - x17_20 >= -2
tri1_2_17_21: t2_17_21 - x2_17 <= 0
tri2_2_17_21: t2_17_21 - x2_21 <= 0
tri3_2_17_21: t2_17_21 - x17_21 <= 0
tri4_2_17_21: t2_17_21 - x2_17 - x2_21 - x17_21 >= -2
tri1_2_17_22: t2_17_22 - x2_17 <= 0
tri2_2_17_22: t2_17_22 - x2_22 <= 0
tri3_2_17_22: t2_17_22 - x17_22 <= 0
tri4_2_17_22: t2_17_22 - x2_17 - x2_22 - x17_22 >= -2
tri1_2_17_23: t2_17_23 - x2_17 <= 0
tri2_2_17_23: t2_17_23 - x2_23 <= 0
tri3_2_17_23: t2_17_23 - x17_23 <= 0
tri4_2_17_23: t2_17_23 - x2_17 - x2_23 - x17_23 >= -2
tri1_2_18_19: t2_18_19 - x2_18 <= 0
tri2_2_18_19: t2_18_19 - x2_19 <= 0
tri3_2_18_19: t2_18_19 - x18_19 <= 0
tri4_2_18_19: t2_18_19 - x2_18 - x2_19 - x18_19 >= -2
tri1_2_18_20: t2_18_20 - x2_18 <= 0
tri2_2_18_20: t2_18_20 - x2_20 <= 0
tri3_2_18_20: t2_18_20 - x18_20 <= 0
tri4_2_18_20: t2_18_20 - x2_18 - x2_20 - x18_20 >= -2
tri1_2_18_21: t2_18_21 - x2_18 <= 0
tri2_2_18_21: t2_18_21 - x2_21 <= 0
tri3_2_18_21: t2_18_21 - x18_21 <= 0
tri4_2_18_21: t2_18_21 - x2_18 - x2_21 - x18_21 >= -2
tri1_2_18_22: t2_18_22 - x2_18 <= 0
tri2_2_18_22: t2_18_22 - x2_22 <= 0
tri3_2_18_22: t2_18_22 - x18_22 <= 0
tri4_2_18_22: t2_18_22 - x2_18 - x2_22 - x18_22 >= -2
tri1_2_18_23: t2_18_23 - x2_18 <= 0
tri2_2_18_23: t2_18_23 - x2_23 <= 0
tri3_2_18_23: t2_18_23 - x18_23 <= 0
tri4_2_18_23: t2_18_23 - x2_18 - x2_23 - x18_23 >= -2
tri1_2_19_20: t2_19_20 - x2_19 <= 0
tri2_2_19_20: t2_19_20 - x2_20 <= 0
tri3_2_19_20: t2_19_20 - x19_20 <= 0
tri4_2_19_20: t2_19_20 - x2_19 - x2_20 - x19_20 >= -2
tri1_2_19_21: t2_19_21 - x2_19 <= 0
tri2_2_19_21: t2_19_21 - x2_21 <= 0
tri3_2_19_21: t2_19_21 - x19_21 <= 0
tri4_2_19_21: t2_19_21 - x2_19 - x2_21 - x19_21 >= -2
tri1_2_19_22: t2_19_22 - x2_19 <= 0
tri2_2_19_22: t2_19_22 - x2_22 <= 0
tri3_2_19_22: t2_19_22 - x19_22 <= 0
tri4_2_19_22: t2_19_22 - x2_19 - x2_22 - x19_22 >= -2
tri1_2_19_23: t2_19_23 - x2_19 <= 0
tri2_2_19_23: t2_19_23 - x2_23 <= 0
tri3_2_19_23: t2_19_23 - x19_23 <= 0
tri4_2_19_23: t2_19_23 - x2_19 - x2_23 - x19_23 >= -2
tri1_2_20_21: t2_20_21 - x2_20 <= 0
tri2_2_20_21: t2_20_21 - x2_21 <= 0
tri3_2_20_21: t2_20_21 - x20_21 <= 0
tri4_2_20_21: t2_20_21 - x2_20 - x2_21 - x20_21 >= -2
tri1_2_20_22: t2_20_22 - x2_20 <= 0
tri2_2_20_22: t2_20_22 - x2_22 <= 0
tri3_2_20_22: t2_20_22 - x20_22 <= 0
tri4_2_20_22: t2_20_22 - x2_20 - x2_22 - x20_22 >= -2
tri1_2_20_23: t2_20_23 - x2_20 <= 0
tri2_2_20_23: t2_20_23 - x2_23 <= 0
tri3_2_20_23: t2_20_23 - x20_23 <= 0
tri4_2_20_23: t2_20_23 - x2_20 - x2_23 - x20_23 >= -2
tri1_2_21_22: t2_21_22 - x2_21 <= 0
tri2_2_21_22: t2_21_22 - x2_22 <= 0
tri3_2_21_22: t2_21_22 - x21_22 <= 0
tri4_2_21_22: t2_21_22 - x2_21 - x2_22 - x21_22 >= -2
tri1_2_21_23: t2_21_23 - x2_21 <= 0
tri2_2_21_23: t2_21_23 - x2_23 <= 0
tri3_2_21_23: t2_21_23 - x21_23 <= 0
tri4_2_21_23: t2_21_23 - x2_21 - x2_23 - x21_23 >= -2
tri1_2_22_23: t2_22_23 - x2_22 <= 0
tri2_2_22_23: t2_22_23 - x2_23 <= 0
tri3_2_22_23: t2_22_23 - x22_23 <= 0
tri4_2_22_23: t2_22_23 - x2_22 - x2_23 - x22_23 >= -2
tri1_3_4_5: t3_4_5 - x3_4 <= 0
tri2_3_4_5: t3_4_5 - x3_5 <= 0
tri3_3_4_5: t3_4_5 - x4_5 <= 0
tri4_3_4_5: t3_4_5 - x3_4 - x3_5 - x4_5 >= -2
tri1_3_4_6: t3_4_6 - x3_4 <= 0
tri2_3_4_6: t3_4_6 - x3_6 <= 0
tri3_3_4_6: t3_4_6 - x4_6 <= 0
tri4_3_4_6: t3_4_6 - x3_4 - x3_6 - x4_6 >= -2
tri1_3_4_7: t3_4_7 - x3_4 <= 0
tri2_3_4_7: t3_4_7 - x3_7 <= 0
tri3_3_4_7: t3_4_7 - x4_7 <= 0
tri4_3_4_7: t3_4_7 - x3_4 - x3_7 - x4_7 >= -2
tri1_3_4_8: t3_4_8 - x3_4 <= 0
tri2_3_4_8: t3_4_8 - x3_8 <= 0
tri3_3_4_8: t3_4_8 - x4_8 <= 0
tri4_3_4_8: t3_4_8 - x3_4 - x3_8 - x4_8 >= -2
tri1_3_4_9: t3_4_9 - x3_4 <= 0
tri2_3_4_9: t3_4_9 - x3_9 <= 0
tri3_3_4_9: t3_4_9 - x4_9 <= 0
tri4_3_4_9: t3_4_9 - x3_4 - x3_9 - x4_9 >= -2
tri1_3_4_10: t3_4_10 - x3_4 <= 0
tri2_3_4_10: t3_4_10 - x3_10 <= 0
tri3_3_4_10: t3_4_10 - x4_10 <= 0
tri4_3_4_10: t3_4_10 - x3_4 - x3_10 - x4_10 >= -2
tri1_3_4_11: t3_4_11 - x3_4 <= 0
tri2_3_4_11: t3_4_11 - x3_11 <= 0
tri3_3_4_11: t3_4_11 - x4_11 <= 0
tri4_3_4_11: t3_4_11 - x3_4 - x3_11 - x4_11 >= -2
tri1_3_4_12: t3_4_12 - x3_4 <= 0
tri2_3_4_12: t3_4_12 - x3_12 <= 0
tri3_3_4_12: t3_4_12 - x4_12 <= 0
tri4_3_4_12: t3_4_12 - x3_4 - x3_12 - x4_12 >= -2
tri1_3_4_13: t3_4_13 - x3_4 <= 0
tri2_3_4_13: t3_4_13 - x3_13 <= 0
tri3_3_4_13: t3_4_13 - x4_13 <= 0
tri4_3_4_13: t3_4_13 - x3_4 - x3_13 - x4_13 >= -2
tri1_3_4_14: t3_4_14 - x3_4 <= 0
tri2_3_4_14: t3_4_14 - x3_14 <= 0
tri3_3_4_14: t3_4_14 - x4_14 <= 0
tri4_3_4_14: t3_4_14 - x3_4 - x3_14 - x4_14 >= -2
tri1_3_4_15: t3_4_15 - x3_4 <= 0
tri2_3_4_15: t3_4_15 - x3_15 <= 0
tri3_3_4_15: t3_4_15 - x4_15 <= 0
tri4_3_4_15: t3_4_15 - x3_4 - x3_15 - x4_15 >= -2
tri1_3_4_16: t3_4_16 - x3_4 <= 0
tri2_3_4_16: t3_4_16 - x3_16 <= 0
tri3_3_4_16: t3_4_16 - x4_16 <= 0
tri4_3_4_16: t3_4_16 - x3_4 - x3_16 - x4_16 >= -2
tri1_3_4_17: t3_4_17 - x3_4 <= 0
tri2_3_4_17: t3_4_17 - x3_17 <= 0
tri3_3_4_17: t3_4_17 - x4_17 <= 0
tri4_3_4_17: t3_4_17 - x3_4 - x3_17 - x4_17 >= -2
tri1_3_4_18: t3_4_18 - x3_4 <= 0
tri2_3_4_18: t3_4_18 - x3_18 <= 0
tri3_3_4_18: t3_4_18 - x4_18 <= 0
tri4_3_4_18: t3_4_18 - x3_4 - x3_18 - x4_18 >= -2
tri1_3_4_19: t3_4_19 - x3_4 <= 0
tri2_3_4_19: t3_4_19 - x3_19 <= 0
tri3_3_4_19: t3_4_19 - x4_19 <= 0
tri4_3_4_19: t3_4_19 - x3_4 - x3_19 - x4_19 >= -2
tri1_3_4_20: t3_4_20 - x3_4 <= 0
tri2_3_4_20: t3_4_20 - x3_20 <= 0
tri3_3_4_20: t3_4_20 - x4_20 <= 0
tri4_3_4_20: t3_4_20 - x3_4 - x3_20 - x4_20 >= -2
tri1_3_4_21: t3_4_21 - x3_4 <= 0
tri2_3_4_21: t3_4_21 - x3_21 <= 0
tri3_3_4_21: t3_4_21 - x4_21 <= 0
tri4_3_4_21: t3_4_21 - x3_4 - x3_21 - x4_21 >= -2
tri1_3_4_22: t3_4_22 - x3_4 <= 0
tri2_3_4_22: t3_4_22 - x3_22 <= 0
tri3_3_4_22: t3_4_22 - x4_22 <= 0
tri4_3_4_22: t3_4_22 - x3_4 - x3_22 - x4_22 >= -2
tri1_3_4_23: t3_4_23 - x3_4 <= 0
tri2_3_4_23: t3_4_23 - x3_23 <= 0
tri3_3_4_23: t3_4_23 - x4_23 <= 0
tri4_3_4_23: t3_4_23 - x3_4 - x3_23 - x4_23 >= -2
tri1_3_5_6: t3_5_6 - x3_5 <= 0
tri2_3_5_6: t3_5_6 - x3_6 <= 0
tri3_3_5_6: t3_5_6 - x5_6 <= 0
tri4_3_5_6: t3_5_6 - x3_5 - x3_6 - x5_6 >= -2
tri1_3_5_7: t3_5_7 - x3_5 <= 0
tri2_3_5_7: t3_5_7 - x3_7 <= 0
tri3_3_5_7: t3_5_7 - x5_7 <= 0
tri4_3_5_7: t3_5_7 - x3_5 - x3_7 - x5_7 >= -2
tri1_3_5_8: t3_5_8 - x3_5 <= 0
tri2_3_5_8: t3_5_8 - x3_8 <= 0
tri3_3_5_8: t3_5_8 - x5_8 <= 0
tri4_3_5_8: t3_5_8 - x3_5 - x3_8 - x5_8 >= -2
tri1_3_5_9: t3_5_9 - x3_5 <= 0
tri2_3_5_9: t3_5_9 - x3_9 <= 0
tri3_3_5_9: t3_5_9 - x5_9 <= 0
tri4_3_5_9: t3_5_9 - x3_5 - x3_9 - x5_9 >= -2
tri1_3_5_10: t3_5_10 - x3_5 <= 0
tri2_3_5_10: t3_5_10 - x3_10 <= 0
tri3_3_5_10: t3_5_10 - x5_10 <= 0
tri4_3_5_10: t3_5_10 - x3_5 - x3_10 - x5_10 >= -2
tri1_3_5_11: t3_5_11 - x3_5 <= 0
tri2_3_5_11: t3_5_11 - x3_11 <= 0
tri3_3_5_11: t3_5_11 - x5_11 <= 0
tri4_3_5_11: t3_5_11 - x3_5 - x3_11 - x5_11 >= -2
tri1_3_5_12: t3_5_12 - x3_5 <= 0
tri2_3_5_12: t3_5_12 - x3_12 <= 0
tri3_3_5_12: t3_5_12 - x5_12 <= 0
tri4_3_5_12: t3_5_12 - x3_5 - x3_12 - x5_12 >= -2
tri1_3_5_13: t3_5_13 - x3_5 <= 0
tri2_3_5_13: t3_5_13 - x3_13 <= 0
tri3_3_5_13: t3_5_13 - x5_13 <= 0
tri4_3_5_13: t3_5_13 - x3_5 - x3_13 - x5_13 >= -2
tri1_3_5_14: t3_5_14 - x3_5 <= 0
tri2_3_5_14: t3_5_14 - x3_14 <= 0
tri3_3_5_14: t3_5_14 - x5_14 <= 0
tri4_3_5_14: t3_5_14 - x3_5 - x3_14 - x5_14 >= -2
tri1_3_5_15: t3_5_15 - x3_5 <= 0
tri2_3_5_15: t3_5_15 - x3_15 <= 0
tri3_3_5_15: t3_5_15 - x5_15 <= 0
tri4_3_5_15: t3_5_15 - x3_5 - x3_15 - x5_15 >= -2
tri1_3_5_16: t3_5_16 - x3_5 <= 0
tri2_3_5_16: t3_5_16 - x3_16 <= 0
tri3_3_5_16: t3_5_16 - x5_16 <= 0
tri4_3_5_16: t3_5_16 - x3_5 - x3_16 - x5_16 >= -2
tri1_3_5_17: t3_5_17 - x3_5 <= 0
tri2_3_5_17: t3_5_17 - x3_17 <= 0
tri3_3_5_17: t3_5_17 - x5_17 <= 0
tri4_3_5_17: t3_5_17 - x3_5 - x3_17 - x5_17 >= -2
tri1_3_5_18: t3_5_18 - x3_5 <= 0
tri2_3_5_18: t3_5_18 - x3_18 <= 0
tri3_3_5_18: t3_5_18 - x5_18 <= 0
tri4_3_5_18: t3_5_18 - x3_5 - x3_18 - x5_18 >= -2
tri1_3_5_19: t3_5_19 - x3_5 <= 0
tri2_3_5_19: t3_5_19 - x3_19 <= 0
tri3_3_5_19: t3_5_19 - x5_19 <= 0
tri4_3_5_19: t3_5_19 - x3_5 - x3_19 - x5_19 >= -2
tri1_3_5_20: t3_5_20 - x3_5 <= 0
tri2_3_5_20: t3_5_20 - x3_20 <= 0
tri3_3_5_20: t3_5_20 - x5_20 <= 0
tri4_3_5_20: t3_5_20 - x3_5 - x3_20 - x5_20 >= -2
tri1_3_5_21: t3_5_21 - x3_5 <= 0
tri2_3_5_21: t3_5_21 - x3_21 <= 0
tri3_3_5_21: t3_5_21 - x5_21 <= 0
tri4_3_5_21: t3_5_21 - x3_5 - x3_21 - x5_21 >= -2
tri1_3_5_22: t3_5_22 - x3_5 <= 0
tri2_3_5_22: t3_5_22 - x3_22 <= 0
tri3_3_5_22: t3_5_22 - x5_22 <= 0
tri4_3_5_22: t3_5_22 - x3_5 - x3_22 - x5_22 >= -2
tri1_3_5_23: t3_5_23 - x3_5 <= 0
tri2_3_5_23: t3_5_23 - x3_23 <= 0
tri3_3_5_23: t3_5_23 - x5_23 <= 0
tri4_3_5_23: t3_5_23 - x3_5 - x3_23 - x5_23 >= -2
tri1_3_6_7: t3_6_7 - x3_6 <= 0
tri2_3_6_7: t3_6_7 - x3_7 <= 0
tri3_3_6_7: t3_6_7 - x6_7 <= 0
tri4_3_6_7: t3_6_7 - x3_6 - x3_7 - x6_7 >= -2
tri1_3_6_8: t3_6_8 - x3_6 <= 0
tri2_3_6_8: t3_6_8 - x3_8 <= 0
tri3_3_6_8: t3_6_8 - x6_8 <= 0
tri4_3_6_8: t3_6_8 - x3_6 - x3_8 - x6_8 >= -2
tri1_3_6_9: t3_6_9 - x3_6 <= 0
tri2_3_6_9: t3_6_9 - x3_9 <= 0
tri3_3_6_9: t3_6_9 - x6_9 <= 0
tri4_3_6_9: t3_6_9 - x3_6 - x3_9 - x6_9 >= -2
tri1_3_6_10: t3_6_10 - x3_6 <= 0
tri2_3_6_10: t3_6_10 - x3_10 <= 0
tri3_3_6_10: t3_6_10 - x6_10 <= 0
tri4_3_6_10: t3_6_10 - x3_6 - x3_10 - x6_10 >= -2
tri1_3_6_11: t3_6_11 - x3_6 <= 0
tri2_3_6_11: t3_6_11 - x3_11 <= 0
tri3_3_6_11: t3_6_11 - x6_11 <= 0
tri4_3_6_11: t3_6_11 - x3_6 - x3_11 - x6_11 >= -2
tri1_3_6_12: t3_6_12 - x3_6 <= 0
tri2_3_6_12: t3_6_12 - x3_12 <= 0
tri3_3_6_12: t3_6_12 - x6_12 <= 0
tri4_3_6_12: t3_6_12 - x3_6 - x3_12 - x6_12 >= -2
tri1_3_6_13: t3_6_13 - x3_6 <= 0
tri2_3_6_13: t3_6_13 - x3_13 <= 0
tri3_3_6_13: t3_6_13 - x6_13 <= 0
tri4_3_6_13: t3_6_13 - x3_6 - x3_13 - x6_13 >= -2
tri1_3_6_14: t3_6_14 - x3_6 <= 0
tri2_3_6_14: t3_6_14 - x3_14 <= 0
tri3_3_6_14: t3_6_14 - x6_14 <= 0
tri4_3_6_14: t3_6_14 - x3_6 - x3_14 - x6_14 >= -2
tri1_3_6_15: t3_6_15 - x3_6 <= 0
tri2_3_6_15: t3_6_15 - x3_15 <= 0
tri3_3_6_15: t3_6_15 - x6_15 <= 0
tri4_3_6_15: t3_6_15 - x3_6 - x3_15 - x6_15 >= -2
tri1_3_6_16: t3_6_16 - x3_6 <= 0
tri2_3_6_16: t3_6_16 - x3_16 <= 0
tri3_3_6_16: t3_6_16 - x6_16 <= 0
tri4_3_6_16: t3_6_16 - x3_6 - x3_16 - x6_16 >= -2
tri1_3_6_17: t3_6_17 - x3_6 <= 0
tri2_3_6_17: t3_6_17 - x3_17 <= 0
tri3_3_6_17: t3_6_17 - x6_17 <= 0
tri4_3_6_17: t3_6_17 - x3_6 - x3_17 - x6_17 >= -2
tri1_3_6_18: t3_6_18 - x3_6 <= 0
tri2_3_6_18: t3_6_18 - x3_18 <= 0
tri3_3_6_18: t3_6_18 - x6_18 <= 0
tri4_3_6_18: t3_6_18 - x3_6 - x3_18 - x6_18 >= -2
tri1_3_6_19: t3_6_19 - x3_6 <= 0
tri2_3_6_19: t3_6_19 - x3_19 <= 0
tri3_3_6_19: t3_6_19 - x6_19 <= 0
tri4_3_6_19: t3_6_19 - x3_6 - x3_19 - x6_19 >= -2
tri1_3_6_20: t3_6_20 - x3_6 <= 0
tri2_3_6_20: t3_6_20 - x3_20 <= 0
tri3_3_6_20: t3_6_20 - x6_20 <= 0
tri4_3_6_20: t3_6_20 - x3_6 - x3_20 - x6_20 >= -2
tri1_3_6_21: t3_6_21 - x3_6 <= 0
tri2_3_6_21: t3_6_21 - x3_21 <= 0
tri3_3_6_21: t3_6_21 - x6_21 <= 0
tri4_3_6_21: t3_6_21 - x3_6 - x3_21 - x6_21 >= -2
tri1_3_6_22: t3_6_22 - x3_6 <= 0
tri2_3_6_22: t3_6_22 - x3_22 <= 0
tri3_3_6_22: t3_6_22 - x6_22 <= 0
tri4_3_6_22: t3_6_22 - x3_6 - x3_22 - x6_22 >= -2
tri1_3_6_23: t3_6_23 - x3_6 <= 0
tri2_3_6_23: t3_6_23 - x3_23 <= 0
tri3_3_6_23: t3_6_23 - x6_23 <= 0
tri4_3_6_23: t3_6_23 - x3_6 - x3_23 - x6_23 >= -2
tri1_3_7_8: t3_7_8 - x3_7 <= 0
tri2_3_7_8: t3_7_8 - x3_8 <= 0
tri3_3_7_8: t3_7_8 - x7_8 <= 0
tri4_3_7_8: t3_7_8 - x3_7 - x3_8 - x7_8 >= -2
tri1_3_7_9: t3_7_9 - x3_7 <= 0
tri2_3_7_9: t3_7_9 - x3_9 <= 0
tri3_3_7_9: t3_7_9 - x7_9 <= 0
tri4_3_7_9: t3_7_9 - x3_7 - x3_9 - x7_9 >= -2
tri1_3_7_10: t3_7_10 - x3_7 <= 0
tri2_3_7_10: t3_7_10 - x3_10 <= 0
tri3_3_7_10: t3_7_10 - x7_10 <= 0
tri4_3_7_10: t3_7_10 - x3_7 - x3_10 - x7_10 >= -2
tri1_3_7_11: t3_7_11 - x3_7 <= 0
tri2_3_7_11: t3_7_11 - x3_11 <= 0
tri3_3_7_11: t3_7_11 - x7_11 <= 0
tri4_3_7_11: t3_7_11 - x3_7 - x3_11 - x7_11 >= -2
tri1_3_7_12: t3_7_12 - x3_7 <= 0
tri2_3_7_12: t3_7_12 - x3_12 <= 0
tri3_3_7_12: t3_7_12 - x7_12 <= 0
tri4_3_7_12: t3_7_12 - x3_7 - x3_12 - x7_12 >= -2
tri1_3_7_13: t3_7_13 - x3_7 <= 0
tri2_3_7_13: t3_7_13 - x3_13 <= 0
tri3_3_7_13: t3_7_13 - x7_13 <= 0
tri4_3_7_13: t3_7_13 - x3_7 - x3_13 - x7_13 >= -2
tri1_3_7_14: t3_7_14 - x3_7 <= 0
tri2_3_7_14: t3_7_14 - x3_14 <= 0
tri3_3_7_14: t3_7_14 - x7_14 <= 0
tri4_3_7_14: t3_7_14 - x3_7 - x3_14 - x7_14 >= -2
tri1_3_7_15: t3_7_15 - x3_7 <= 0
tri2_3_7_15: t3_7_15 - x3_15 <= 0
tri3_3_7_15: t3_7_15 - x7_15 <= 0
tri4_3_7_15: t3_7_15 - x3_7 - x3_15 - x7_15 >= -2
tri1_3_7_16: t3_7_16 - x3_7 <= 0
tri2_3_7_16: t3_7_16 - x3_16 <= 0
tri3_3_7_16: t3_7_16 - x7_16 <= 0
tri4_3_7_16: t3_7_16 - x3_7 - x3_16 - x7_16 >= -2
tri1_3_7_17: t3_7_17 - x3_7 <= 0
tri2_3_7_17: t3_7_17 - x3_17 <= 0
tri3_3_7_17: t3_7_17 - x7_17 <= 0
tri4_3_7_17: t3_7_17 - x3_7 - x3_17 - x7_17 >= -2
tri1_3_7_18: t3_7_18 - x3_7 <= 0
tri2_3_7_18: t3_7_18 - x3_18 <= 0
tri3_3_7_18: t3_7_18 - x7_18 <= 0
tri4_3_7_18: t3_7_18 - x3_7 - x3_18 - x7_18 >= -2
tri1_3_7_19: t3_7_19 - x3_7 <= 0
tri2_3_7_19: t3_7_19 - x3_19 <= 0
tri3_3_7_19: t3_7_19 - x7_19 <= 0
tri4_3_7_19: t3_7_19 - x3_7 - x3_19 - x7_19 >= -2
tri1_3_7_20: t3_7_20 - x3_7 <= 0
tri2_3_7_20: t3_7_20 - x3_20 <= 0
tri3_3_7_20: t3_7_20 - x7_20 <= 0
tri4_3_7_20: t3_7_20 - x3_7 - x3_20 - x7_20 >= -2
tri1_3_7_21: t3_7_21 - x3_7 <= 0
tri2_3_7_21: t3_7_21 - x3_21 <= 0
tri3_3_7_21: t3_7_21 - x7_21 <= 0
tri4_3_7_21: t3_7_21 - x3_7 - x3_21 - x7_21 >= -2
tri1_3_7_22: t3_7_22 - x3_7 <= 0
tri2_3_7_22: t3_7_22 - x3_22 <= 0
tri3_3_7_22: t3_7_22 - x7_22 <= 0
tri4_3_7_22: t3_7_22 - x3_7 - x3_22 - x7_22 >= -2
tri1_3_7_23: t3_7_23 - x3_7 <= 0
tri2_3_7_23: t3_7_23 - x3_23 <= 0
tri3_3_7_23: t3_7_23 - x7_23 <= 0
tri4_3_7_23: t3_7_23 - x3_7 - x3_23 - x7_23 >= -2
tri1_3_8_9: t3_8_9 - x3_8 <= 0
tri2_3_8_9: t3_8_9 - x3_9 <= 0
tri3_3_8_9: t3_8_9 - x8_9 <= 0
tri4_3_8_9: t3_8_9 - x3_8 - x3_9 - x8_9 >= -2
tri1_3_8_10: t3_8_10 - x3_8 <= 0
tri2_3_8_10: t3_8_10 - x3_10 <= 0
tri3_3_8_10: t3_8_10 - x8_10 <= 0
tri4_3_8_10: t3_8_10 - x3_8 - x3_10 - x8_10 >= -2
tri1_3_8_11: t3_8_11 - x3_8 <= 0
tri2_3_8_11: t3_8_11 - x3_11 <= 0
tri3_3_8_11: t3_8_11 - x8_11 <= 0
tri4_3_8_11: t3_8_11 - x3_8 - x3_11 - x8_11 >= -2
tri1_3_8_12: t3_8_12 - x3_8 <= 0
tri2_3_8_12: t3_8_12 - x3_12 <= 0
tri3_3_8_12: t3_8_12 - x8_12 <= 0
tri4_3_8_12: t3_8_12 - x3_8 - x3_12 - x8_12 >= -2
tri1_3_8_13: t3_8_13 - x3_8 <= 0
tri2_3_8_13: t3_8_13 - x3_13 <= 0
tri3_3_8_13: t3_8_13 - x8_13 <= 0
tri4_3_8_13: t3_8_13 - x3_8 - x3_13 - x8_13 >= -2
tri1_3_8_14: t3_8_14 - x3_8 <= 0
tri2_3_8_14: t3_8_14 - x3_14 <= 0
tri3_3_8_14: t3_8_14 - x8_14 <= 0
tri4_3_8_14: t3_8_14 - x3_8 - x3_14 - x8_14 >= -2
tri1_3_8_15: t3_8_15 - x3_8 <= 0
tri2_3_8_15: t3_8_15 - x3_15 <= 0
tri3_3_8_15: t3_8_15 - x8_15 <= 0
tri4_3_8_15: t3_8_15 - x3_8 - x3_15 - x8_15 >= -2
tri1_3_8_16: t3_8_16 - x3_8 <= 0
tri2_3_8_16: t3_8_16 - x3_16 <= 0
tri3_3_8_16: t3_8_16 - x8_16 <= 0
tri4_3_8_16: t3_8_16 - x3_8 - x3_16 - x8_16 >= -2
tri1_3_8_17: t3_8_17 - x3_8 <= 0
tri2_3_8_17: t3_8_17 - x3_17 <= 0
tri3_3_8_17: t3_8_17 - x8_17 <= 0
tri4_3_8_17: t3_8_17 - x3_8 - x3_17 - x8_17 >= -2
tri1_3_8_18: t3_8_18 - x3_8 <= 0
tri2_3_8_18: t3_8_18 - x3_18 <= 0
tri3_3_8_18: t3_8_18 - x8_18 <= 0
tri4_3_8_18: t3_8_18 - x3_8 - x3_18 - x8_18 >= -2
tri1_3_8_19: t3_8_19 - x3_8 <= 0
tri2_3_8_19: t3_8_19 - x3_19 <= 0
tri3_3_8_19: t3_8_19 - x8_19 <= 0
tri4_3_8_19: t3_8_19 - x3_8 - x3_19 - x8_19 >= -2
tri1_3_8_20: t3_8_20 - x3_8 <= 0
tri2_3_8_20: t3_8_20 - x3_20 <= 0
tri3_3_8_20: t3_8_20 - x8_20 <= 0
tri4_3_8_20: t3_8_20 - x3_8 - x3_20 - x8_20 >= -2
tri1_3_8_21: t3_8_21 - x3_8 <= 0
tri2_3_8_21: t3_8_21 - x3_21 <= 0
tri3_3_8_21: t3_8_21 - x8_21 <= 0
tri4_3_8_21: t3_8_21 - x3_8 - x3_21 - x8_21 >= -2
tri1_3_8_22: t3_8_22 - x3_8 <= 0
tri2_3_8_22: t3_8_22 - x3_22 <= 0
tri3_3_8_22: t3_8_22 - x8_22 <= 0
tri4_3_8_22: t3_8_22 - x3_8 - x3_22 - x8_22 >= -2
tri1_3_8_23: t3_8_23 - x3_8 <= 0
tri2_3_8_23: t3_8_23 - x3_23 <= 0
tri3_3_8_23: t3_8_23 - x8_23 <= 0
tri4_3_8_23: t3_8_23 - x3_8 - x3_23 - x8_23 >= -2
tri1_3_9_10: t3_9_10 - x3_9 <= 0
tri2_3_9_10: t3_9_10 - x3_10 <= 0
tri3_3_9_10: t3_9_10 - x9_10 <= 0
tri4_3_9_10: t3_9_10 - x3_9 - x3_10 - x9_10 >= -2
tri1_3_9_11: t3_9_11 - x3_9 <= 0
tri2_3_9_11: t3_9_11 - x3_11 <= 0
tri3_3_9_11: t3_9_11 - x9_11 <= 0
tri4_3_9_11: t3_9_11 - x3_9 - x3_11 - x9_11 >= -2
tri1_3_9_12: t3_9_12 - x3_9 <= 0
tri2_3_9_12: t3_9_12 - x3_12 <= 0
tri3_3_9_12: t3_9_12 - x9_12 <= 0
tri4_3_9_12: t3_9_12 - x3_9 - x3_12 - x9_12 >= -2
tri1_3_9_13: t3_9_13 - x3_9 <= 0
tri2_3_9_13: t3_9_13 - x3_13 <= 0
tri3_3_9_13: t3_9_13 - x9_13 <= 0
tri4_3_9_13: t3_9_13 - x3_9 - x3_13 - x9_13 >= -2
tri1_3_9_14: t3_9_14 - x3_9 <= 0
tri2_3_9_14: t3_9_14 - x3_14 <= 0
tri3_3_9_14: t3_9_14 - x9_14 <= 0
tri4_3_9_14: t3_9_14 - x3_9 - x3_14 - x9_14 >= -2
tri1_3_9_15: t3_9_15 - x3_9 <= 0
tri2_3_9_15: t3_9_15 - x3_15 <= 0
tri3_3_9_15: t3_9_15 - x9_15 <= 0
tri4_3_9_15: t3_9_15 - x3_9 - x3_15 - x9_15 >= -2
tri1_3_9_16: t3_9_16 - x3_9 <= 0
tri2_3_9_16: t3_9_16 - x3_16 <= 0
tri3_3_9_16: t3_9_16 - x9_16 <= 0
tri4_3_9_16: t3_9_16 - x3_9 - x3_16 - x9_16 >= -2
tri1_3_9_17: t3_9_17 - x3_9 <= 0
tri2_3_9_17: t3_9_17 - x3_17 <= 0
tri3_3_9_17: t3_9_17 - x9_17 <= 0
tri4_3_9_17: t3_9_17 - x3_9 - x3_17 - x9_17 >= -2
tri1_3_9_18: t3_9_18 - x3_9 <= 0
tri2_3_9_18: t3_9_18 - x3_18 <= 0
tri3_3_9_18: t3_9_18 - x9_18 <= 0
tri4_3_9_18: t3_9_18 - x3_9 - x3_18 - x9_18 >= -2
tri1_3_9_19: t3_9_19 - x3_9 <= 0
tri2_3_9_19: t3_9_19 - x3_19 <= 0
tri3_3_9_19: t3_9_19 - x9_19 <= 0
tri4_3_9_19: t3_9_19 - x3_9 - x3_19 - x9_19 >= -2
tri1_3_9_20: t3_9_20 - x3_9 <= 0
tri2_3_9_20: t3_9_20 - x3_20 <= 0
tri3_3_9_20: t3_9_20 - x9_20 <= 0
tri4_3_9_20: t3_9_20 - x3_9 - x3_20 - x9_20 >= -2
tri1_3_9_21: t3_9_21 - x3_9 <= 0
tri2_3_9_21: t3_9_21 - x3_21 <= 0
tri3_3_9_21: t3_9_21 - x9_21 <= 0
tri4_3_9_21: t3_9_21 - x3_9 - x3_21 - x9_21 >= -2
tri1_3_9_22: t3_9_22 - x3_9 <= 0
tri2_3_9_22: t3_9_22 - x3_22 <= 0
tri3_3_9_22: t3_9_22 - x9_22 <= 0
tri4_3_9_22: t3_9_22 - x3_9 - x3_22 - x9_22 >= -2
tri1_3_9_23: t3_9_23 - x3_9 <= 0
tri2_3_9_23: t3_9_23 - x3_23 <= 0
tri3_3_9_23: t3_9_23 - x9_23 <= 0
tri4_3_9_23: t3_9_23 - x3_9 - x3_23 - x9_23 >= -2
tri1_3_10_11: t3_10_11 - x3_10 <= 0
tri2_3_10_11: t3_10_11 - x3_11 <= 0
tri3_3_10_11: t3_10_11 - x10_11 <= 0
tri4_3_10_11: t3_10_11 - x3_10 - x3_11 - x10_11 >= -2
tri1_3_10_12: t3_10_12 - x3_10 <= 0
tri2_3_10_12: t3_10_12 - x3_12 <= 0
tri3_3_10_12: t3_10_12 - x10_12 <= 0
tri4_3_10_12: t3_10_12 - x3_10 - x3_12 - x10_12 >= -2
tri1_3_10_13: t3_10_13 - x3_10 <= 0
tri2_3_10_13: t3_10_13 - x3_13 <= 0
tri3_3_10_13: t3_10_13 - x10_13 <= 0
tri4_3_10_13: t3_10_13 - x3_10 - x3_13 - x10_13 >= -2
tri1_3_10_14: t3_10_14 - x3_10 <= 0
tri2_3_10_14: t3_10_14 - x3_14 <= 0
tri3_3_10_14: t3_10_14 - x10_14 <= 0
tri4_3_10_14: t3_10_14 - x3_10 - x3_14 - x10_14 >= -2
tri1_3_10_15: t3_10_15 - x3_10 <= 0
tri2_3_10_15: t3_10_15 - x3_15 <= 0
tri3_3_10_15: t3_10_15 - x10_15 <= 0
tri4_3_10_15: t3_10_15 - x3_10 - x3_15 - x10_15 >= -2
tri1_3_10_16: t3_10_16 - x3_10 <= 0
tri2_3_10_16: t3_10_16 - x3_16 <= 0
tri3_3_10_16: t3_10_16 - x10_16 <= 0
tri4_3_10_16: t3_10_16 - x3_10 - x3_16 - x10_16 >= -2
tri1_3_10_17: t3_10_17 - x3_10 <= 0
tri2_3_10_17: t3_10_17 - x3_17 <= 0
tri3_3_10_17: t3_10_17 - x10_17 <= 0
tri4_3_10_17: t3_10_17 - x3_10 - x3_17 - x10_17 >= -2
tri1_3_10_18: t3_10_18 - x3_10 <= 0
tri2_3_10_18: t3_10_18 - x3_18 <= 0
tri3_3_10_18: t3_10_18 - x10_18 <= 0
tri4_3_10_18: t3_10_18 - x3_10 - x3_18 - x10_18 >= -2
tri1_3_10_19: t3_10_19 - x3_10 <= 0
tri2_3_10_19: t3_10_19 - x3_19 <= 0
tri3_3_10_19: t3_10_19 - x10_19 <= 0
tri4_3_10_19: t3_10_19 - x3_10 - x3_19 - x10_19 >= -2
tri1_3_10_20: t3_10_20 - x3_10 <= 0
tri2_3_10_20: t3_10_20 - x3_20 <= 0
tri3_3_10_20: t3_10_20 - x10_20 <= 0
tri4_3_10_20: t3_10_20 - x3_10 - x3_20 - x10_20 >= -2
tri1_3_10_21: t3_10_21 - x3_10 <= 0
tri2_3_10_21: t3_10_21 - x3_21 <= 0
tri3_3_10_21: t3_10_21 - x10_21 <= 0
tri4_3_10_21: t3_10_21 - x3_10 - x3_21 - x10_21 >= -2
tri1_3_10_22: t3_10_22 - x3_10 <= 0
tri2_3_10_22: t3_10_22 - x3_22 <= 0
tri3_3_10_22: t3_10_22 - x10_22 <= 0
tri4_3_10_22: t3_10_22 - x3_10 - x3_22 - x10_22 >= -2
tri1_3_10_23: t3_10_23 - x3_10 <= 0
tri2_3_10_23: t3_10_23 - x3_23 <= 0
tri3_3_10_23: t3_10_23 - x10_23 <= 0
tri4_3_10_23: t3_10_23 - x3_10 - x3_23 - x10_23 >= -2
tri1_3_11_12: t3_11_12 - x3_11 <= 0
tri2_3_11_12: t3_11_12 - x3_12 <= 0
tri3_3_11_12: t3_11_12 - x11_12 <= 0
tri4_3_11_12: t3_11_12 - x3_11 - x3_12 - x11_12 >= -2
tri1_3_11_13: t3_11_13 - x3_11 <= 0
tri2_3_11_13: t3_11_13 - x3_13 <= 0
tri3_3_11_13: t3_11_13 - x11_13 <= 0
tri4_3_11_13: t3_11_13 - x3_11 - x3_13 - x11_13 >= -2
tri1_3_11_14: t3_11_14 - x3_11 <= 0
tri2_3_11_14: t3_11_14 - x3_14 <= 0
tri3_3_11_14: t3_11_14 - x11_14 <= 0
tri4_3_11_14: t3_11_14 - x3_11 - x3_14 - x11_14 >= -2
tri1_3_11_15: t3_11_15 - x3_11 <= 0
tri2_3_11_15: t3_11_15 - x3_15 <= 0
tri3_3_11_15: t3_11_15 - x11_15 <= 0
tri4_3_11_15: t3_11_15 - x3_11 - x3_15 - x11_15 >= -2
tri1_3_11_16: t3_11_16 - x3_11 <= 0
tri2_3_11_16: t3_11_16 - x3_16 <= 0
tri3_3_11_16: t3_11_16 - x11_16 <= 0
tri4_3_11_16: t3_11_16 - x3_11 - x3_16 - x11_16 >= -2
tri1_3_11_17: t3_11_17 - x3_11 <= 0
tri2_3_11_17: t3_11_17 - x3_17 <= 0
tri3_3_11_17: t3_11_17 - x11_17 <= 0
tri4_3_11_17: t3_11_17 - x3_11 - x3_17 - x11_17 >= -2
tri1_3_11_18: t3_11_18 - x3_11 <= 0
tri2_3_11_18: t3_11_18 - x3_18 <= 0
tri3_3_11_18: t3_11_18 - x11_18 <= 0
tri4_3_11_18: t3_11_18 - x3_11 - x3_18 - x11_18 >= -2
tri1_3_11_19: t3_11_19 - x3_11 <= 0
tri2_3_11_19: t3_11_19 - x3_19 <= 0
tri3_3_11_19: t3_11_19 - x11_19 <= 0
tri4_3_11_19: t3_11_19 - x3_11 - x3_19 - x11_19 >= -2
tri1_3_11_20: t3_11_20 - x3_11 <= 0
tri2_3_11_20: t3_11_20 - x3_20 <= 0
tri3_3_11_20: t3_11_20 - x11_20 <= 0
tri4_3_11_20: t3_11_20 - x3_11 - x3_20 - x11_20 >= -2
tri1_3_11_21: t3_11_21 - x3_11 <= 0
tri2_3_11_21: t3_11_21 - x3_21 <= 0
tri3_3_11_21: t3_11_21 - x11_21 <= 0
tri4_3_11_21: t3_11_21 - x3_11 - x3_21 - x11_21 >= -2
tri1_3_11_22: t3_11_22 - x3_11 <= 0
tri2_3_11_22: t3_11_22 - x3_22 <= 0
tri3_3_11_22: t3_11_22 - x11_22 <= 0
tri4_3_11_22: t3_11_22 - x3_11 - x3_22 - x11_22 >= -2
tri1_3_11_23: t3_11_23 - x3_11 <= 0
tri2_3_11_23: t3_11_23 - x3_23 <= 0
tri3_3_11_23: t3_11_23 - x11_23 <= 0
tri4_3_11_23: t3_11_23 - x3_11 - x3_23 - x11_23 >= -2
tri1_3_12_13: t3_12_13 - x3_12 <= 0
tri2_3_12_13: t3_12_13 - x3_13 <= 0
tri3_3_12_13: t3_12_13 - x12_13 <= 0
tri4_3_12_13: t3_12_13 - x3_12 - x3_13 - x12_13 >= -2
tri1_3_12_14: t3_12_14 - x3_12 <= 0
tri2_3_12_14: t3_12_14 - x3_14 <= 0
tri3_3_12_14: t3_12_14 - x12_14 <= 0
tri4_3_12_14: t3_12_14 - x3_12 - x3_14 - x12_14 >= -2
tri1_3_12_15: t3_12_15 - x3_12 <= 0
tri2_3_12_15: t3_12_15 - x3_15 <= 0
tri3_3_12_15: t3_12_15 - x12_15 <= 0
tri4_3_12_15: t3_12_15 - x3_12 - x3_15 - x12_15 >= -2
tri1_3_12_16: t3_12_16 - x3_12 <= 0
tri2_3_12_16: t3_12_16 - x3_16 <= 0
tri3_3_12_16: t3_12_16 - x12_16 <= 0
tri4_3_12_16: t3_12_16 - x3_12 - x3_16 - x12_16 >= -2
tri1_3_12_17: t3_12_17 - x3_12 <= 0
tri2_3_12_17: t3_12_17 - x3_17 <= 0
tri3_3_12_17: t3_12_17 - x12_17 <= 0
tri4_3_12_17: t3_12_17 - x3_12 - x3_17 - x12_17 >= -2
tri1_3_12_18: t3_12_18 - x3_12 <= 0
tri2_3_12_18: t3_12_18 - x3_18 <= 0
tri3_3_12_18: t3_12_18 - x12_18 <= 0
tri4_3_12_18: t3_12_18 - x3_12 - x3_18 - x12_18 >= -2
tri1_3_12_19: t3_12_19 - x3_12 <= 0
tri2_3_12_19: t3_12_19 - x3_19 <= 0
tri3_3_12_19: t3_12_19 - x12_19 <= 0
tri4_3_12_19: t3_12_19 - x3_12 - x3_19 - x12_19 >= -2
tri1_3_12_20: t3_12_20 - x3_12 <= 0
tri2_3_12_20: t3_12_20 - x3_20 <= 0
tri3_3_12_20: t3_12_20 - x12_20 <= 0
tri4_3_12_20: t3_12_20 - x3_12 - x3_20 - x12_20 >= -2
tri1_3_12_21: t3_12_21 - x3_12 <= 0
tri2_3_12_21: t3_12_21 - x3_21 <= 0
tri3_3_12_21: t3_12_21 - x12_21 <= 0
tri4_3_12_21: t3_12_21 - x3_12 - x3_21 - x12_21 >= -2
tri1_3_12_22: t3_12_22 - x3_12 <= 0
tri2_3_12_22: t3_12_22 - x3_22 <= 0
tri3_3_12_22: t3_12_22 - x12_22 <= 0
tri4_3_12_22: t3_12_22 - x3_12 - x3_22 - x12_22 >= -2
tri1_3_12_23: t3_12_23 - x3_12 <= 0
tri2_3_12_23: t3_12_23 - x3_23 <= 0
tri3_3_12_23: t3_12_23 - x12_23 <= 0
tri4_3_12_23: t3_12_23 - x3_12 - x3_23 - x12_23 >= -2
tri1_3_13_14: t3_13_14 - x3_13 <= 0
tri2_3_13_14: t3_13_14 - x3_14 <= 0
tri3_3_13_14: t3_13_14 - x13_14 <= 0
tri4_3_13_14: t3_13_14 - x3_13 - x3_14 - x13_14 >= -2
tri1_3_13_15: t3_13_15 - x3_13 <= 0
tri2_3_13_15: t3_13_15 - x3_15 <= 0
tri3_3_13_15: t3_13_15 - x13_15 <= 0
tri4_3_13_15: t3_13_15 - x3_13 - x3_15 - x13_15 >= -2
tri1_3_13_16: t3_13_16 - x3_13 <= 0
tri2_3_13_16: t3_13_16 - x3_16 <= 0
tri3_3_13_16: t3_13_16 - x13_16 <= 0
tri4_3_13_16: t3_13_16 - x3_13 - x3_16 - x13_16 >= -2
tri1_3_13_17: t3_13_17 - x3_13 <= 0
tri2_3_13_17: t3_13_17 - x3_17 <= 0
tri3_3_13_17: t3_13_17 - x13_17 <= 0
tri4_3_13_17: t3_13_17 - x3_13 - x3_17 - x13_17 >= -2
tri1_3_13_18: t3_13_18 - x3_13 <= 0
tri2_3_13_18: t3_13_18 - x3_18 <= 0
tri3_3_13_18: t3_13_18 - x13_18 <= 0
tri4_3_13_18: t3_13_18 - x3_13 - x3_18 - x13_18 >= -2
tri1_3_13_19: t3_13_19 - x3_13 <= 0
tri2_3_13_19: t3_13_19 - x3_19 <= 0
tri3_3_13_19: t3_13_19 - x13_19 <= 0
tri4_3_13_19: t3_13_19 - x3_13 - x3_19 - x13_19 >= -2
tri1_3_13_20: t3_13_20 - x3_13 <= 0
tri2_3_13_20: t3_13_20 - x3_20 <= 0
tri3_3_13_20: t3_13_20 - x13_20 <= 0
tri4_3_13_20: t3_13_20 - x3_13 - x3_20 - x13_20 >= -2
tri1_3_13_21: t3_13_21 - x3_13 <= 0
tri2_3_13_21: t3_13_21 - x3_21 <= 0
tri3_3_13_21: t3_13_21 - x13_21 <= 0
tri4_3_13_21: t3_13_21 - x3_13 - x3_21 - x13_21 >= -2
tri1_3_13_22: t3_13_22 - x3_13 <= 0
tri2_3_13_22: t3_13_22 - x3_22 <= 0
tri3_3_13_22: t3_13_22 - x13_22 <= 0
tri4_3_13_22: t3_13_22 - x3_13 - x3_22 - x13_22 >= -2
tri1_3_13_23: t3_13_23 - x3_13 <= 0
tri2_3_13_23: t3_13_23 - x3_23 <= 0
tri3_3_13_23: t3_13_23 - x13_23 <= 0
tri4_3_13_23: t3_13_23 - x3_13 - x3_23 - x13_23 >= -2
tri1_3_14_15: t3_14_15 - x3_14 <= 0
tri2_3_14_15: t3_14_15 - x3_15 <= 0
tri3_3_14_15: t3_14_15 - x14_15 <= 0
tri4_3_14_15: t3_14_15 - x3_14 - x3_15 - x14_15 >= -2
tri1_3_14_16: t3_14_16 - x3_14 <= 0
tri2_3_14_16: t3_14_16 - x3_16 <= 0
tri3_3_14_16: t3_14_16 - x14_16 <= 0
tri4_3_14_16: t3_14_16 - x3_14 - x3_16 - x14_16 >= -2
tri1_3_14_17: t3_14_17 - x3_14 <= 0
tri2_3_14_17: t3_14_17 - x3_17 <= 0
tri3_3_14_17: t3_14_17 - x14_17 <= 0
tri4_3_14_17: t3_14_17 - x3_14 - x3_17 - x14_17 >= -2
tri1_3_14_18: t3_14_18 - x3_14 <= 0
tri2_3_14_18: t3_14_18 - x3_18 <= 0
tri3_3_14_18: t3_14_18 - x14_18 <= 0
tri4_3_14_18: t3_14_18 - x3_14 - x3_18 - x14_18 >= -2
tri1_3_14_19: t3_14_19 - x3_14 <= 0
tri2_3_14_19: t3_14_19 - x3_19 <= 0
tri3_3_14_19: t3_14_19 - x14_19 <= 0
tri4_3_14_19: t3_14_19 - x3_14 - x3_19 - x14_19 >= -2
tri1_3_14_20: t3_14_20 - x3_14 <= 0
tri2_3_14_20: t3_14_20 - x3_20 <= 0
tri3_3_14_20: t3_14_20 - x14_20 <= 0
tri4_3_14_20: t3_14_20 - x3_14 - x3_20 - x14_20 >= -2
tri1_3_14_21: t3_14_21 - x3_14 <= 0
tri2_3_14_21: t3_14_21 - x3_21 <= 0
tri3_3_14_21: t3_14_21 - x14_21 <= 0
tri4_3_14_21: t3_14_21 - x3_14 - x3_21 - x14_21 >= -2
tri1_3_14_22: t3_14_22 - x3_14 <= 0
tri2_3_14_22: t3_14_22 - x3_22 <= 0
tri3_3_14_22: t3_14_22 - x14_22 <= 0
tri4_3_14_22: t3_14_22 - x3_14 - x3_22 - x14_22 >= -2
tri1_3_14_23: t3_14_23 - x3_14 <= 0
tri2_3_14_23: t3_14_23 - x3_23 <= 0
tri3_3_14_23: t3_14_23 - x14_23 <= 0
tri4_3_14_23: t3_14_23 - x3_14 - x3_23 - x14_23 >= -2
tri1_3_15_16: t3_15_16 - x3_15 <= 0
tri2_3_15_16: t3_15_16 - x3_16 <= 0
tri3_3_15_16: t3_15_16 - x15_16 <= 0
tri4_3_15_16: t3_15_16 - x3_15 - x3_16 - x15_16 >= -2
tri1_3_15_17: t3_15_17 - x3_15 <= 0
tri2_3_15_17: t3_15_17 - x3_17 <= 0
tri3_3_15_17: t3_15_17 - x15_17 <= 0
tri4_3_15_17: t3_15_17 - x3_15 - x3_17 - x15_17 >= -2
tri1_3_15_18: t3_15_18 - x3_15 <= 0
tri2_3_15_18: t3_15_18 - x3_18 <= 0
tri3_3_15_18: t3_15_18 - x15_18 <= 0
tri4_3_15_18: t3_15_18 - x3_15 - x3_18 - x15_18 >= -2
tri1_3_15_19: t3_15_19 - x3_15 <= 0
tri2_3_15_19: t3_15_19 - x3_19 <= 0
tri3_3_15_19: t3_15_19 - x15_19 <= 0
tri4_3_15_19: t3_15_19 - x3_15 - x3_19 - x15_19 >= -2
tri1_3_15_20: t3_15_20 - x3_15 <= 0
tri2_3_15_20: t3_15_20 - x3_20 <= 0
tri3_3_15_20: t3_15_20 - x15_20 <= 0
tri4_3_15_20: t3_15_20 - x3_15 - x3_20 - x15_20 >= -2
tri1_3_15_21: t3_15_21 - x3_15 <= 0
tri2_3_15_21: t3_15_21 - x3_21 <= 0
tri3_3_15_21: t3_15_21 - x15_21 <= 0
tri4_3_15_21: t3_15_21 - x3_15 - x3_21 - x15_21 >= -2
tri1_3_15_22: t3_15_22 - x3_15 <= 0
tri2_3_15_22: t3_15_22 - x3_22 <= 0
tri3_3_15_22: t3_15_22 - x15_22 <= 0
tri4_3_15_22: t3_15_22 - x3_15 - x3_22 - x15_22 >= -2
tri1_3_15_23: t3_15_23 - x3_15 <= 0
tri2_3_15_23: t3_15_23 - x3_23 <= 0
tri3_3_15_23: t3_15_23 - x15_23 <= 0
tri4_3_15_23: t3_15_23 - x3_15 - x3_23 - x15_23 >= -2
tri1_3_16_17: t3_16_17 - x3_16 <= 0
tri2_3_16_17: t3_16_17 - x3_17 <= 0
tri3_3_16_17: t3_16_17 - x16_17 <= 0
tri4_3_16_17: t3_16_17 - x3_16 - x3_17 - x16_17 >= -2
tri1_3_16_18: t3_16_18 - x3_16 <= 0
tri2_3_16_18: t3_16_18 - x3_18 <= 0
tri3_3_16_18: t3_16_18 - x16_18 <= 0
tri4_3_16_18: t3_16_18 - x3_16 - x3_18 - x16_18 >= -2
tri1_3_16_19: t3_16_19 - x3_16 <= 0
tri2_3_16_19: t3_16_19 - x3_19 <= 0
tri3_3_16_19: t3_16_19 - x16_19 <= 0
tri4_3_16_19: t3_16_19 - x3_16 - x3_19 - x16_19 >= -2
tri1_3_16_20: t3_16_20 - x3_16 <= 0
tri2_3_16_20: t3_16_20 - x3_20 <= 0
tri3_3_16_20: t3_16_20 - x16_20 <= 0
tri4_3_16_20: t3_16_20 - x3_16 - x3_20 - x16_20 >= -2
tri1_3_16_21: t3_16_21 - x3_16 <= 0
tri2_3_16_21: t3_16_21 - x3_21 <= 0
tri3_3_16_21: t3_16_21 - x16_21 <= 0
tri4_3_16_21: t3_16_21 - x3_16 - x3_21 - x16_21 >= -2
tri1_3_16_22: t3_16_22 - x3_16 <= 0
tri2_3_16_22: t3_16_22 - x3_22 <= 0
tri3_3_16_22: t3_16_22 - x16_22 <= 0
tri4_3_16_22: t3_16_22 - x3_16 - x3_22 - x16_22 >= -2
tri1_3_16_23: t3_16_23 - x3_16 <= 0
tri2_3_16_23: t3_16_23 - x3_23 <= 0
tri3_3_16_23: t3_16_23 - x16_23 <= 0
tri4_3_16_23: t3_16_23 - x3_16 - x3_23 - x16_23 >= -2
tri1_3_17_18: t3_17_18 - x3_17 <= 0
tri2_3_17_18: t3_17_18 - x3_18 <= 0
tri3_3_17_18: t3_17_18 - x17_18 <= 0
tri4_3_17_18: t3_17_18 - x3_17 - x3_18 - x17_18 >= -2
tri1_3_17_19: t3_17_19 - x3_17 <= 0
tri2_3_17_19: t3_17_19 - x3_19 <= 0
tri3_3_17_19: t3_17_19 - x17_19 <= 0
tri4_3_17_19: t3_17_19 - x3_17 - x3_19 - x17_19 >= -2
tri1_3_17_20: t3_17_20 - x3_17 <= 0
tri2_3_17_20: t3_17_20 - x3_20 <= 0
tri3_3_17_20: t3_17_20 - x17_20 <= 0
tri4_3_17_20: t3_17_20 - x3_17 - x3_20 - x17_20 >= -2
tri1_3_17_21: t3_17_21 - x3_17 <= 0
tri2_3_17_21: t3_17_21 - x3_21 <= 0
tri3_3_17_21: t3_17_21 - x17_21 <= 0
tri4_3_17_21: t3_17_21 - x3_17 - x3_21 - x17_21 >= -2
tri1_3_17_22: t3_17_22 - x3_17 <= 0
tri2_3_17_22: t3_17_22 - x3_22 <= 0
tri3_3_17_22: t3_17_22 - x17_22 <= 0
tri4_3_17_22: t3_17_22 - x3_17 - x3_22 - x17_22 >= -2
tri1_3_17_23: t3_17_23 - x3_17 <= 0
tri2_3_17_23: t3_17_23 - x3_23 <= 0
tri3_3_17_23: t3_17_23 - x17_23 <= 0
tri4_3_17_23: t3_17_23 - x3_17 - x3_23 - x17_23 >= -2
tri1_3_18_19: t3_18_19 - x3_18 <= 0
tri2_3_18_19: t3_18_19 - x3_19 <= 0
tri3_3_18_19: t3_18_19 - x18_19 <= 0
tri4_3_18_19: t3_18_19 - x3_18 - x3_19 - x18_19 >= -2
tri1_3_18_20: t3_18_20 - x3_18 <= 0
tri2_3_18_20: t3_18_20 - x3_20 <= 0
tri3_3_18_20: t3_18_20 - x18_20 <= 0
tri4_3_18_20: t3_18_20 - x3_18 - x3_20 - x18_20 >= -2
tri1_3_18_21: t3_18_21 - x3_18 <= 0
tri2_3_18_21: t3_18_21 - x3_21 <= 0
tri3_3_18_21: t3_18_21 - x18_21 <= 0
tri4_3_18_21: t3_18_21 - x3_18 - x3_21 - x18_21 >= -2
tri1_3_18_22: t3_18_22 - x3_18 <= 0
tri2_3_18_22: t3_18_22 - x3_22 <= 0
tri3_3_18_22: t3_18_22 - x18_22 <= 0
tri4_3_18_22: t3_18_22 - x3_18 - x3_22 - x18_22 >= -2
tri1_3_18_23: t3_18_23 - x3_18 <= 0
tri2_3_18_23: t3_18_23 - x3_23 <= 0
tri3_3_18_23: t3_18_23 - x18_23 <= 0
tri4_3_18_23: t3_18_23 - x3_18 - x3_23 - x18_23 >= -2
tri1_3_19_20: t3_19_20 - x3_19 <= 0
tri2_3_19_20: t3_19_20 - x3_20 <= 0
tri3_3_19_20: t3_19_20 - x19_20 <= 0
tri4_3_19_20: t3_19_20 - x3_19 - x3_20 - x19_20 >= -2
tri1_3_19_21: t3_19_21 - x3_19 <= 0
tri2_3_19_21: t3_19_21 - x3_21 <= 0
tri3_3_19_21: t3_19_21 - x19_21 <= 0
tri4_3_19_21: t3_19_21 - x3_19 - x3_21 - x19_21 >= -2
tri1_3_19_22: t3_19_22 - x3_19 <= 0
tri2_3_19_22: t3_19_22 - x3_22 <= 0
tri3_3_19_22: t3_19_22 - x19_22 <= 0
tri4_3_19_22: t3_19_22 - x3_19 - x3_22 - x19_22 >= -2
tri1_3_19_23: t3_19_23 - x3_19 <= 0
tri2_3_19_23: t3_19_23 - x3_23 <= 0
tri3_3_19_23: t3_19_23 - x19_23 <= 0
tri4_3_19_23: t3_19_23 - x3_19 - x3_23 - x19_23 >= -2
tri1_3_20_21: t3_20_21 - x3_20 <= 0
tri2_3_20_21: t3_20_21 - x3_21 <= 0
tri3_3_20_21: t3_20_21 - x20_21 <= 0
tri4_3_20_21: t3_20_21 - x3_20 - x3_21 - x20_21 >= -2
tri1_3_20_22: t3_20_22 - x3_20 <= 0
tri2_3_20_22: t3_20_22 - x3_22 <= 0
tri3_3_20_22: t3_20_22 - x20_22 <= 0
tri4_3_20_22: t3_20_22 - x3_20 - x3_22 - x20_22 >= -2
tri1_3_20_23: t3_20_23 - x3_20 <= 0
tri2_3_20_23: t3_20_23 - x3_23 <= 0
tri3_3_20_23: t3_20_23 - x20_23 <= 0
tri4_3_20_23: t3_20_23 - x3_20 - x3_23 - x20_23 >= -2
tri1_3_21_22: t3_21_22 - x3_21 <= 0
tri2_3_21_22: t3_21_22 - x3_22 <= 0
tri3_3_21_22: t3_21_22 - x21_22 <= 0
tri4_3_21_22: t3_21_22 - x3_21 - x3_22 - x21_22 >= -2
tri1_3_21_23: t3_21_23 - x3_21 <= 0
tri2_3_21_23: t3_21_23 - x3_23 <= 0
tri3_3_21_23: t3_21_23 - x21_23 <= 0
tri4_3_21_23: t3_21_23 - x3_21 - x3_23 - x21_23 >= -2
tri1_3_22_23: t3_22_23 - x3_22 <= 0
tri2_3_22_23: t3_22_23 - x3_23 <= 0
tri3_3_22_23: t3_22_23 - x22_23 <= 0
tri4_3_22_23: t3_22_23 - x3_22 - x3_23 - x22_23 >= -2
tri1_4_5_6: t4_5_6 - x4_5 <= 0
tri2_4_5_6: t4_5_6 - x4_6 <= 0
tri3_4_5_6: t4_5_6 - x5_6 <= 0
tri4_4_5_6: t4_5_6 - x4_5 - x4_6 - x5_6 >= -2
tri1_4_5_7: t4_5_7 - x4_5 <= 0
tri2_4_5_7: t4_5_7 - x4_7 <= 0
tri3_4_5_7: t4_5_7 - x5_7 <= 0
tri4_4_5_7: t4_5_7 - x4_5 - x4_7 - x5_7 >= -2
tri1_4_5_8: t4_5_8 - x4_5 <= 0
tri2_4_5_8: t4_5_8 - x4_8 <= 0
tri3_4_5_8: t4_5_8 - x5_8 <= 0
tri4_4_5_8: t4_5_8 - x4_5 - x4_8 - x5_8 >= -2
tri1_4_5_9: t4_5_9 - x4_5 <= 0
tri2_4_5_9: t4_5_9 - x4_9 <= 0
tri3_4_5_9: t4_5_9 - x5_9 <= 0
tri4_4_5_9: t4_5_9 - x4_5 - x4_9 - x5_9 >= -2
tri1_4_5_10: t4_5_10 - x4_5 <= 0
tri2_4_5_10: t4_5_10 - x4_10 <= 0
tri3_4_5_10: t4_5_10 - x5_10 <= 0
tri4_4_5_10: t4_5_10 - x4_5 - x4_10 - x5_10 >= -2
tri1_4_5_11: t4_5_11 - x4_5 <= 0
tri2_4_5_11: t4_5_11 - x4_11 <= 0
tri3_4_5_11: t4_5_11 - x5_11 <= 0
tri4_4_5_11: t4_5_11 - x4_5 - x4_11 - x5_11 >= -2
tri1_4_5_12: t4_5_12 - x4_5 <= 0
tri2_4_5_12: t4_5_12 - x4_12 <= 0
tri3_4_5_12: t4_5_12 - x5_12 <= 0
tri4_4_5_12: t4_5_12 - x4_5 - x4_12 - x5_12 >= -2
tri1_4_5_13: t4_5_13 - x4_5 <= 0
tri2_4_5_13: t4_5_13 - x4_13 <= 0
tri3_4_5_13: t4_5_13 - x5_13 <= 0
tri4_4_5_13: t4_5_13 - x4_5 - x4_13 - x5_13 >= -2
tri1_4_5_14: t4_5_14 - x4_5 <= 0
tri2_4_5_14: t4_5_14 - x4_14 <= 0
tri3_4_5_14: t4_5_14 - x5_14 <= 0
tri4_4_5_14: t4_5_14 - x4_5 - x4_14 - x5_14 >= -2
tri1_4_5_15: t4_5_15 - x4_5 <= 0
tri2_4_5_15: t4_5_15 - x4_15 <= 0
tri3_4_5_15: t4_5_15 - x5_15 <= 0
tri4_4_5_15: t4_5_15 - x4_5 - x4_15 - x5_15 >= -2
tri1_4_5_16: t4_5_16 - x4_5 <= 0
tri2_4_5_16: t4_5_16 - x4_16 <= 0
tri3_4_5_16: t4_5_16 - x5_16 <= 0
tri4_4_5_16: t4_5_16 - x4_5 - x4_16 - x5_16 >= -2
tri1_4_5_17: t4_5_17 - x4_5 <= 0
tri2_4_5_17: t4_5_17 - x4_17 <= 0
tri3_4_5_17: t4_5_17 - x5_17 <= 0
tri4_4_5_17: t4_5_17 - x4_5 - x4_17 - x5_17 >= -2
tri1_4_5_18: t4_5_18 - x4_5 <= 0
tri2_4_5_18: t4_5_18 - x4_18 <= 0
tri3_4_5_18: t4_5_18 - x5_18 <= 0
tri4_4_5_18: t4_5_18 - x4_5 - x4_18 - x5_18 >= -2
tri1_4_5_19: t4_5_19 - x4_5 <= 0
tri2_4_5_19: t4_5_19 - x4_19 <= 0
tri3_4_5_19: t4_5_19 - x5_19 <= 0
tri4_4_5_19: t4_5_19 - x4_5 - x4_19 - x5_19 >= -2
tri1_4_5_20: t4_5_20 - x4_5 <= 0
tri2_4_5_20: t4_5_20 - x4_20 <= 0
tri3_4_5_20: t4_5_20 - x5_20 <= 0
tri4_4_5_20: t4_5_20 - x4_5 - x4_20 - x5_20 >= -2
tri1_4_5_21: t4_5_21 - x4_5 <= 0
tri2_4_5_21: t4_5_21 - x4_21 <= 0
tri3_4_5_21: t4_5_21 - x5_21 <= 0
tri4_4_5_21: t4_5_21 - x4_5 - x4_21 - x5_21 >= -2
tri1_4_5_22: t4_5_22 - x4_5 <= 0
tri2_4_5_22: t4_5_22 - x4_22 <= 0
tri3_4_5_22: t4_5_22 - x5_22 <= 0
tri4_4_5_22: t4_5_22 - x4_5 - x4_22 - x5_22 >= -2
tri1_4_5_23: t4_5_23 - x4_5 <= 0
tri2_4_5_23: t4_5_23 - x4_23 <= 0
tri3_4_5_23: t4_5_23 - x5_23 <= 0
tri4_4_5_23: t4_5_23 - x4_5 - x4_23 - x5_23 >= -2
tri1_4_6_7: t4_6_7 - x4_6 <= 0
tri2_4_6_7: t4_6_7 - x4_7 <= 0
tri3_4_6_7: t4_6_7 - x6_7 <= 0
tri4_4_6_7: t4_6_7 - x4_6 - x4_7 - x6_7 >= -2
tri1_4_6_8: t4_6_8 - x4_6 <= 0
tri2_4_6_8: t4_6_8 - x4_8 <= 0
tri3_4_6_8: t4_6_8 - x6_8 <= 0
tri4_4_6_8: t4_6_8 - x4_6 - x4_8 - x6_8 >= -2
tri1_4_6_9: t4_6_9 - x4_6 <= 0
tri2_4_6_9: t4_6_9 - x4_9 <= 0
tri3_4_6_9: t4_6_9 - x6_9 <= 0
tri4_4_6_9: t4_6_9 - x4_6 - x4_9 - x6_9 >= -2
tri1_4_6_10: t4_6_10 - x4_6 <= 0
tri2_4_6_10: t4_6_10 - x4_10 <= 0
tri3_4_6_10: t4_6_10 - x6_10 <= 0
tri4_4_6_10: t4_6_10 - x4_6 - x4_10 - x6_10 >= -2
tri1_4_6_11: t4_6_11 - x4_6 <= 0
tri2_4_6_11: t4_6_11 - x4_11 <= 0
tri3_4_6_11: t4_6_11 - x6_11 <= 0
tri4_4_6_11: t4_6_11 - x4_6 - x4_11 - x6_11 >= -2
tri1_4_6_12: t4_6_12 - x4_6 <= 0
tri2_4_6_12: t4_6_12 - x4_12 <= 0
tri3_4_6_12: t4_6_12 - x6_12 <= 0
tri4_4_6_12: t4_6_12 - x4_6 - x4_12 - x6_12 >= -2
tri1_4_6_13: t4_6_13 - x4_6 <= 0
tri2_4_6_13: t4_6_13 - x4_13 <= 0
tri3_4_6_13: t4_6_13 - x6_13 <= 0
tri4_4_6_13: t4_6_13 - x4_6 - x4_13 - x6_13 >= -2
tri1_4_6_14: t4_6_14 - x4_6 <= 0
tri2_4_6_14: t4_6_14 - x4_14 <= 0
tri3_4_6_14: t4_6_14 - x6_14 <= 0
tri4_4_6_14: t4_6_14 - x4_6 - x4_14 - x6_14 >= -2
tri1_4_6_15: t4_6_15 - x4_6 <= 0
tri2_4_6_15: t4_6_15 - x4_15 <= 0
tri3_4_6_15: t4_6_15 - x6_15 <= 0
tri4_4_6_15: t4_6_15 - x4_6 - x4_15 - x6_15 >= -2
tri1_4_6_16: t4_6_16 - x4_6 <= 0
tri2_4_6_16: t4_6_16 - x4_16 <= 0
tri3_4_6_16: t4_6_16 - x6_16 <= 0
tri4_4_6_16: t4_6_16 - x4_6 - x4_16 - x6_16 >= -2
tri1_4_6_17: t4_6_17 - x4_6 <= 0
tri2_4_6_17: t4_6_17 - x4_17 <= 0
tri3_4_6_17: t4_6_17 - x6_17 <= 0
tri4_4_6_17: t4_6_17 - x4_6 - x4_17 - x6_17 >= -2
tri1_4_6_18: t4_6_18 - x4_6 <= 0
tri2_4_6_18: t4_6_18 - x4_18 <= 0
tri3_4_6_18: t4_6_18 - x6_18 <= 0
tri4_4_6_18: t4_6_18 - x4_6 - x4_18 - x6_18 >= -2
tri1_4_6_19: t4_6_19 - x4_6 <= 0
tri2_4_6_19: t4_6_19 - x4_19 <= 0
tri3_4_6_19: t4_6_19 - x6_19 <= 0
tri4_4_6_19: t4_6_19 - x4_6 - x4_19 - x6_19 >= -2
tri1_4_6_20: t4_6_20 - x4_6 <= 0
tri2_4_6_20: t4_6_20 - x4_20 <= 0
tri3_4_6_20: t4_6_20 - x6_20 <= 0
tri4_4_6_20: t4_6_20 - x4_6 - x4_20 - x6_20 >= -2
tri1_4_6_21: t4_6_21 - x4_6 <= 0
tri2_4_6_21: t4_6_21 - x4_21 <= 0
tri3_4_6_21: t4_6_21 - x6_21 <= 0
tri4_4_6_21: t4_6_21 - x4_6 - x4_21 - x6_21 >= -2
tri1_4_6_22: t4_6_22 - x4_6 <= 0
tri2_4_6_22: t4_6_22 - x4_22 <= 0
tri3_4_6_22: t4_6_22 - x6_22 <= 0
tri4_4_6_22: t4_6_22 - x4_6 - x4_22 - x6_22 >= -2
tri1_4_6_23: t4_6_23 - x4_6 <= 0
tri2_4_6_23: t4_6_23 - x4_23 <= 0
tri3_4_6_23: t4_6_23 - x6_23 <= 0
tri4_4_6_23: t4_6_23 - x4_6 - x4_23 - x6_23 >= -2
tri1_4_7_8: t4_7_8 - x4_7 <= 0
tri2_4_7_8: t4_7_8 - x4_8 <= 0
tri3_4_7_8: t4_7_8 - x7_8 <= 0
tri4_4_7_8: t4_7_8 - x4_7 - x4_8 - x7_8 >= -2
tri1_4_7_9: t4_7_9 - x4_7 <= 0
tri2_4_7_9: t4_7_9 - x4_9 <= 0
tri3_4_7_9: t4_7_9 - x7_9 <= 0
tri4_4_7_9: t4_7_9 - x4_7 - x4_9 - x7_9 >= -2
tri1_4_7_10: t4_7_10 - x4_7 <= 0
tri2_4_7_10: t4_7_10 - x4_10 <= 0
tri3_4_7_10: t4_7_10 - x7_10 <= 0
tri4_4_7_10: t4_7_10 - x4_7 - x4_10 - x7_10 >= -2
tri1_4_7_11: t4_7_11 - x4_7 <= 0
tri2_4_7_11: t4_7_11 - x4_11 <= 0
tri3_4_7_11: t4_7_11 - x7_11 <= 0
tri4_4_7_11: t4_7_11 - x4_7 - x4_11 - x7_11 >= -2
tri1_4_7_12: t4_7_12 - x4_7 <= 0
tri2_4_7_12: t4_7_12 - x4_12 <= 0
tri3_4_7_12: t4_7_12 - x7_12 <= 0
tri4_4_7_12: t4_7_12 - x4_7 - x4_12 - x7_12 >= -2
tri1_4_7_13: t4_7_13 - x4_7 <= 0
tri2_4_7_13: t4_7_13 - x4_13 <= 0
tri3_4_7_13: t4_7_13 - x7_13 <= 0
tri4_4_7_13: t4_7_13 - x4_7 - x4_13 - x7_13 >= -2
tri1_4_7_14: t4_7_14 - x4_7 <= 0
tri2_4_7_14: t4_7_14 - x4_14 <= 0
tri3_4_7_14: t4_7_14 - x7_14 <= 0
tri4_4_7_14: t4_7_14 - x4_7 - x4_14 - x7_14 >= -2
tri1_4_7_15: t4_7_15 - x4_7 <= 0
tri2_4_7_15: t4_7_15 - x4_15 <= 0
tri3_4_7_15: t4_7_15 - x7_15 <= 0
tri4_4_7_15: t4_7_15 - x4_7 - x4_15 - x7_15 >= -2
tri1_4_7_16: t4_7_16 - x4_7 <= 0
tri2_4_7_16: t4_7_16 - x4_16 <= 0
tri3_4_7_16: t4_7_16 - x7_16 <= 0
tri4_4_7_16: t4_7_16 - x4_7 - x4_16 - x7_16 >= -2
tri1_4_7_17: t4_7_17 - x4_7 <= 0
tri2_4_7_17: t4_7_17 - x4_17 <= 0
tri3_4_7_17: t4_7_17 - x7_17 <= 0
tri4_4_7_17: t4_7_17 - x4_7 - x4_17 - x7_17 >= -2
tri1_4_7_18: t4_7_18 - x4_7 <= 0
tri2_4_7_18: t4_7_18 - x4_18 <= 0
tri3_4_7_18: t4_7_18 - x7_18 <= 0
tri4_4_7_18: t4_7_18 - x4_7 - x4_18 - x7_18 >= -2
tri1_4_7_19: t4_7_19 - x4_7 <= 0
tri2_4_7_19: t4_7_19 - x4_19 <= 0
tri3_4_7_19: t4_7_19 - x7_19 <= 0
tri4_4_7_19: t4_7_19 - x4_7 - x4_19 - x7_19 >= -2
tri1_4_7_20: t4_7_20 - x4_7 <= 0
tri2_4_7_20: t4_7_20 - x4_20 <= 0
tri3_4_7_20: t4_7_20 - x7_20 <= 0
tri4_4_7_20: t4_7_20 - x4_7 - x4_20 - x7_20 >= -2
tri1_4_7_21: t4_7_21 - x4_7 <= 0
tri2_4_7_21: t4_7_21 - x4_21 <= 0
tri3_4_7_21: t4_7_21 - x7_21 <= 0
tri4_4_7_21: t4_7_21 - x4_7 - x4_21 - x7_21 >= -2
tri1_4_7_22: t4_7_22 - x4_7 <= 0
tri2_4_7_22: t4_7_22 - x4_22 <= 0
tri3_4_7_22: t4_7_22 - x7_22 <= 0
tri4_4_7_22: t4_7_22 - x4_7 - x4_22 - x7_22 >= -2
tri1_4_7_23: t4_7_23 - x4_7 <= 0
tri2_4_7_23: t4_7_23 - x4_23 <= 0
tri3_4_7_23: t4_7_23 - x7_23 <= 0
tri4_4_7_23: t4_7_23 - x4_7 - x4_23 - x7_23 >= -2
tri1_4_8_9: t4_8_9 - x4_8 <= 0
tri2_4_8_9: t4_8_9 - x4_9 <= 0
tri3_4_8_9: t4_8_9 - x8_9 <= 0
tri4_4_8_9: t4_8_9 - x4_8 - x4_9 - x8_9 >= -2
tri1_4_8_10: t4_8_10 - x4_8 <= 0
tri2_4_8_10: t4_8_10 - x4_10 <= 0
tri3_4_8_10: t4_8_10 - x8_10 <= 0
tri4_4_8_10: t4_8_10 - x4_8 - x4_10 - x8_10 >= -2
tri1_4_8_11: t4_8_11 - x4_8 <= 0
tri2_4_8_11: t4_8_11 - x4_11 <= 0
tri3_4_8_11: t4_8_11 - x8_11 <= 0
tri4_4_8_11: t4_8_11 - x4_8 - x4_11 - x8_11 >= -2
tri1_4_8_12: t4_8_12 - x4_8 <= 0
tri2_4_8_12: t4_8_12 - x4_12 <= 0
tri3_4_8_12: t4_8_12 - x8_12 <= 0
tri4_4_8_12: t4_8_12 - x4_8 - x4_12 - x8_12 >= -2
tri1_4_8_13: t4_8_13 - x4_8 <= 0
tri2_4_8_13: t4_8_13 - x4_13 <= 0
tri3_4_8_13: t4_8_13 - x8_13 <= 0
tri4_4_8_13: t4_8_13 - x4_8 - x4_13 - x8_13 >= -2
tri1_4_8_14: t4_8_14 - x4_8 <= 0
tri2_4_8_14: t4_8_14 - x4_14 <= 0
tri3_4_8_14: t4_8_14 - x8_14 <= 0
tri4_4_8_14: t4_8_14 - x4_8 - x4_14 - x8_14 >= -2
tri1_4_8_15: t4_8_15 - x4_8 <= 0
tri2_4_8_15: t4_8_15 - x4_15 <= 0
tri3_4_8_15: t4_8_15 - x8_15 <= 0
tri4_4_8_15: t4_8_15 - x4_8 - x4_15 - x8_15 >= -2
tri1_4_8_16: t4_8_16 - x4_8 <= 0
tri2_4_8_16: t4_8_16 - x4_16 <= 0
tri3_4_8_16: t4_8_16 - x8_16 <= 0
tri4_4_8_16: t4_8_16 - x4_8 - x4_16 - x8_16 >= -2
tri1_4_8_17: t4_8_17 - x4_8 <= 0
tri2_4_8_17: t4_8_17 - x4_17 <= 0
tri3_4_8_17: t4_8_17 - x8_17 <= 0
tri4_4_8_17: t4_8_17 - x4_8 - x4_17 - x8_17 >= -2
tri1_4_8_18: t4_8_18 - x4_8 <= 0
tri2_4_8_18: t4_8_18 - x4_18 <= 0
tri3_4_8_18: t4_8_18 - x8_18 <= 0
tri4_4_8_18: t4_8_18 - x4_8 - x4_18 - x8_18 >= -2
tri1_4_8_19: t4_8_19 - x4_8 <= 0
tri2_4_8_19: t4_8_19 - x4_19 <= 0
tri3_4_8_19: t4_8_19 - x8_19 <= 0
tri4_4_8_19: t4_8_19 - x4_8 - x4_19 - x8_19 >= -2
tri1_4_8_20: t4_8_20 - x4_8 <= 0
tri2_4_8_20: t4_8_20 - x4_20 <= 0
tri3_4_8_20: t4_8_20 - x8_20 <= 0
tri4_4_8_20: t4_8_20 - x4_8 - x4_20 - x8_20 >= -2
tri1_4_8_21: t4_8_21 - x4_8 <= 0
tri2_4_8_21: t4_8_21 - x4_21 <= 0
tri3_4_8_21: t4_8_21 - x8_21 <= 0
tri4_4_8_21: t4_8_21 - x4_8 - x4_21 - x8_21 >= -2
tri1_4_8_22: t4_8_22 - x4_8 <= 0
tri2_4_8_22: t4_8_22 - x4_22 <= 0
tri3_4_8_22: t4_8_22 - x8_22 <= 0
tri4_4_8_22: t4_8_22 - x4_8 - x4_22 - x8_22 >= -2
tri1_4_8_23: t4_8_23 - x4_8 <= 0
tri2_4_8_23: t4_8_23 - x4_23 <= 0
tri3_4_8_23: t4_8_23 - x8_23 <= 0
tri4_4_8_23: t4_8_23 - x4_8 - x4_23 - x8_23 >= -2
tri1_4_9_10: t4_9_10 - x4_9 <= 0
tri2_4_9_10: t4_9_10 - x4_10 <= 0
tri3_4_9_10: t4_9_10 - x9_10 <= 0
tri4_4_9_10: t4_9_10 - x4_9 - x4_10 - x9_10 >= -2
tri1_4_9_11: t4_9_11 - x4_9 <= 0
tri2_4_9_11: t4_9_11 - x4_11 <= 0
tri3_4_9_11: t4_9_11 - x9_11 <= 0
tri4_4_9_11: t4_9_11 - x4_9 - x4_11 - x9_11 >= -2
tri1_4_9_12: t4_9_12 - x4_9 <= 0
tri2_4_9_12: t4_9_12 - x4_12 <= 0
tri3_4_9_12: t4_9_12 - x9_12 <= 0
tri4_4_9_12: t4_9_12 - x4_9 - x4_12 - x9_12 >= -2
tri1_4_9_13: t4_9_13 - x4_9 <= 0
tri2_4_9_13: t4_9_13 - x4_13 <= 0
tri3_4_9_13: t4_9_13 - x9_13 <= 0
tri4_4_9_13: t4_9_13 - x4_9 - x4_13 - x9_13 >= -2
tri1_4_9_14: t4_9_14 - x4_9 <= 0
tri2_4_9_14: t4_9_14 - x4_14 <= 0
tri3_4_9_14: t4_9_14 - x9_14 <= 0
tri4_4_9_14: t4_9_14 - x4_9 - x4_14 - x9_14 >= -2
tri1_4_9_15: t4_9_15 - x4_9 <= 0
tri2_4_9_15: t4_9_15 - x4_15 <= 0
tri3_4_9_15: t4_9_15 - x9_15 <= 0
tri4_4_9_15: t4_9_15 - x4_9 - x4_15 - x9_15 >= -2
tri1_4_9_16: t4_9_16 - x4_9 <= 0
tri2_4_9_16: t4_9_16 - x4_16 <= 0
tri3_4_9_16: t4_9_16 - x9_16 <= 0
tri4_4_9_16: t4_9_16 - x4_9 - x4_16 - x9_16 >= -2
tri1_4_9_17: t4_9_17 - x4_9 <= 0
tri2_4_9_17: t4_9_17 - x4_17 <= 0
tri3_4_9_17: t4_9_17 - x9_17 <= 0
tri4_4_9_17: t4_9_17 - x4_9 - x4_17 - x9_17 >= -2
tri1_4_9_18: t4_9_18 - x4_9 <= 0
tri2_4_9_18: t4_9_18 - x4_18 <= 0
tri3_4_9_18: t4_9_18 - x9_18 <= 0
tri4_4_9_18: t4_9_18 - x4_9 - x4_18 - x9_18 >= -2
tri1_4_9_19: t4_9_19 - x4_9 <= 0
tri2_4_9_19: t4_9_19 - x4_19 <= 0
tri3_4_9_19: t4_9_19 - x9_19 <= 0
tri4_4_9_19: t4_9_19 - x4_9 - x4_19 - x9_19 >= -2
tri1_4_9_20: t4_9_20 - x4_9 <= 0
tri2_4_9_20: t4_9_20 - x4_20 <= 0
tri3_4_9_20: t4_9_20 - x9_20 <= 0
tri4_4_9_20: t4_9_20 - x4_9 - x4_20 - x9_20 >= -2
tri1_4_9_21: t4_9_21 - x4_9 <= 0
tri2_4_9_21: t4_9_21 - x4_21 <= 0
tri3_4_9_21: t4_9_21 - x9_21 <= 0
tri4_4_9_21: t4_9_21 - x4_9 - x4_21 - x9_21 >= -2
tri1_4_9_22: t4_9_22 - x4_9 <= 0
tri2_4_9_22: t4_9_22 - x4_22 <= 0
tri3_4_9_22: t4_9_22 - x9_22 <= 0
tri4_4_9_22: t4_9_22 - x4_9 - x4_22 - x9_22 >= -2
tri1_4_9_23: t4_9_23 - x4_9 <= 0
tri2_4_9_23: t4_9_23 - x4_23 <= 0
tri3_4_9_23: t4_9_23 - x9_23 <= 0
tri4_4_9_23: t4_9_23 - x4_9 - x4_23 - x9_23 >= -2
tri1_4_10_11: t4_10_11 - x4_10 <= 0
tri2_4_10_11: t4_10_11 - x4_11 <= 0
tri3_4_10_11: t4_10_11 - x10_11 <= 0
tri4_4_10_11: t4_10_11 - x4_10 - x4_11 - x10_11 >= -2
tri1_4_10_12: t4_10_12 - x4_10 <= 0
tri2_4_10_12: t4_10_12 - x4_12 <= 0
tri3_4_10_12: t4_10_12 - x10_12 <= 0
tri4_4_10_12: t4_10_12 - x4_10 - x4_12 - x10_12 >= -2
tri1_4_10_13: t4_10_13 - x4_10 <= 0
tri2_4_10_13: t4_10_13 - x4_13 <= 0
tri3_4_10_13: t4_10_13 - x10_13 <= 0
tri4_4_10_13: t4_10_13 - x4_10 - x4_13 - x10_13 >= -2
tri1_4_10_14: t4_10_14 - x4_10 <= 0
tri2_4_10_14: t4_10_14 - x4_14 <= 0
tri3_4_10_14: t4_10_14 - x10_14 <= 0
tri4_4_10_14: t4_10_14 - x4_10 - x4_14 - x10_14 >= -2
tri1_4_10_15: t4_10_15 - x4_10 <= 0
tri2_4_10_15: t4_10_15 - x4_15 <= 0
tri3_4_10_15: t4_10_15 - x10_15 <= 0
tri4_4_10_15: t4_10_15 - x4_10 - x4_15 - x10_15 >= -2
tri1_4_10_16: t4_10_16 - x4_10 <= 0
tri2_4_10_16: t4_10_16 - x4_16 <= 0
tri3_4_10_16: t4_10_16 - x10_16 <= 0
tri4_4_10_16: t4_10_16 - x4_10 - x4_16 - x10_16 >= -2
tri1_4_10_17: t4_10_17 - x4_10 <= 0
tri2_4_10_17: t4_10_17 - x4_17 <= 0
tri3_4_10_17: t4_10_17 - x10_17 <= 0
tri4_4_10_17: t4_10_17 - x4_10 - x4_17 - x10_17 >= -2
tri1_4_10_18: t4_10_18 - x4_10 <= 0
tri2_4_10_18: t4_10_18 - x4_18 <= 0
tri3_4_10_18: t4_10_18 - x10_18 <= 0
tri4_4_10_18: t4_10_18 - x4_10 - x4_18 - x10_18 >= -2
tri1_4_10_19: t4_10_19 - x4_10 <= 0
tri2_4_10_19: t4_10_19 - x4_19 <= 0
tri3_4_10_19: t4_10_19 - x10_19 <= 0
tri4_4_10_19: t4_10_19 - x4_10 - x4_19 - x10_19 >= -2
tri1_4_10_20: t4_10_20 - x4_10 <= 0
tri2_4_10_20: t4_10_20 - x4_20 <= 0
tri3_4_10_20: t4_10_20 - x10_20 <= 0
tri4_4_10_20: t4_10_20 - x4_10 - x4_20 - x10_20 >= -2
tri1_4_10_21: t4_10_21 - x4_10 <= 0
tri2_4_10_21: t4_10_21 - x4_21 <= 0
tri3_4_10_21: t4_10_21 - x10_21 <= 0
tri4_4_10_21: t4_10_21 - x4_10 - x4_21 - x10_21 >= -2
tri1_4_10_22: t4_10_22 - x4_10 <= 0
tri2_4_10_22: t4_10_22 - x4_22 <= 0
tri3_4_10_22: t4_10_22 - x10_22 <= 0
tri4_4_10_22: t4_10_22 - x4_10 - x4_22 - x10_22 >= -2
tri1_4_10_23: t4_10_23 - x4_10 <= 0
tri2_4_10_23: t4_10_23 - x4_23 <= 0
tri3_4_10_23: t4_10_23 - x10_23 <= 0
tri4_4_10_23: t4_10_23 - x4_10 - x4_23 - x10_23 >= -2
tri1_4_11_12: t4_11_12 - x4_11 <= 0
tri2_4_11_12: t4_11_12 - x4_12 <= 0
tri3_4_11_12: t4_11_12 - x11_12 <= 0
tri4_4_11_12: t4_11_12 - x4_11 - x4_12 - x11_12 >= -2
tri1_4_11_13: t4_11_13 - x4_11 <= 0
tri2_4_11_13: t4_11_13 - x4_13 <= 0
tri3_4_11_13: t4_11_13 - x11_13 <= 0
tri4_4_11_13: t4_11_13 - x4_11 - x4_13 - x11_13 >= -2
tri1_4_11_14: t4_11_14 - x4_11 <= 0
tri2_4_11_14: t4_11_14 - x4_14 <= 0
tri3_4_11_14: t4_11_14 - x11_14 <= 0
tri4_4_11_14: t4_11_14 - x4_11 - x4_14 - x11_14 >= -2
tri1_4_11_15: t4_11_15 - x4_11 <= 0
tri2_4_11_15: t4_11_15 - x4_15 <= 0
tri3_4_11_15: t4_11_15 - x11_15 <= 0
tri4_4_11_15: t4_11_15 - x4_11 - x4_15 - x11_15 >= -2
tri1_4_11_16: t4_11_16 - x4_11 <= 0
tri2_4_11_16: t4_11_16 - x4_16 <= 0
tri3_4_11_16: t4_11_16 - x11_16 <= 0
tri4_4_11_16: t4_11_16 - x4_11 - x4_16 - x11_16 >= -2
tri1_4_11_17: t4_11_17 - x4_11 <= 0
tri2_4_11_17: t4_11_17 - x4_17 <= 0
tri3_4_11_17: t4_11_17 - x11_17 <= 0
tri4_4_11_17: t4_11_17 - x4_11 - x4_17 - x11_17 >= -2
tri1_4_11_18: t4_11_18 - x4_11 <= 0
tri2_4_11_18: t4_11_18 - x4_18 <= 0
tri3_4_11_18: t4_11_18 - x11_18 <= 0
tri4_4_11_18: t4_11_18 - x4_11 - x4_18 - x11_18 >= -2
tri1_4_11_19: t4_11_19 - x4_11 <= 0
tri2_4_11_19: t4_11_19 - x4_19 <= 0
tri3_4_11_19: t4_11_19 - x11_19 <= 0
tri4_4_11_19: t4_11_19 - x4_11 - x4_19 - x11_19 >= -2
tri1_4_11_20: t4_11_20 - x4_11 <= 0
tri2_4_11_20: t4_11_20 - x4_20 <= 0
tri3_4_11_20: t4_11_20 - x11_20 <= 0
tri4_4_11_20: t4_11_20 - x4_11 - x4_20 - x11_20 >= -2
tri1_4_11_21: t4_11_21 - x4_11 <= 0
tri2_4_11_21: t4_11_21 - x4_21 <= 0
tri3_4_11_21: t4_11_21 - x11_21 <= 0
tri4_4_11_21: t4_11_21 - x4_11 - x4_21 - x11_21 >= -2
tri1_4_11_22: t4_11_22 - x4_11 <= 0
tri2_4_11_22: t4_11_22 - x4_22 <= 0
tri3_4_11_22: t4_11_22 - x11_22 <= 0
tri4_4_11_22: t4_11_22 - x4_11 - x4_22 - x11_22 >= -2
tri1_4_11_23: t4_11_23 - x4_11 <= 0
tri2_4_11_23: t4_11_23 - x4_23 <= 0
tri3_4_11_23: t4_11_23 - x11_23 <= 0
tri4_4_11_23: t4_11_23 - x4_11 - x4_23 - x11_23 >= -2
tri1_4_12_13: t4_12_13 - x4_12 <= 0
tri2_4_12_13: t4_12_13 - x4_13 <= 0
tri3_4_12_13: t4_12_13 - x12_13 <= 0
tri4_4_12_13: t4_12_13 - x4_12 - x4_13 - x12_13 >= -2
tri1_4_12_14: t4_12_14 - x4_12 <= 0
tri2_4_12_14: t4_12_14 - x4_14 <= 0
tri3_4_12_14: t4_12_14 - x12_14 <= 0
tri4_4_12_14: t4_12_14 - x4_12 - x4_14 - x12_14 >= -2
tri1_4_12_15: t4_12_15 - x4_12 <= 0
tri2_4_12_15: t4_12_15 - x4_15 <= 0
tri3_4_12_15: t4_12_15 - x12_15 <= 0
tri4_4_12_15: t4_12_15 - x4_12 - x4_15 - x12_15 >= -2
tri1_4_12_16: t4_12_16 - x4_12 <= 0
tri2_4_12_16: t4_12_16 - x4_16 <= 0
tri3_4_12_16: t4_12_16 - x12_16 <= 0
tri4_4_12_16: t4_12_16 - x4_12 - x4_16 - x12_16 >= -2
tri1_4_12_17: t4_12_17 - x4_12 <= 0
tri2_4_12_17: t4_12_17 - x4_17 <= 0
tri3_4_12_17: t4_12_17 - x12_17 <= 0
tri4_4_12_17: t4_12_17 - x4_12 - x4_17 - x12_17 >= -2
tri1_4_12_18: t4_12_18 - x4_12 <= 0
tri2_4_12_18: t4_12_18 - x4_18 <= 0
tri3_4_12_18: t4_12_18 - x12_18 <= 0
tri4_4_12_18: t4_12_18 - x4_12 - x4_18 - x12_18 >= -2
tri1_4_12_19: t4_12_19 - x4_12 <= 0
tri2_4_12_19: t4_12_19 - x4_19 <= 0
tri3_4_12_19: t4_12_19 - x12_19 <= 0
tri4_4_12_19: t4_12_19 - x4_12 - x4_19 - x12_19 >= -2
tri1_4_12_20: t4_12_20 - x4_12 <= 0
tri2_4_12_20: t4_12_20 - x4_20 <= 0
tri3_4_12_20: t4_12_20 - x12_20 <= 0
tri4_4_12_20: t4_12_20 - x4_12 - x4_20 - x12_20 >= -2
tri1_4_12_21: t4_12_21 - x4_12 <= 0
tri2_4_12_21: t4_12_21 - x4_21 <= 0
tri3_4_12_21: t4_12_21 - x12_21 <= 0
tri4_4_12_21: t4_12_21 - x4_12 - x4_21 - x12_21 >= -2
tri1_4_12_22: t4_12_22 - x4_12 <= 0
tri2_4_12_22: t4_12_22 - x4_22 <= 0
tri3_4_12_22: t4_12_22 - x12_22 <= 0
tri4_4_12_22: t4_12_22 - x4_12 - x4_22 - x12_22 >= -2
tri1_4_12_23: t4_12_23 - x4_12 <= 0
tri2_4_12_23: t4_12_23 - x4_23 <= 0
tri3_4_12_23: t4_12_23 - x12_23 <= 0
tri4_4_12_23: t4_12_23 - x4_12 - x4_23 - x12_23 >= -2
tri1_4_13_14: t4_13_14 - x4_13 <= 0
tri2_4_13_14: t4_13_14 - x4_14 <= 0
tri3_4_13_14: t4_13_14 - x13_14 <= 0
tri4_4_13_14: t4_13_14 - x4_13 - x4_14 - x13_14 >= -2
tri1_4_13_15: t4_13_15 - x4_13 <= 0
tri2_4_13_15: t4_13_15 - x4_15 <= 0
tri3_4_13_15: t4_13_15 - x13_15 <= 0
tri4_4_13_15: t4_13_15 - x4_13 - x4_15 - x13_15 >= -2
tri1_4_13_16: t4_13_16 - x4_13 <= 0
tri2_4_13_16: t4_13_16 - x4_16 <= 0
tri3_4_13_16: t4_13_16 - x13_16 <= 0
tri4_4_13_16: t4_13_16 - x4_13 - x4_16 - x13_16 >= -2
tri1_4_13_17: t4_13_17 - x4_13 <= 0
tri2_4_13_17: t4_13_17 - x4_17 <= 0
tri3_4_13_17: t4_13_17 - x13_17 <= 0
tri4_4_13_17: t4_13_17 - x4_13 - x4_17 - x13_17 >= -2
tri1_4_13_18: t4_13_18 - x4_13 <= 0
tri2_4_13_18: t4_13_18 - x4_18 <= 0
tri3_4_13_18: t4_13_18 - x13_18 <= 0
tri4_4_13_18: t4_13_18 - x4_13 - x4_18 - x13_18 >= -2
tri1_4_13_19: t4_13_19 - x4_13 <= 0
tri2_4_13_19: t4_13_19 - x4_19 <= 0
tri3_4_13_19: t4_13_19 - x13_19 <= 0
tri4_4_13_19: t4_13_19 - x4_13 - x4_19 - x13_19 >= -2
tri1_4_13_20: t4_13_20 - x4_13 <= 0
tri2_4_13_20: t4_13_20 - x4_20 <= 0
tri3_4_13_20: t4_13_20 - x13_20 <= 0
tri4_4_13_20: t4_13_20 - x4_13 - x4_20 - x13_20 >= -2
tri1_4_13_21: t4_13_21 - x4_13 <= 0
tri2_4_13_21: t4_13_21 - x4_21 <= 0
tri3_4_13_21: t4_13_21 - x13_21 <= 0
tri4_4_13_21: t4_13_21 - x4_13 - x4_21 - x13_21 >= -2
tri1_4_13_22: t4_13_22 - x4_13 <= 0
tri2_4_13_22: t4_13_22 - x4_22 <= 0
tri3_4_13_22: t4_13_22 - x13_22 <= 0
tri4_4_13_22: t4_13_22 - x4_13 - x4_22 - x13_22 >= -2
tri1_4_13_23: t4_13_23 - x4_13 <= 0
tri2_4_13_23: t4_13_23 - x4_23 <= 0
tri3_4_13_23: t4_13_23 - x13_23 <= 0
tri4_4_13_23: t4_13_23 - x4_13 - x4_23 - x13_23 >= -2
tri1_4_14_15: t4_14_15 - x4_14 <= 0
tri2_4_14_15: t4_14_15 - x4_15 <= 0
tri3_4_14_15: t4_14_15 - x14_15 <= 0
tri4_4_14_15: t4_14_15 - x4_14 - x4_15 - x14_15 >= -2
tri1_4_14_16: t4_14_16 - x4_14 <= 0
tri2_4_14_16: t4_14_16 - x4_16 <= 0
tri3_4_14_16: t4_14_16 - x14_16 <= 0
tri4_4_14_16: t4_14_16 - x4_14 - x4_16 - x14_16 >= -2
tri1_4_14_17: t4_14_17 - x4_14 <= 0
tri2_4_14_17: t4_14_17 - x4_17 <= 0
tri3_4_14_17: t4_14_17 - x14_17 <= 0
tri4_4_14_17: t4_14_17 - x4_14 - x4_17 - x14_17 >= -2
tri1_4_14_18: t4_14_18 - x4_14 <= 0
tri2_4_14_18: t4_14_18 - x4_18 <= 0
tri3_4_14_18: t4_14_18 - x14_18 <= 0
tri4_4_14_18: t4_14_18 - x4_14 - x4_18 - x14_18 >= -2
tri1_4_14_19: t4_14_19 - x4_14 <= 0
tri2_4_14_19: t4_14_19 - x4_19 <= 0
tri3_4_14_19: t4_14_19 - x14_19 <= 0
tri4_4_14_19: t4_14_19 - x4_14 - x4_19 - x14_19 >= -2
tri1_4_14_20: t4_14_20 - x4_14 <= 0
tri2_4_14_20: t4_14_20 - x4_20 <= 0
tri3_4_14_20: t4_14_20 - x14_20 <= 0
tri4_4_14_20: t4_14_20 - x4_14 - x4_20 - x14_20 >= -2
tri1_4_14_21: t4_14_21 - x4_14 <= 0
tri2_4_14_21: t4_14_21 - x4_21 <= 0
tri3_4_14_21: t4_14_21 - x14_21 <= 0
tri4_4_14_21: t4_14_21 - x4_14 - x4_21 - x14_21 >= -2
tri1_4_14_22: t4_14_22 - x4_14 <= 0
tri2_4_14_22: t4_14_22 - x4_22 <= 0
tri3_4_14_22: t4_14_22 - x14_22 <= 0
tri4_4_14_22: t4_14_22 - x4_14 - x4_22 - x14_22 >= -2
tri1_4_14_23: t4_14_23 - x4_14 <= 0
tri2_4_14_23: t4_14_23 - x4_23 <= 0
tri3_4_14_23: t4_14_23 - x14_23 <= 0
tri4_4_14_23: t4_14_23 - x4_14 - x4_23 - x14_23 >= -2
tri1_4_15_16: t4_15_16 - x4_15 <= 0
tri2_4_15_16: t4_15_16 - x4_16 <= 0
tri3_4_15_16: t4_15_16 - x15_16 <= 0
tri4_4_15_16: t4_15_16 - x4_15 - x4_16 - x15_16 >= -2
tri1_4_15_17: t4_15_17 - x4_15 <= 0
tri2_4_15_17: t4_15_17 - x4_17 <= 0
tri3_4_15_17: t4_15_17 - x15_17 <= 0
tri4_4_15_17: t4_15_17 - x4_15 - x4_17 - x15_17 >= -2
tri1_4_15_18: t4_15_18 - x4_15 <= 0
tri2_4_15_18: t4_15_18 - x4_18 <= 0
tri3_4_15_18: t4_15_18 - x15_18 <= 0
tri4_4_15_18: t4_15_18 - x4_15 - x4_18 - x15_18 >= -2
tri1_4_15_19: t4_15_19 - x4_15 <= 0
tri2_4_15_19: t4_15_19 - x4_19 <= 0
tri3_4_15_19: t4_15_19 - x15_19 <= 0
tri4_4_15_19: t4_15_19 - x4_15 - x4_19 - x15_19 >= -2
tri1_4_15_20: t4_15_20 - x4_15 <= 0
tri2_4_15_20: t4_15_20 - x4_20 <= 0
tri3_4_15_20: t4_15_20 - x15_20 <= 0
tri4_4_15_20: t4_15_20 - x4_15 - x4_20 - x15_20 >= -2
tri1_4_15_21: t4_15_21 - x4_15 <= 0
tri2_4_15_21: t4_15_21 - x4_21 <= 0
tri3_4_15_21: t4_15_21 - x15_21 <= 0
tri4_4_15_21: t4_15_21 - x4_15 - x4_21 - x15_21 >= -2
tri1_4_15_22: t4_15_22 - x4_15 <= 0
tri2_4_15_22: t4_15_22 - x4_22 <= 0
tri3_4_15_22: t4_15_22 - x15_22 <= 0
tri4_4_15_22: t4_15_22 - x4_15 - x4_22 - x15_22 >= -2
tri1_4_15_23: t4_15_23 - x4_15 <= 0
tri2_4_15_23: t4_15_23 - x4_23 <= 0
tri3_4_15_23: t4_15_23 - x15_23 <= 0
tri4_4_15_23: t4_15_23 - x4_15 - x4_23 - x15_23 >= -2
tri1_4_16_17: t4_16_17 - x4_16 <= 0
tri2_4_16_17: t4_16_17 - x4_17 <= 0
tri3_4_16_17: t4_16_17 - x16_17 <= 0
tri4_4_16_17: t4_16_17 - x4_16 - x4_17 - x16_17 >= -2
tri1_4_16_18: t4_16_18 - x4_16 <= 0
tri2_4_16_18: t4_16_18 - x4_18 <= 0
tri3_4_16_18: t4_16_18 - x16_18 <= 0
tri4_4_16_18: t4_16_18 - x4_16 - x4_18 - x16_18 >= -2
tri1_4_16_19: t4_16_19 - x4_16 <= 0
tri2_4_16_19: t4_16_19 - x4_19 <= 0
tri3_4_16_19: t4_16_19 - x16_19 <= 0
tri4_4_16_19: t4_16_19 - x4_16 - x4_19 - x16_19 >= -2
tri1_4_16_20: t4_16_20 - x4_16 <= 0
tri2_4_16_20: t4_16_20 - x4_20 <= 0
tri3_4_16_20: t4_16_20 - x16_20 <= 0
tri4_4_16_20: t4_16_20 - x4_16 - x4_20 - x16_20 >= -2
tri1_4_16_21: t4_16_21 - x4_16 <= 0
tri2_4_16_21: t4_16_21 - x4_21 <= 0
tri3_4_16_21: t4_16_21 - x16_21 <= 0
tri4_4_16_21: t4_16_21 - x4_16 - x4_21 - x16_21 >= -2
tri1_4_16_22: t4_16_22 - x4_16 <= 0
tri2_4_16_22: t4_16_22 - x4_22 <= 0
tri3_4_16_22: t4_16_22 - x16_22 <= 0
tri4_4_16_22: t4_16_22 - x4_16 - x4_22 - x16_22 >= -2
tri1_4_16_23: t4_16_23 - x4_16 <= 0
tri2_4_16_23: t4_16_23 - x4_23 <= 0
tri3_4_16_23: t4_16_23 - x16_23 <= 0
tri4_4_16_23: t4_16_23 - x4_16 - x4_23 - x16_23 >= -2
tri1_4_17_18: t4_17_18 - x4_17 <= 0
tri2_4_17_18: t4_17_18 - x4_18 <= 0
tri3_4_17_18: t4_17_18 - x17_18 <= 0
tri4_4_17_18: t4_17_18 - x4_17 - x4_18 - x17_18 >= -2
tri1_4_17_19: t4_17_19 - x4_17 <= 0
tri2_4_17_19: t4_17_19 - x4_19 <= 0
tri3_4_17_19: t4_17_19 - x17_19 <= 0
tri4_4_17_19: t4_17_19 - x4_17 - x4_19 - x17_19 >= -2
tri1_4_17_20: t4_17_20 - x4_17 <= 0
tri2_4_17_20: t4_17_20 - x4_20 <= 0
tri3_4_17_20: t4_17_20 - x17_20 <= 0
tri4_4_17_20: t4_17_20 - x4_17 - x4_20 - x17_20 >= -2
tri1_4_17_21: t4_17_21 - x4_17 <= 0
tri2_4_17_21: t4_17_21 - x4_21 <= 0
tri3_4_17_21: t4_17_21 - x17_21 <= 0
tri4_4_17_21: t4_17_21 - x4_17 - x4_21 - x17_21 >= -2
tri1_4_17_22: t4_17_22 - x4_17 <= 0
tri2_4_17_22: t4_17_22 - x4_22 <= 0
tri3_4_17_22: t4_17_22 - x17_22 <= 0
tri4_4_17_22: t4_17_22 - x4_17 - x4_22 - x17_22 >= -2
tri1_4_17_23: t4_17_23 - x4_17 <= 0
tri2_4_17_23: t4_17_23 - x4_23 <= 0
tri3_4_17_23: t4_17_23 - x17_23 <= 0
tri4_4_17_23: t4_17_23 - x4_17 - x4_23 - x17_23 >= -2
tri1_4_18_19: t4_18_19 - x4_18 <= 0
tri2_4_18_19: t4_18_19 - x4_19 <= 0
tri3_4_18_19: t4_18_19 - x18_19 <= 0
tri4_4_18_19: t4_18_19 - x4_18 - x4_19 - x18_19 >= -2
tri1_4_18_20: t4_18_20 - x4_18 <= 0
tri2_4_18_20: t4_18_20 - x4_20 <= 0
tri3_4_18_20: t4_18_20 - x18_20 <= 0
tri4_4_18_20: t4_18_20 - x4_18 - x4_20 - x18_20 >= -2
tri1_4_18_21: t4_18_21 - x4_18 <= 0
tri2_4_18_21: t4_18_21 - x4_21 <= 0
tri3_4_18_21: t4_18_21 - x18_21 <= 0
tri4_4_18_21: t4_18_21 - x4_18 - x4_21 - x18_21 >= -2
tri1_4_18_22: t4_18_22 - x4_18 <= 0
tri2_4_18_22: t4_18_22 - x4_22 <= 0
tri3_4_18_22: t4_18_22 - x18_22 <= 0
tri4_4_18_22: t4_18_22 - x4_18 - x4_22 - x18_22 >= -2
tri1_4_18_23: t4_18_23 - x4_18 <= 0
tri2_4_18_23: t4_18_23 - x4_23 <= 0
tri3_4_18_23: t4_18_23 - x18_23 <= 0
tri4_4_18_23: t4_18_23 - x4_18 - x4_23 - x18_23 >= -2
tri1_4_19_20: t4_19_20 - x4_19 <= 0
tri2_4_19_20: t4_19_20 - x4_20 <= 0
tri3_4_19_20: t4_19_20 - x19_20 <= 0
tri4_4_19_20: t4_19_20 - x4_19 - x4_20 - x19_20 >= -2
tri1_4_19_21: t4_19_21 - x4_19 <= 0
tri2_4_19_21: t4_19_21 - x4_21 <= 0
tri3_4_19_21: t4_19_21 - x19_21 <= 0
tri4_4_19_21: t4_19_21 - x4_19 - x4_21 - x19_21 >= -2
tri1_4_19_22: t4_19_22 - x4_19 <= 0
tri2_4_19_22: t4_19_22 - x4_22 <= 0
tri3_4_19_22: t4_19_22 - x19_22 <= 0
tri4_4_19_22: t4_19_22 - x4_19 - x4_22 - x19_22 >= -2
tri1_4_19_23: t4_19_23 - x4_19 <= 0
tri2_4_19_23: t4_19_23 - x4_23 <= 0
tri3_4_19_23: t4_19_23 - x19_23 <= 0
tri4_4_19_23: t4_19_23 - x4_19 - x4_23 - x19_23 >= -2
tri1_4_20_21: t4_20_21 - x4_20 <= 0
tri2_4_20_21: t4_20_21 - x4_21 <= 0
tri3_4_20_21: t4_20_21 - x20_21 <= 0
tri4_4_20_21: t4_20_21 - x4_20 - x4_21 - x20_21 >= -2
tri1_4_20_22: t4_20_22 - x4_20 <= 0
tri2_4_20_22: t4_20_22 - x4_22 <= 0
tri3_4_20_22: t4_20_22 - x20_22 <= 0
tri4_4_20_22: t4_20_22 - x4_20 - x4_22 - x20_22 >= -2
tri1_4_20_23: t4_20_23 - x4_20 <= 0
tri2_4_20_23: t4_20_23 - x4_23 <= 0
tri3_4_20_23: t4_20_23 - x20_23 <= 0
tri4_4_20_23: t4_20_23 - x4_20 - x4_23 - x20_23 >= -2
tri1_4_21_22: t4_21_22 - x4_21 <= 0
tri2_4_21_22: t4_21_22 - x4_22 <= 0
tri3_4_21_22: t4_21_22 - x21_22 <= 0
tri4_4_21_22: t4_21_22 - x4_21 - x4_22 - x21_22 >= -2
tri1_4_21_23: t4_21_23 - x4_21 <= 0
tri2_4_21_23: t4_21_23 - x4_23 <= 0
tri3_4_21_23: t4_21_23 - x21_23 <= 0
tri4_4_21_23: t4_21_23 - x4_21 - x4_23 - x21_23 >= -2
tri1_4_22_23: t4_22_23 - x4_22 <= 0
tri2_4_22_23: t4_22_23 - x4_23 <= 0
tri3_4_22_23: t4_22_23 - x22_23 <= 0
tri4_4_22_23: t4_22_23 - x4_22 - x4_23 - x22_23 >= -2
tri1_5_6_7: t5_6_7 - x5_6 <= 0
tri2_5_6_7: t5_6_7 - x5_7 <= 0
tri3_5_6_7: t5_6_7 - x6_7 <= 0
tri4_5_6_7: t5_6_7 - x5_6 - x5_7 - x6_7 >= -2
tri1_5_6_8: t5_6_8 - x5_6 <= 0
tri2_5_6_8: t5_6_8 - x5_8 <= 0
tri3_5_6_8: t5_6_8 - x6_8 <= 0
tri4_5_6_8: t5_6_8 - x5_6 - x5_8 - x6_8 >= -2
tri1_5_6_9: t5_6_9 - x5_6 <= 0
tri2_5_6_9: t5_6_9 - x5_9 <= 0
tri3_5_6_9: t5_6_9 - x6_9 <= 0
tri4_5_6_9: t5_6_9 - x5_6 - x5_9 - x6_9 >= -2
tri1_5_6_10: t5_6_10 - x5_6 <= 0
tri2_5_6_10: t5_6_10 - x5_10 <= 0
tri3_5_6_10: t5_6_10 - x6_10 <= 0
tri4_5_6_10: t5_6_10 - x5_6 - x5_10 - x6_10 >= -2
tri1_5_6_11: t5_6_11 - x5_6 <= 0
tri2_5_6_11: t5_6_11 - x5_11 <= 0
tri3_5_6_11: t5_6_11 - x6_11 <= 0
tri4_5_6_11: t5_6_11 - x5_6 - x5_11 - x6_11 >= -2
tri1_5_6_12: t5_6_12 - x5_6 <= 0
tri2_5_6_12: t5_6_12 - x5_12 <= 0
tri3_5_6_12: t5_6_12 - x6_12 <= 0
tri4_5_6_12: t5_6_12 - x5_6 - x5_12 - x6_12 >= -2
tri1_5_6_13: t5_6_13 - x5_6 <= 0
tri2_5_6_13: t5_6_13 - x5_13 <= 0
tri3_5_6_13: t5_6_13 - x6_13 <= 0
tri4_5_6_13: t5_6_13 - x5_6 - x5_13 - x6_13 >= -2
tri1_5_6_14: t5_6_14 - x5_6 <= 0
tri2_5_6_14: t5_6_14 - x5_14 <= 0
tri3_5_6_14: t5_6_14 - x6_14 <= 0
tri4_5_6_14: t5_6_14 - x5_6 - x5_14 - x6_14 >= -2
tri1_5_6_15: t5_6_15 - x5_6 <= 0
tri2_5_6_15: t5_6_15 - x5_15 <= 0
tri3_5_6_15: t5_6_15 - x6_15 <= 0
tri4_5_6_15: t5_6_15 - x5_6 - x5_15 - x6_15 >= -2
tri1_5_6_16: t5_6_16 - x5_6 <= 0
tri2_5_6_16: t5_6_16 - x5_16 <= 0
tri3_5_6_16: t5_6_16 - x6_16 <= 0
tri4_5_6_16: t5_6_16 - x5_6 - x5_16 - x6_16 >= -2
tri1_5_6_17: t5_6_17 - x5_6 <= 0
tri2_5_6_17: t5_6_17 - x5_17 <= 0
tri3_5_6_17: t5_6_17 - x6_17 <= 0
tri4_5_6_17: t5_6_17 - x5_6 - x5_17 - x6_17 >= -2
tri1_5_6_18: t5_6_18 - x5_6 <= 0
tri2_5_6_18: t5_6_18 - x5_18 <= 0
tri3_5_6_18: t5_6_18 - x6_18 <= 0
tri4_5_6_18: t5_6_18 - x5_6 - x5_18 - x6_18 >= -2
tri1_5_6_19: t5_6_19 - x5_6 <= 0
tri2_5_6_19: t5_6_19 - x5_19 <= 0
tri3_5_6_19: t5_6_19 - x6_19 <= 0
tri4_5_6_19: t5_6_19 - x5_6 - x5_19 - x6_19 >= -2
tri1_5_6_20: t5_6_20 - x5_6 <= 0
tri2_5_6_20: t5_6_20 - x5_20 <= 0
tri3_5_6_20: t5_6_20 - x6_20 <= 0
tri4_5_6_20: t5_6_20 - x5_6 - x5_20 - x6_20 >= -2
tri1_5_6_21: t5_6_21 - x5_6 <= 0
tri2_5_6_21: t5_6_21 - x5_21 <= 0
tri3_5_6_21: t5_6_21 - x6_21 <= 0
tri4_5_6_21: t5_6_21 - x5_6 - x5_21 - x6_21 >= -2
tri1_5_6_22: t5_6_22 - x5_6 <= 0
tri2_5_6_22: t5_6_22 - x5_22 <= 0
tri3_5_6_22: t5_6_22 - x6_22 <= 0
tri4_5_6_22: t5_6_22 - x5_6 - x5_22 - x6_22 >= -2
tri1_5_6_23: t5_6_23 - x5_6 <= 0
tri2_5_6_23: t5_6_23 - x5_23 <= 0
tri3_5_6_23: t5_6_23 - x6_23 <= 0
tri4_5_6_23: t5_6_23 - x5_6 - x5_23 - x6_23 >= -2
tri1_5_7_8: t5_7_8 - x5_7 <= 0
tri2_5_7_8: t5_7_8 - x5_8 <= 0
tri3_5_7_8: t5_7_8 - x7_8 <= 0
tri4_5_7_8: t5_7_8 - x5_7 - x5_8 - x7_8 >= -2
tri1_5_7_9: t5_7_9 - x5_7 <= 0
tri2_5_7_9: t5_7_9 - x5_9 <= 0
tri3_5_7_9: t5_7_9 - x7_9 <= 0
tri4_5_7_9: t5_7_9 - x5_7 - x5_9 - x7_9 >= -2
tri1_5_7_10: t5_7_10 - x5_7 <= 0
tri2_5_7_10: t5_7_10 - x5_10 <= 0
tri3_5_7_10: t5_7_10 - x7_10 <= 0
tri4_5_7_10: t5_7_10 - x5_7 - x5_10 - x7_10 >= -2
tri1_5_7_11: t5_7_11 - x5_7 <= 0
tri2_5_7_11: t5_7_11 - x5_11 <= 0
tri3_5_7_11: t5_7_11 - x7_11 <= 0
tri4_5_7_11: t5_7_11 - x5_7 - x5_11 - x7_11 >= -2
tri1_5_7_12: t5_7_12 - x5_7 <= 0
tri2_5_7_12: t5_7_12 - x5_12 <= 0
tri3_5_7_12: t5_7_12 - x7_12 <= 0
tri4_5_7_12: t5_7_12 - x5_7 - x5_12 - x7_12 >= -2
tri1_5_7_13: t5_7_13 - x5_7 <= 0
tri2_5_7_13: t5_7_13 - x5_13 <= 0
tri3_5_7_13: t5_7_13 - x7_13 <= 0
tri4_5_7_13: t5_7_13 - x5_7 - x5_13 - x7_13 >= -2
tri1_5_7_14: t5_7_14 - x5_7 <= 0
tri2_5_7_14: t5_7_14 - x5_14 <= 0
tri3_5_7_14: t5_7_14 - x7_14 <= 0
tri4_5_7_14: t5_7_14 - x5_7 - x5_14 - x7_14 >= -2
tri1_5_7_15: t5_7_15 - x5_7 <= 0
tri2_5_7_15: t5_7_15 - x5_15 <= 0
tri3_5_7_15: t5_7_15 - x7_15 <= 0
tri4_5_7_15: t5_7_15 - x5_7 - x5_15 - x7_15 >= -2
tri1_5_7_16: t5_7_16 - x5_7 <= 0
tri2_5_7_16: t5_7_16 - x5_16 <= 0
tri3_5_7_16: t5_7_16 - x7_16 <= 0
tri4_5_7_16: t5_7_16 - x5_7 - x5_16 - x7_16 >= -2
tri1_5_7_17: t5_7_17 - x5_7 <= 0
tri2_5_7_17: t5_7_17 - x5_17 <= 0
tri3_5_7_17: t5_7_17 - x7_17 <= 0
tri4_5_7_17: t5_7_17 - x5_7 - x5_17 - x7_17 >= -2
tri1_5_7_18: t5_7_18 - x5_7 <= 0
tri2_5_7_18: t5_7_18 - x5_18 <= 0
tri3_5_7_18: t5_7_18 - x7_18 <= 0
tri4_5_7_18: t5_7_18 - x5_7 - x5_18 - x7_18 >= -2
tri1_5_7_19: t5_7_19 - x5_7 <= 0
tri2_5_7_19: t5_7_19 - x5_19 <= 0
tri3_5_7_19: t5_7_19 - x7_19 <= 0
tri4_5_7_19: t5_7_19 - x5_7 - x5_19 - x7_19 >= -2
tri1_5_7_20: t5_7_20 - x5_7 <= 0
tri2_5_7_20: t5_7_20 - x5_20 <= 0
tri3_5_7_20: t5_7_20 - x7_20 <= 0
tri4_5_7_20: t5_7_20 - x5_7 - x5_20 - x7_20 >= -2
tri1_5_7_21: t5_7_21 - x5_7 <= 0
tri2_5_7_21: t5_7_21 - x5_21 <= 0
tri3_5_7_21: t5_7_21 - x7_21 <= 0
tri4_5_7_21: t5_7_21 - x5_7 - x5_21 - x7_21 >= -2
tri1_5_7_22: t5_7_22 - x5_7 <= 0
tri2_5_7_22: t5_7_22 - x5_22 <= 0
tri3_5_7_22: t5_7_22 - x7_22 <= 0
tri4_5_7_22: t5_7_22 - x5_7 - x5_22 - x7_22 >= -2
tri1_5_7_23: t5_7_23 - x5_7 <= 0
tri2_5_7_23: t5_7_23 - x5_23 <= 0
tri3_5_7_23: t5_7_23 - x7_23 <= 0
tri4_5_7_23: t5_7_23 - x5_7 - x5_23 - x7_23 >= -2
tri1_5_8_9: t5_8_9 - x5_8 <= 0
tri2_5_8_9: t5_8_9 - x5_9 <= 0
tri3_5_8_9: t5_8_9 - x8_9 <= 0
tri4_5_8_9: t5_8_9 - x5_8 - x5_9 - x8_9 >= -2
tri1_5_8_10: t5_8_10 - x5_8 <= 0
tri2_5_8_10: t5_8_10 - x5_10 <= 0
tri3_5_8_10: t5_8_10 - x8_10 <= 0
tri4_5_8_10: t5_8_10 - x5_8 - x5_10 - x8_10 >= -2
tri1_5_8_11: t5_8_11 - x5_8 <= 0
tri2_5_8_11: t5_8_11 - x5_11 <= 0
tri3_5_8_11: t5_8_11 - x8_11 <= 0
tri4_5_8_11: t5_8_11 - x5_8 - x5_11 - x8_11 >= -2
tri1_5_8_12: t5_8_12 - x5_8 <= 0
tri2_5_8_12: t5_8_12 - x5_12 <= 0
tri3_5_8_12: t5_8_12 - x8_12 <= 0
tri4_5_8_12: t5_8_12 - x5_8 - x5_12 - x8_12 >= -2
tri1_5_8_13: t5_8_13 - x5_8 <= 0
tri2_5_8_13: t5_8_13 - x5_13 <= 0
tri3_5_8_13: t5_8_13 - x8_13 <= 0
tri4_5_8_13: t5_8_13 - x5_8 - x5_13 - x8_13 >= -2
tri1_5_8_14: t5_8_14 - x5_8 <= 0
tri2_5_8_14: t5_8_14 - x5_14 <= 0
tri3_5_8_14: t5_8_14 - x8_14 <= 0
tri4_5_8_14: t5_8_14 - x5_8 - x5_14 - x8_14 >= -2
tri1_5_8_15: t5_8_15 - x5_8 <= 0
tri2_5_8_15: t5_8_15 - x5_15 <= 0
tri3_5_8_15: t5_8_15 - x8_15 <= 0
tri4_5_8_15: t5_8_15 - x5_8 - x5_15 - x8_15 >= -2
tri1_5_8_16: t5_8_16 - x5_8 <= 0
tri2_5_8_16: t5_8_16 - x5_16 <= 0
tri3_5_8_16: t5_8_16 - x8_16 <= 0
tri4_5_8_16: t5_8_16 - x5_8 - x5_16 - x8_16 >= -2
tri1_5_8_17: t5_8_17 - x5_8 <= 0
tri2_5_8_17: t5_8_17 - x5_17 <= 0
tri3_5_8_17: t5_8_17 - x8_17 <= 0
tri4_5_8_17: t5_8_17 - x5_8 - x5_17 - x8_17 >= -2
tri1_5_8_18: t5_8_18 - x5_8 <= 0
tri2_5_8_18: t5_8_18 - x5_18 <= 0
tri3_5_8_18: t5_8_18 - x8_18 <= 0
tri4_5_8_18: t5_8_18 - x5_8 - x5_18 - x8_18 >= -2
tri1_5_8_19: t5_8_19 - x5_8 <= 0
tri2_5_8_19: t5_8_19 - x5_19 <= 0
tri3_5_8_19: t5_8_19 - x8_19 <= 0
tri4_5_8_19: t5_8_19 - x5_8 - x5_19 - x8_19 >= -2
tri1_5_8_20: t5_8_20 - x5_8 <= 0
tri2_5_8_20: t5_8_20 - x5_20 <= 0
tri3_5_8_20: t5_8_20 - x8_20 <= 0
tri4_5_8_20: t5_8_20 - x5_8 - x5_20 - x8_20 >= -2
tri1_5_8_21: t5_8_21 - x5_8 <= 0
tri2_5_8_21: t5_8_21 - x5_21 <= 0
tri3_5_8_21: t5_8_21 - x8_21 <= 0
tri4_5_8_21: t5_8_21 - x5_8 - x5_21 - x8_21 >= -2
tri1_5_8_22: t5_8_22 - x5_8 <= 0
tri2_5_8_22: t5_8_22 - x5_22 <= 0
tri3_5_8_22: t5_8_22 - x8_22 <= 0
tri4_5_8_22: t5_8_22 - x5_8 - x5_22 - x8_22 >= -2
tri1_5_8_23: t5_8_23 - x5_8 <= 0
tri2_5_8_23: t5_8_23 - x5_23 <= 0
tri3_5_8_23: t5_8_23 - x8_23 <= 0
tri4_5_8_23: t5_8_23 - x5_8 - x5_23 - x8_23 >= -2
tri1_5_9_10: t5_9_10 - x5_9 <= 0
tri2_5_9_10: t5_9_10 - x5_10 <= 0
tri3_5_9_10: t5_9_10 - x9_10 <= 0
tri4_5_9_10: t5_9_10 - x5_9 - x5_10 - x9_10 >= -2
tri1_5_9_11: t5_9_11 - x5_9 <= 0
tri2_5_9_11: t5_9_11 - x5_11 <= 0
tri3_5_9_11: t5_9_11 - x9_11 <= 0
tri4_5_9_11: t5_9_11 - x5_9 - x5_11 - x9_11 >= -2
tri1_5_9_12: t5_9_12 - x5_9 <= 0
tri2_5_9_12: t5_9_12 - x5_12 <= 0
tri3_5_9_12: t5_9_12 - x9_12 <= 0
tri4_5_9_12: t5_9_12 - x5_9 - x5_12 - x9_12 >= -2
tri1_5_9_13: t5_9_13 - x5_9 <= 0
tri2_5_9_13: t5_9_13 - x5_13 <= 0
tri3_5_9_13: t5_9_13 - x9_13 <= 0
tri4_5_9_13: t5_9_13 - x5_9 - x5_13 - x9_13 >= -2
tri1_5_9_14: t5_9_14 - x5_9 <= 0
tri2_5_9_14: t5_9_14 - x5_14 <= 0
tri3_5_9_14: t5_9_14 - x9_14 <= 0
tri4_5_9_14: t5_9_14 - x5_9 - x5_14 - x9_14 >= -2
tri1_5_9_15: t5_9_15 - x5_9 <= 0
tri2_5_9_15: t5_9_15 - x5_15 <= 0
tri3_5_9_15: t5_9_15 - x9_15 <= 0
tri4_5_9_15: t5_9_15 - x5_9 - x5_15 - x9_15 >= -2
tri1_5_9_16: t5_9_16 - x5_9 <= 0
tri2_5_9_16: t5_9_16 - x5_16 <= 0
tri3_5_9_16: t5_9_16 - x9_16 <= 0
tri4_5_9_16: t5_9_16 - x5_9 - x5_16 - x9_16 >= -2
tri1_5_9_17: t5_9_17 - x5_9 <= 0
tri2_5_9_17: t5_9_17 - x5_17 <= 0
tri3_5_9_17: t5_9_17 - x9_17 <= 0
tri4_5_9_17: t5_9_17 - x5_9 - x5_17 - x9_17 >= -2
tri1_5_9_18: t5_9_18 - x5_9 <= 0
tri2_5_9_18: t5_9_18 - x5_18 <= 0
tri3_5_9_18: t5_9_18 - x9_18 <= 0
tri4_5_9_18: t5_9_18 - x5_9 - x5_18 - x9_18 >= -2
tri1_5_9_19: t5_9_19 - x5_9 <= 0
tri2_5_9_19: t5_9_19 - x5_19 <= 0
tri3_5_9_19: t5_9_19 - x9_19 <= 0
tri4_5_9_19: t5_9_19 - x5_9 - x5_19 - x9_19 >= -2
tri1_5_9_20: t5_9_20 - x5_9 <= 0
tri2_5_9_20: t5_9_20 - x5_20 <= 0
tri3_5_9_20: t5_9_20 - x9_20 <= 0
tri4_5_9_20: t5_9_20 - x5_9 - x5_20 - x9_20 >= -2
tri1_5_9_21: t5_9_21 - x5_9 <= 0
tri2_5_9_21: t5_9_21 - x5_21 <= 0
tri3_5_9_21: t5_9_21 - x9_21 <= 0
tri4_5_9_21: t5_9_21 - x5_9 - x5_21 - x9_21 >= -2
tri1_5_9_22: t5_9_22 - x5_9 <= 0
tri2_5_9_22: t5_9_22 - x5_22 <= 0
tri3_5_9_22: t5_9_22 - x9_22 <= 0
tri4_5_9_22: t5_9_22 - x5_9 - x5_22 - x9_22 >= -2
tri1_5_9_23: t5_9_23 - x5_9 <= 0
tri2_5_9_23: t5_9_23 - x5_23 <= 0
tri3_5_9_23: t5_9_23 - x9_23 <= 0
tri4_5_9_23: t5_9_23 - x5_9 - x5_23 - x9_23 >= -2
tri1_5_10_11: t5_10_11 - x5_10 <= 0
tri2_5_10_11: t5_10_11 - x5_11 <= 0
tri3_5_10_11: t5_10_11 - x10_11 <= 0
tri4_5_10_11: t5_10_11 - x5_10 - x5_11 - x10_11 >= -2
tri1_5_10_12: t5_10_12 - x5_10 <= 0
tri2_5_10_12: t5_10_12 - x5_12 <= 0
tri3_5_10_12: t5_10_12 - x10_12 <= 0
tri4_5_10_12: t5_10_12 - x5_10 - x5_12 - x10_12 >= -2
tri1_5_10_13: t5_10_13 - x5_10 <= 0
tri2_5_10_13: t5_10_13 - x5_13 <= 0
tri3_5_10_13: t5_10_13 - x10_13 <= 0
tri4_5_10_13: t5_10_13 - x5_10 - x5_13 - x10_13 >= -2
tri1_5_10_14: t5_10_14 - x5_10 <= 0
tri2_5_10_14: t5_10_14 - x5_14 <= 0
tri3_5_10_14: t5_10_14 - x10_14 <= 0
tri4_5_10_14: t5_10_14 - x5_10 - x5_14 - x10_14 >= -2
tri1_5_10_15: t5_10_15 - x5_10 <= 0
tri2_5_10_15: t5_10_15 - x5_15 <= 0
tri3_5_10_15: t5_10_15 - x10_15 <= 0
tri4_5_10_15: t5_10_15 - x5_10 - x5_15 - x10_15 >= -2
tri1_5_10_16: t5_10_16 - x5_10 <= 0
tri2_5_10_16: t5_10_16 - x5_16 <= 0
tri3_5_10_16: t5_10_16 - x10_16 <= 0
tri4_5_10_16: t5_10_16 - x5_10 - x5_16 - x10_16 >= -2
tri1_5_10_17: t5_10_17 - x5_10 <= 0
tri2_5_10_17: t5_10_17 - x5_17 <= 0
tri3_5_10_17: t5_10_17 - x10_17 <= 0
tri4_5_10_17: t5_10_17 - x5_10 - x5_17 - x10_17 >= -2
tri1_5_10_18: t5_10_18 - x5_10 <= 0
tri2_5_10_18: t5_10_18 - x5_18 <= 0
tri3_5_10_18: t5_10_18 - x10_18 <= 0
tri4_5_10_18: t5_10_18 - x5_10 - x5_18 - x10_18 >= -2
tri1_5_10_19: t5_10_19 - x5_10 <= 0
tri2_5_10_19: t5_10_19 - x5_19 <= 0
tri3_5_10_19: t5_10_19 - x10_19 <= 0
tri4_5_10_19: t5_10_19 - x5_10 - x5_19 - x10_19 >= -2
tri1_5_10_20: t5_10_20 - x5_10 <= 0
tri2_5_10_20: t5_10_20 - x5_20 <= 0
tri3_5_10_20: t5_10_20 - x10_20 <= 0
tri4_5_10_20: t5_10_20 - x5_10 - x5_20 - x10_20 >= -2
tri1_5_10_21: t5_10_21 - x5_10 <= 0
tri2_5_10_21: t5_10_21 - x5_21 <= 0
tri3_5_10_21: t5_10_21 - x10_21 <= 0
tri4_5_10_21: t5_10_21 - x5_10 - x5_21 - x10_21 >= -2
tri1_5_10_22: t5_10_22 - x5_10 <= 0
tri2_5_10_22: t5_10_22 - x5_22 <= 0
tri3_5_10_22: t5_10_22 - x10_22 <= 0
tri4_5_10_22: t5_10_22 - x5_10 - x5_22 - x10_22 >= -2
tri1_5_10_23: t5_10_23 - x5_10 <= 0
tri2_5_10_23: t5_10_23 - x5_23 <= 0
tri3_5_10_23: t5_10_23 - x10_23 <= 0
tri4_5_10_23: t5_10_23 - x5_10 - x5_23 - x10_23 >= -2
tri1_5_11_12: t5_11_12 - x5_11 <= 0
tri2_5_11_12: t5_11_12 - x5_12 <= 0
tri3_5_11_12: t5_11_12 - x11_12 <= 0
tri4_5_11_12: t5_11_12 - x5_11 - x5_12 - x11_12 >= -2
tri1_5_11_13: t5_11_13 - x5_11 <= 0
tri2_5_11_13: t5_11_13 - x5_13 <= 0
tri3_5_11_13: t5_11_13 - x11_13 <= 0
tri4_5_11_13: t5_11_13 - x5_11 - x5_13 - x11_13 >= -2
tri1_5_11_14: t5_11_14 - x5_11 <= 0
tri2_5_11_14: t5_11_14 - x5_14 <= 0
tri3_5_11_14: t5_11_14 - x11_14 <= 0
tri4_5_11_14: t5_11_14 - x5_11 - x5_14 - x11_14 >= -2
tri1_5_11_15: t5_11_15 - x5_11 <= 0
tri2_5_11_15: t5_11_15 - x5_15 <= 0
tri3_5_11_15: t5_11_15 - x11_15 <= 0
tri4_5_11_15: t5_11_15 - x5_11 - x5_15 - x11_15 >= -2
tri1_5_11_16: t5_11_16 - x5_11 <= 0
tri2_5_11_16: t5_11_16 - x5_16 <= 0
tri3_5_11_16: t5_11_16 - x11_16 <= 0
tri4_5_11_16: t5_11_16 - x5_11 - x5_16 - x11_16 >= -2
tri1_5_11_17: t5_11_17 - x5_11 <= 0
tri2_5_11_17: t5_11_17 - x5_17 <= 0
tri3_5_11_17: t5_11_17 - x11_17 <= 0
tri4_5_11_17: t5_11_17 - x5_11 - x5_17 - x11_17 >= -2
tri1_5_11_18: t5_11_18 - x5_11 <= 0
tri2_5_11_18: t5_11_18 - x5_18 <= 0
tri3_5_11_18: t5_11_18 - x11_18 <= 0
tri4_5_11_18: t5_11_18 - x5_11 - x5_18 - x11_18 >= -2
tri1_5_11_19: t5_11_19 - x5_11 <= 0
tri2_5_11_19: t5_11_19 - x5_19 <= 0
tri3_5_11_19: t5_11_19 - x11_19 <= 0
tri4_5_11_19: t5_11_19 - x5_11 - x5_19 - x11_19 >= -2
tri1_5_11_20: t5_11_20 - x5_11 <= 0
tri2_5_11_20: t5_11_20 - x5_20 <= 0
tri3_5_11_20: t5_11_20 - x11_20 <= 0
tri4_5_11_20: t5_11_20 - x5_11 - x5_20 - x11_20 >= -2
tri1_5_11_21: t5_11_21 - x5_11 <= 0
tri2_5_11_21: t5_11_21 - x5_21 <= 0
tri3_5_11_21: t5_11_21 - x11_21 <= 0
tri4_5_11_21: t5_11_21 - x5_11 - x5_21 - x11_21 >= -2
tri1_5_11_22: t5_11_22 - x5_11 <= 0
tri2_5_11_22: t5_11_22 - x5_22 <= 0
tri3_5_11_22: t5_11_22 - x11_22 <= 0
tri4_5_11_22: t5_11_22 - x5_11 - x5_22 - x11_22 >= -2
tri1_5_11_23: t5_11_23 - x5_11 <= 0
tri2_5_11_23: t5_11_23 - x5_23 <= 0
tri3_5_11_23: t5_11_23 - x11_23 <= 0
tri4_5_11_23: t5_11_23 - x5_11 - x5_23 - x11_23 >= -2
tri1_5_12_13: t5_12_13 - x5_12 <= 0
tri2_5_12_13: t5_12_13 - x5_13 <= 0
tri3_5_12_13: t5_12_13 - x12_13 <= 0
tri4_5_12_13: t5_12_13 - x5_12 - x5_13 - x12_13 >= -2
tri1_5_12_14: t5_12_14 - x5_12 <= 0
tri2_5_12_14: t5_12_14 - x5_14 <= 0
tri3_5_12_14: t5_12_14 - x12_14 <= 0
tri4_5_12_14: t5_12_14 - x5_12 - x5_14 - x12_14 >= -2
tri1_5_12_15: t5_12_15 - x5_12 <= 0
tri2_5_12_15: t5_12_15 - x5_15 <= 0
tri3_5_12_15: t5_12_15 - x12_15 <= 0
tri4_5_12_15: t5_12_15 - x5_12 - x5_15 - x12_15 >= -2
tri1_5_12_16: t5_12_16 - x5_12 <= 0
tri2_5_12_16: t5_12_16 - x5_16 <= 0
tri3_5_12_16: t5_12_16 - x12_16 <= 0
tri4_5_12_16: t5_12_16 - x5_12 - x5_16 - x12_16 >= -2
tri1_5_12_17: t5_12_17 - x5_12 <= 0
tri2_5_12_17: t5_12_17 - x5_17 <= 0
tri3_5_12_17: t5_12_17 - x12_17 <= 0
tri4_5_12_17: t5_12_17 - x5_12 - x5_17 - x12_17 >= -2
tri1_5_12_18: t5_12_18 - x5_12 <= 0
tri2_5_12_18: t5_12_18 - x5_18 <= 0
tri3_5_12_18: t5_12_18 - x12_18 <= 0
tri4_5_12_18: t5_12_18 - x5_12 - x5_18 - x12_18 >= -2
tri1_5_12_19: t5_12_19 - x5_12 <= 0
tri2_5_12_19: t5_12_19 - x5_19 <= 0
tri3_5_12_19: t5_12_19 - x12_19 <= 0
tri4_5_12_19: t5_12_19 - x5_12 - x5_19 - x12_19 >= -2
tri1_5_12_20: t5_12_20 - x5_12 <= 0
tri2_5_12_20: t5_12_20 - x5_20 <= 0
tri3_5_12_20: t5_12_20 - x12_20 <= 0
tri4_5_12_20: t5_12_20 - x5_12 - x5_20 - x12_20 >= -2
tri1_5_12_21: t5_12_21 - x5_12 <= 0
tri2_5_12_21: t5_12_21 - x5_21 <= 0
tri3_5_12_21: t5_12_21 - x12_21 <= 0
tri4_5_12_21: t5_12_21 - x5_12 - x5_21 - x12_21 >= -2
tri1_5_12_22: t5_12_22 - x5_12 <= 0
tri2_5_12_22: t5_12_22 - x5_22 <= 0
tri3_5_12_22: t5_12_22 - x12_22 <= 0
tri4_5_12_22: t5_12_22 - x5_12 - x5_22 - x12_22 >= -2
tri1_5_12_23: t5_12_23 - x5_12 <= 0
tri2_5_12_23: t5_12_23 - x5_23 <= 0
tri3_5_12_23: t5_12_23 - x12_23 <= 0
tri4_5_12_23: t5_12_23 - x5_12 - x5_23 - x12_23 >= -2
tri1_5_13_14: t5_13_14 - x5_13 <= 0
tri2_5_13_14: t5_13_14 - x5_14 <= 0
tri3_5_13_14: t5_13_14 - x13_14 <= 0
tri4_5_13_14: t5_13_14 - x5_13 - x5_14 - x13_14 >= -2
tri1_5_13_15: t5_13_15 - x5_13 <= 0
tri2_5_13_15: t5_13_15 - x5_15 <= 0
tri3_5_13_15: t5_13_15 - x13_15 <= 0
tri4_5_13_15: t5_13_15 - x5_13 - x5_15 - x13_15 >= -2
tri1_5_13_16: t5_13_16 - x5_13 <= 0
tri2_5_13_16: t5_13_16 - x5_16 <= 0
tri3_5_13_16: t5_13_16 - x13_16 <= 0
tri4_5_13_16: t5_13_16 - x5_13 - x5_16 - x13_16 >= -2
tri1_5_13_17: t5_13_17 - x5_13 <= 0
tri2_5_13_17: t5_13_17 - x5_17 <= 0
tri3_5_13_17: t5_13_17 - x13_17 <= 0
tri4_5_13_17: t5_13_17 - x5_13 - x5_17 - x13_17 >= -2
tri1_5_13_18: t5_13_18 - x5_13 <= 0
tri2_5_13_18: t5_13_18 - x5_18 <= 0
tri3_5_13_18: t5_13_18 - x13_18 <= 0
tri4_5_13_18: t5_13_18 - x5_13 - x5_18 - x13_18 >= -2
tri1_5_13_19: t5_13_19 - x5_13 <= 0
tri2_5_13_19: t5_13_19 - x5_19 <= 0
tri3_5_13_19: t5_13_19 - x13_19 <= 0
tri4_5_13_19: t5_13_19 - x5_13 - x5_19 - x13_19 >= -2
tri1_5_13_20: t5_13_20 - x5_13 <= 0
tri2_5_13_20: t5_13_20 - x5_20 <= 0
tri3_5_13_20: t5_13_20 - x13_20 <= 0
tri4_5_13_20: t5_13_20 - x5_13 - x5_20 - x13_20 >= -2
tri1_5_13_21: t5_13_21 - x5_13 <= 0
tri2_5_13_21: t5_13_21 - x5_21 <= 0
tri3_5_13_21: t5_13_21 - x13_21 <= 0
tri4_5_13_21: t5_13_21 - x5_13 - x5_21 - x13_21 >= -2
tri1_5_13_22: t5_13_22 - x5_13 <= 0
tri2_5_13_22: t5_13_22 - x5_22 <= 0
tri3_5_13_22: t5_13_22 - x13_22 <= 0
tri4_5_13_22: t5_13_22 - x5_13 - x5_22 - x13_22 >= -2
tri1_5_13_23: t5_13_23 - x5_13 <= 0
tri2_5_13_23: t5_13_23 - x5_23 <= 0
tri3_5_13_23: t5_13_23 - x13_23 <= 0
tri4_5_13_23: t5_13_23 - x5_13 - x5_23 - x13_23 >= -2
tri1_5_14_15: t5_14_15 - x5_14 <= 0
tri2_5_14_15: t5_14_15 - x5_15 <= 0
tri3_5_14_15: t5_14_15 - x14_15 <= 0
tri4_5_14_15: t5_14_15 - x5_14 - x5_15 - x14_15 >= -2
tri1_5_14_16: t5_14_16 - x5_14 <= 0
tri2_5_14_16: t5_14_16 - x5_16 <= 0
tri3_5_14_16: t5_14_16 - x14_16 <= 0
tri4_5_14_16: t5_14_16 - x5_14 - x5_16 - x14_16 >= -2
tri1_5_14_17: t5_14_17 - x5_14 <= 0
tri2_5_14_17: t5_14_17 - x5_17 <= 0
tri3_5_14_17: t5_14_17 - x14_17 <= 0
tri4_5_14_17: t5_14_17 - x5_14 - x5_17 - x14_17 >= -2
tri1_5_14_18: t5_14_18 - x5_14 <= 0
tri2_5_14_18: t5_14_18 - x5_18 <= 0
tri3_5_14_18: t5_14_18 - x14_18 <= 0
tri4_5_14_18: t5_14_18 - x5_14 - x5_18 - x14_18 >= -2
tri1_5_14_19: t5_14_19 - x5_14 <= 0
tri2_5_14_19: t5_14_19 - x5_19 <= 0
tri3_5_14_19: t5_14_19 - x14_19 <= 0
tri4_5_14_19: t5_14_19 - x5_14 - x5_19 - x14_19 >= -2
tri1_5_14_20: t5_14_20 - x5_14 <= 0
tri2_5_14_20: t5_14_20 - x5_20 <= 0
tri3_5_14_20: t5_14_20 - x14_20 <= 0
tri4_5_14_20: t5_14_20 - x5_14 - x5_20 - x14_20 >= -2
tri1_5_14_21: t5_14_21 - x5_14 <= 0
tri2_5_14_21: t5_14_21 - x5_21 <= 0
tri3_5_14_21: t5_14_21 - x14_21 <= 0
tri4_5_14_21: t5_14_21 - x5_14 - x5_21 - x14_21 >= -2
tri1_5_14_22: t5_14_22 - x5_14 <= 0
tri2_5_14_22: t5_14_22 - x5_22 <= 0
tri3_5_14_22: t5_14_22 - x14_22 <= 0
tri4_5_14_22: t5_14_22 - x5_14 - x5_22 - x14_22 >= -2
tri1_5_14_23: t5_14_23 - x5_14 <= 0
tri2_5_14_23: t5_14_23 - x5_23 <= 0
tri3_5_14_23: t5_14_23 - x14_23 <= 0
tri4_5_14_23: t5_14_23 - x5_14 - x5_23 - x14_23 >= -2
tri1_5_15_16: t5_15_16 - x5_15 <= 0
tri2_5_15_16: t5_15_16 - x5_16 <= 0
tri3_5_15_16: t5_15_16 - x15_16 <= 0
tri4_5_15_16: t5_15_16 - x5_15 - x5_16 - x15_16 >= -2
tri1_5_15_17: t5_15_17 - x5_15 <= 0
tri2_5_15_17: t5_15_17 - x5_17 <= 0
tri3_5_15_17: t5_15_17 - x15_17 <= 0
tri4_5_15_17: t5_15_17 - x5_15 - x5_17 - x15_17 >= -2
tri1_5_15_18: t5_15_18 - x5_15 <= 0
tri2_5_15_18: t5_15_18 - x5_18 <= 0
tri3_5_15_18: t5_15_18 - x15_18 <= 0
tri4_5_15_18: t5_15_18 - x5_15 - x5_18 - x15_18 >= -2
tri1_5_15_19: t5_15_19 - x5_15 <= 0
tri2_5_15_19: t5_15_19 - x5_19 <= 0
tri3_5_15_19: t5_15_19 - x15_19 <= 0
tri4_5_15_19: t5_15_19 - x5_15 - x5_19 - x15_19 >= -2
tri1_5_15_20: t5_15_20 - x5_15 <= 0
tri2_5_15_20: t5_15_20 - x5_20 <= 0
tri3_5_15_20: t5_15_20 - x15_20 <= 0
tri4_5_15_20: t5_15_20 - x5_15 - x5_20 - x15_20 >= -2
tri1_5_15_21: t5_15_21 - x5_15 <= 0
tri2_5_15_21: t5_15_21 - x5_21 <= 0
tri3_5_15_21: t5_15_21 - x15_21 <= 0
tri4_5_15_21: t5_15_21 - x5_15 - x5_21 - x15_21 >= -2
tri1_5_15_22: t5_15_22 - x5_15 <= 0
tri2_5_15_22: t5_15_22 - x5_22 <= 0
tri3_5_15_22: t5_15_22 - x15_22 <= 0
tri4_5_15_22: t5_15_22 - x5_15 - x5_22 - x15_22 >= -2
tri1_5_15_23: t5_15_23 - x5_15 <= 0
tri2_5_15_23: t5_15_23 - x5_23 <= 0
tri3_5_15_23: t5_15_23 - x15_23 <= 0
tri4_5_15_23: t5_15_23 - x5_15 - x5_23 - x15_23 >= -2
tri1_5_16_17: t5_16_17 - x5_16 <= 0
tri2_5_16_17: t5_16_17 - x5_17 <= 0
tri3_5_16_17: t5_16_17 - x16_17 <= 0
tri4_5_16_17: t5_16_17 - x5_16 - x5_17 - x16_17 >= -2
tri1_5_16_18: t5_16_18 - x5_16 <= 0
tri2_5_16_18: t5_16_18 - x5_18 <= 0
tri3_5_16_18: t5_16_18 - x16_18 <= 0
tri4_5_16_18: t5_16_18 - x5_16 - x5_18 - x16_18 >= -2
tri1_5_16_19: t5_16_19 - x5_16 <= 0
tri2_5_16_19: t5_16_19 - x5_19 <= 0
tri3_5_16_19: t5_16_19 - x16_19 <= 0
tri4_5_16_19: t5_16_19 - x5_16 - x5_19 - x16_19 >= -2
tri1_5_16_20: t5_16_20 - x5_16 <= 0
tri2_5_16_20: t5_16_20 - x5_20 <= 0
tri3_5_16_20: t5_16_20 - x16_20 <= 0
tri4_5_16_20: t5_16_20 - x5_16 - x5_20 - x16_20 >= -2
tri1_5_16_21: t5_16_21 - x5_16 <= 0
tri2_5_16_21: t5_16_21 - x5_21 <= 0
tri3_5_16_21: t5_16_21 - x16_21 <= 0
tri4_5_16_21: t5_16_21 - x5_16 - x5_21 - x16_21 >= -2
tri1_5_16_22: t5_16_22 - x5_16 <= 0
tri2_5_16_22: t5_16_22 - x5_22 <= 0
tri3_5_16_22: t5_16_22 - x16_22 <= 0
tri4_5_16_22: t5_16_22 - x5_16 - x5_22 - x16_22 >= -2
tri1_5_16_23: t5_16_23 - x5_16 <= 0
tri2_5_16_23: t5_16_23 - x5_23 <= 0
tri3_5_16_23: t5_16_23 - x16_23 <= 0
tri4_5_16_23: t5_16_23 - x5_16 - x5_23 - x16_23 >= -2
tri1_5_17_18: t5_17_18 - x5_17 <= 0
tri2_5_17_18: t5_17_18 - x5_18 <= 0
tri3_5_17_18: t5_17_18 - x17_18 <= 0
tri4_5_17_18: t5_17_18 - x5_17 - x5_18 - x17_18 >= -2
tri1_5_17_19: t5_17_19 - x5_17 <= 0
tri2_5_17_19: t5_17_19 - x5_19 <= 0
tri3_5_17_19: t5_17_19 - x17_19 <= 0
tri4_5_17_19: t5_17_19 - x5_17 - x5_19 - x17_19 >= -2
tri1_5_17_20: t5_17_20 - x5_17 <= 0
tri2_5_17_20: t5_17_20 - x5_20 <= 0
tri3_5_17_20: t5_17_20 - x17_20 <= 0
tri4_5_17_20: t5_17_20 - x5_17 - x5_20 - x17_20 >= -2
tri1_5_17_21: t5_17_21 - x5_17 <= 0
tri2_5_17_21: t5_17_21 - x5_21 <= 0
tri3_5_17_21: t5_17_21 - x17_21 <= 0
tri4_5_17_21: t5_17_21 - x5_17 - x5_21 - x17_21 >= -2
tri1_5_17_22: t5_17_22 - x5_17 <= 0
tri2_5_17_22: t5_17_22 - x5_22 <= 0
tri3_5_17_22: t5_17_22 - x17_22 <= 0
tri4_5_17_22: t5_17_22 - x5_17 - x5_22 - x17_22 >= -2
tri1_5_17_23: t5_17_23 - x5_17 <= 0
tri2_5_17_23: t5_17_23 - x5_23 <= 0
tri3_5_17_23: t5_17_23 - x17_23 <= 0
tri4_5_17_23: t5_17_23 - x5_17 - x5_23 - x17_23 >= -2
tri1_5_18_19: t5_18_19 - x5_18 <= 0
tri2_5_18_19: t5_18_19 - x5_19 <= 0
tri3_5_18_19: t5_18_19 - x18_19 <= 0
tri4_5_18_19: t5_18_19 - x5_18 - x5_19 - x18_19 >= -2
tri1_5_18_20: t5_18_20 - x5_18 <= 0
tri2_5_18_20: t5_18_20 - x5_20 <= 0
tri3_5_18_20: t5_18_20 - x18_20 <= 0
tri4_5_18_20: t5_18_20 - x5_18 - x5_20 - x18_20 >= -2
tri1_5_18_21: t5_18_21 - x5_18 <= 0
tri2_5_18_21: t5_18_21 - x5_21 <= 0
tri3_5_18_21: t5_18_21 - x18_21 <= 0
tri4_5_18_21: t5_18_21 - x5_18 - x5_21 - x18_21 >= -2
tri1_5_18_22: t5_18_22 - x5_18 <= 0
tri2_5_18_22: t5_18_22 - x5_22 <= 0
tri3_5_18_22: t5_18_22 - x18_22 <= 0
tri4_5_18_22: t5_18_22 - x5_18 - x5_22 - x18_22 >= -2
tri1_5_18_23: t5_18_23 - x5_18 <= 0
tri2_5_18_23: t5_18_23 - x5_23 <= 0
tri3_5_18_23: t5_18_23 - x18_23 <= 0
tri4_5_18_23: t5_18_23 - x5_18 - x5_23 - x18_23 >= -2
tri1_5_19_20: t5_19_20 - x5_19 <= 0
tri2_5_19_20: t5_19_20 - x5_20 <= 0
tri3_5_19_20: t5_19_20 - x19_20 <= 0
tri4_5_19_20: t5_19_20 - x5_19 - x5_20 - x19_20 >= -2
tri1_5_19_21: t5_19_21 - x5_19 <= 0
tri2_5_19_21: t5_19_21 - x5_21 <= 0
tri3_5_19_21: t5_19_21 - x19_21 <= 0
tri4_5_19_21: t5_19_21 - x5_19 - x5_21 - x19_21 >= -2
tri1_5_19_22: t5_19_22 - x5_19 <= 0
tri2_5_19_22: t5_19_22 - x5_22 <= 0
tri3_5_19_22: t5_19_22 - x19_22 <= 0
tri4_5_19_22: t5_19_22 - x5_19 - x5_22 - x19_22 >= -2
tri1_5_19_23: t5_19_23 - x5_19 <= 0
tri2_5_19_23: t5_19_23 - x5_23 <= 0
tri3_5_19_23: t5_19_23 - x19_23 <= 0
tri4_5_19_23: t5_19_23 - x5_19 - x5_23 - x19_23 >= -2
tri1_5_20_21: t5_20_21 - x5_20 <= 0
tri2_5_20_21: t5_20_21 - x5_21 <= 0
tri3_5_20_21: t5_20_21 - x20_21 <= 0
tri4_5_20_21: t5_20_21 - x5_20 - x5_21 - x20_21 >= -2
tri1_5_20_22: t5_20_22 - x5_20 <= 0
tri2_5_20_22: t5_20_22 - x5_22 <= 0
tri3_5_20_22: t5_20_22 - x20_22 <= 0
tri4_5_20_22: t5_20_22 - x5_20 - x5_22 - x20_22 >= -2
tri1_5_20_23: t5_20_23 - x5_20 <= 0
tri2_5_20_23: t5_20_23 - x5_23 <= 0
tri3_5_20_23: t5_20_23 - x20_23 <= 0
tri4_5_20_23: t5_20_23 - x5_20 - x5_23 - x20_23 >= -2
tri1_5_21_22: t5_21_22 - x5_21 <= 0
tri2_5_21_22: t5_21_22 - x5_22 <= 0
tri3_5_21_22: t5_21_22 - x21_22 <= 0
tri4_5_21_22: t5_21_22 - x5_21 - x5_22 - x21_22 >= -2
tri1_5_21_23: t5_21_23 - x5_21 <= 0
tri2_5_21_23: t5_21_23 - x5_23 <= 0
tri3_5_21_23: t5_21_23 - x21_23 <= 0
tri4_5_21_23: t5_21_23 - x5_21 - x5_23 - x21_23 >= -2
tri1_5_22_23: t5_22_23 - x5_22 <= 0
tri2_5_22_23: t5_22_23 - x5_23 <= 0
tri3_5_22_23: t5_22_23 - x22_23 <= 0
tri4_5_22_23: t5_22_23 - x5_22 - x5_23 - x22_23 >= -2
tri1_6_7_8: t6_7_8 - x6_7 <= 0
tri2_6_7_8: t6_7_8 - x6_8 <= 0
tri3_6_7_8: t6_7_8 - x7_8 <= 0
tri4_6_7_8: t6_7_8 - x6_7 - x6_8 - x7_8 >= -2
tri1_6_7_9: t6_7_9 - x6_7 <= 0
tri2_6_7_9: t6_7_9 - x6_9 <= 0
tri3_6_7_9: t6_7_9 - x7_9 <= 0
tri4_6_7_9: t6_7_9 - x6_7 - x6_9 - x7_9 >= -2
tri1_6_7_10: t6_7_10 - x6_7 <= 0
tri2_6_7_10: t6_7_10 - x6_10 <= 0
tri3_6_7_10: t6_7_10 - x7_10 <= 0
tri4_6_7_10: t6_7_10 - x6_7 - x6_10 - x7_10 >= -2
tri1_6_7_11: t6_7_11 - x6_7 <= 0
tri2_6_7_11: t6_7_11 - x6_11 <= 0
tri3_6_7_11: t6_7_11 - x7_11 <= 0
tri4_6_7_11: t6_7_11 - x6_7 - x6_11 - x7_11 >= -2
tri1_6_7_12: t6_7_12 - x6_7 <= 0
tri2_6_7_12: t6_7_12 - x6_12 <= 0
tri3_6_7_12: t6_7_12 - x7_12 <= 0
tri4_6_7_12: t6_7_12 - x6_7 - x6_12 - x7_12 >= -2
tri1_6_7_13: t6_7_13 - x6_7 <= 0
tri2_6_7_13: t6_7_13 - x6_13 <= 0
tri3_6_7_13: t6_7_13 - x7_13 <= 0
tri4_6_7_13: t6_7_13 - x6_7 - x6_13 - x7_13 >= -2
tri1_6_7_14: t6_7_14 - x6_7 <= 0
tri2_6_7_14: t6_7_14 - x6_14 <= 0
tri3_6_7_14: t6_7_14 - x7_14 <= 0
tri4_6_7_14: t6_7_14 - x6_7 - x6_14 - x7_14 >= -2
tri1_6_7_15: t6_7_15 - x6_7 <= 0
tri2_6_7_15: t6_7_15 - x6_15 <= 0
tri3_6_7_15: t6_7_15 - x7_15 <= 0
tri4_6_7_15: t6_7_15 - x6_7 - x6_15 - x7_15 >= -2
tri1_6_7_16: t6_7_16 - x6_7 <= 0
tri2_6_7_16: t6_7_16 - x6_16 <= 0
tri3_6_7_16: t6_7_16 - x7_16 <= 0
tri4_6_7_16: t6_7_16 - x6_7 - x6_16 - x7_16 >= -2
tri1_6_7_17: t6_7_17 - x6_7 <= 0
tri2_6_7_17: t6_7_17 - x6_17 <= 0
tri3_6_7_17: t6_7_17 - x7_17 <= 0
tri4_6_7_17: t6_7_17 - x6_7 - x6_17 - x7_17 >= -2
tri1_6_7_18: t6_7_18 - x6_7 <= 0
tri2_6_7_18: t6_7_18 - x6_18 <= 0
tri3_6_7_18: t6_7_18 - x7_18 <= 0
tri4_6_7_18: t6_7_18 - x6_7 - x6_18 - x7_18 >= -2
tri1_6_7_19: t6_7_19 - x6_7 <= 0
tri2_6_7_19: t6_7_19 - x6_19 <= 0
tri3_6_7_19: t6_7_19 - x7_19 <= 0
tri4_6_7_19: t6_7_19 - x6_7 - x6_19 - x7_19 >= -2
tri1_6_7_20: t6_7_20 - x6_7 <= 0
tri2_6_7_20: t6_7_20 - x6_20 <= 0
tri3_6_7_20: t6_7_20 - x7_20 <= 0
tri4_6_7_20: t6_7_20 - x6_7 - x6_20 - x7_20 >= -2
tri1_6_7_21: t6_7_21 - x6_7 <= 0
tri2_6_7_21: t6_7_21 - x6_21 <= 0
tri3_6_7_21: t6_7_21 - x7_21 <= 0
tri4_6_7_21: t6_7_21 - x6_7 - x6_21 - x7_21 >= -2
tri1_6_7_22: t6_7_22 - x6_7 <= 0
tri2_6_7_22: t6_7_22 - x6_22 <= 0
tri3_6_7_22: t6_7_22 - x7_22 <= 0
tri4_6_7_22: t6_7_22 - x6_7 - x6_22 - x7_22 >= -2
tri1_6_7_23: t6_7_23 - x6_7 <= 0
tri2_6_7_23: t6_7_23 - x6_23 <= 0
tri3_6_7_23: t6_7_23 - x7_23 <= 0
tri4_6_7_23: t6_7_23 - x6_7 - x6_23 - x7_23 >= -2
tri1_6_8_9: t6_8_9 - x6_8 <= 0
tri2_6_8_9: t6_8_9 - x6_9 <= 0
tri3_6_8_9: t6_8_9 - x8_9 <= 0
tri4_6_8_9: t6_8_9 - x6_8 - x6_9 - x8_9 >= -2
tri1_6_8_10: t6_8_10 - x6_8 <= 0
tri2_6_8_10: t6_8_10 - x6_10 <= 0
tri3_6_8_10: t6_8_10 - x8_10 <= 0
tri4_6_8_10: t6_8_10 - x6_8 - x6_10 - x8_10 >= -2
tri1_6_8_11: t6_8_11 - x6_8 <= 0
tri2_6_8_11: t6_8_11 - x6_11 <= 0
tri3_6_8_11: t6_8_11 - x8_11 <= 0
tri4_6_8_11: t6_8_11 - x6_8 - x6_11 - x8_11 >= -2
tri1_6_8_12: t6_8_12 - x6_8 <= 0
tri2_6_8_12: t6_8_12 - x6_12 <= 0
tri3_6_8_12: t6_8_12 - x8_12 <= 0
tri4_6_8_12: t6_8_12 - x6_8 - x6_12 - x8_12 >= -2
tri1_6_8_13: t6_8_13 - x6_8 <= 0
tri2_6_8_13: t6_8_13 - x6_13 <= 0
tri3_6_8_13: t6_8_13 - x8_13 <= 0
tri4_6_8_13: t6_8_13 - x6_8 - x6_13 - x8_13 >= -2
tri1_6_8_14: t6_8_14 - x6_8 <= 0
tri2_6_8_14: t6_8_14 - x6_14 <= 0
tri3_6_8_14: t6_8_14 - x8_14 <= 0
tri4_6_8_14: t6_8_14 - x6_8 - x6_14 - x8_14 >= -2
tri1_6_8_15: t6_8_15 - x6_8 <= 0
tri2_6_8_15: t6_8_15 - x6_15 <= 0
tri3_6_8_15: t6_8_15 - x8_15 <= 0
tri4_6_8_15: t6_8_15 - x6_8 - x6_15 - x8_15 >= -2
tri1_6_8_16: t6_8_16 - x6_8 <= 0
tri2_6_8_16: t6_8_16 - x6_16 <= 0
tri3_6_8_16: t6_8_16 - x8_16 <= 0
tri4_6_8_16: t6_8_16 - x6_8 - x6_16 - x8_16 >= -2
tri1_6_8_17: t6_8_17 - x6_8 <= 0
tri2_6_8_17: t6_8_17 - x6_17 <= 0
tri3_6_8_17: t6_8_17 - x8_17 <= 0
tri4_6_8_17: t6_8_17 - x6_8 - x6_17 - x8_17 >= -2
tri1_6_8_18: t6_8_18 - x6_8 <= 0
tri2_6_8_18: t6_8_18 - x6_18 <= 0
tri3_6_8_18: t6_8_18 - x8_18 <= 0
tri4_6_8_18: t6_8_18 - x6_8 - x6_18 - x8_18 >= -2
tri1_6_8_19: t6_8_19 - x6_8 <= 0
tri2_6_8_19: t6_8_19 - x6_19 <= 0
tri3_6_8_19: t6_8_19 - x8_19 <= 0
tri4_6_8_19: t6_8_19 - x6_8 - x6_19 - x8_19 >= -2
tri1_6_8_20: t6_8_20 - x6_8 <= 0
tri2_6_8_20: t6_8_20 - x6_20 <= 0
tri3_6_8_20: t6_8_20 - x8_20 <= 0
tri4_6_8_20: t6_8_20 - x6_8 - x6_20 - x8_20 >= -2
tri1_6_8_21: t6_8_21 - x6_8 <= 0
tri2_6_8_21: t6_8_21 - x6_21 <= 0
tri3_6_8_21: t6_8_21 - x8_21 <= 0
tri4_6_8_21: t6_8_21 - x6_8 - x6_21 - x8_21 >= -2
tri1_6_8_22: t6_8_22 - x6_8 <= 0
tri2_6_8_22: t6_8_22 - x6_22 <= 0
tri3_6_8_22: t6_8_22 - x8_22 <= 0
tri4_6_8_22: t6_8_22 - x6_8 - x6_22 - x8_22 >= -2
tri1_6_8_23: t6_8_23 - x6_8 <= 0
tri2_6_8_23: t6_8_23 - x6_23 <= 0
tri3_6_8_23: t6_8_23 - x8_23 <= 0
tri4_6_8_23: t6_8_23 - x6_8 - x6_23 - x8_23 >= -2
tri1_6_9_10: t6_9_10 - x6_9 <= 0
tri2_6_9_10: t6_9_10 - x6_10 <= 0
tri3_6_9_10: t6_9_10 - x9_10 <= 0
tri4_6_9_10: t6_9_10 - x6_9 - x6_10 - x9_10 >= -2
tri1_6_9_11: t6_9_11 - x6_9 <= 0
tri2_6_9_11: t6_9_11 - x6_11 <= 0
tri3_6_9_11: t6_9_11 - x9_11 <= 0
tri4_6_9_11: t6_9_11 - x6_9 - x6_11 - x9_11 >= -2
tri1_6_9_12: t6_9_12 - x6_9 <= 0
tri2_6_9_12: t6_9_12 - x6_12 <= 0
tri3_6_9_12: t6_9_12 - x9_12 <= 0
tri4_6_9_12: t6_9_12 - x6_9 - x6_12 - x9_12 >= -2
tri1_6_9_13: t6_9_13 - x6_9 <= 0
tri2_6_9_13: t6_9_13 - x6_13 <= 0
tri3_6_9_13: t6_9_13 - x9_13 <= 0
tri4_6_9_13: t6_9_13 - x6_9 - x6_13 - x9_13 >= -2
tri1_6_9_14: t6_9_14 - x6_9 <= 0
tri2_6_9_14: t6_9_14 - x6_14 <= 0
tri3_6_9_14: t6_9_14 - x9_14 <= 0
tri4_6_9_14: t6_9_14 - x6_9 - x6_14 - x9_14 >= -2
tri1_6_9_15: t6_9_15 - x6_9 <= 0
tri2_6_9_15: t6_9_15 - x6_15 <= 0
tri3_6_9_15: t6_9_15 - x9_15 <= 0
tri4_6_9_15: t6_9_15 - x6_9 - x6_15 - x9_15 >= -2
tri1_6_9_16: t6_9_16 - x6_9 <= 0
tri2_6_9_16: t6_9_16 - x6_16 <= 0
tri3_6_9_16: t6_9_16 - x9_16 <= 0
tri4_6_9_16: t6_9_16 - x6_9 - x6_16 - x9_16 >= -2
tri1_6_9_17: t6_9_17 - x6_9 <= 0
tri2_6_9_17: t6_9_17 - x6_17 <= 0
tri3_6_9_17: t6_9_17 - x9_17 <= 0
tri4_6_9_17: t6_9_17 - x6_9 - x6_17 - x9_17 >= -2
tri1_6_9_18: t6_9_18 - x6_9 <= 0
tri2_6_9_18: t6_9_18 - x6_18 <= 0
tri3_6_9_18: t6_9_18 - x9_18 <= 0
tri4_6_9_18: t6_9_18 - x6_9 - x6_18 - x9_18 >= -2
tri1_6_9_19: t6_9_19 - x6_9 <= 0
tri2_6_9_19: t6_9_19 - x6_19 <= 0
tri3_6_9_19: t6_9_19 - x9_19 <= 0
tri4_6_9_19: t6_9_19 - x6_9 - x6_19 - x9_19 >= -2
tri1_6_9_20: t6_9_20 - x6_9 <= 0
tri2_6_9_20: t6_9_20 - x6_20 <= 0
tri3_6_9_20: t6_9_20 - x9_20 <= 0
tri4_6_9_20: t6_9_20 - x6_9 - x6_20 - x9_20 >= -2
tri1_6_9_21: t6_9_21 - x6_9 <= 0
tri2_6_9_21: t6_9_21 - x6_21 <= 0
tri3_6_9_21: t6_9_21 - x9_21 <= 0
tri4_6_9_21: t6_9_21 - x6_9 - x6_21 - x9_21 >= -2
tri1_6_9_22: t6_9_22 - x6_9 <= 0
tri2_6_9_22: t6_9_22 - x6_22 <= 0
tri3_6_9_22: t6_9_22 - x9_22 <= 0
tri4_6_9_22: t6_9_22 - x6_9 - x6_22 - x9_22 >= -2
tri1_6_9_23: t6_9_23 - x6_9 <= 0
tri2_6_9_23: t6_9_23 - x6_23 <= 0
tri3_6_9_23: t6_9_23 - x9_23 <= 0
tri4_6_9_23: t6_9_23 - x6_9 - x6_23 - x9_23 >= -2
tri1_6_10_11: t6_10_11 - x6_10 <= 0
tri2_6_10_11: t6_10_11 - x6_11 <= 0
tri3_6_10_11: t6_10_11 - x10_11 <= 0
tri4_6_10_11: t6_10_11 - x6_10 - x6_11 - x10_11 >= -2
tri1_6_10_12: t6_10_12 - x6_10 <= 0
tri2_6_10_12: t6_10_12 - x6_12 <= 0
tri3_6_10_12: t6_10_12 - x10_12 <= 0
tri4_6_10_12: t6_10_12 - x6_10 - x6_12 - x10_12 >= -2
tri1_6_10_13: t6_10_13 - x6_10 <= 0
tri2_6_10_13: t6_10_13 - x6_13 <= 0
tri3_6_10_13: t6_10_13 - x10_13 <= 0
tri4_6_10_13: t6_10_13 - x6_10 - x6_13 - x10_13 >= -2
tri1_6_10_14: t6_10_14 - x6_10 <= 0
tri2_6_10_14: t6_10_14 - x6_14 <= 0
tri3_6_10_14: t6_10_14 - x10_14 <= 0
tri4_6_10_14: t6_10_14 - x6_10 - x6_14 - x10_14 >= -2
tri1_6_10_15: t6_10_15 - x6_10 <= 0
tri2_6_10_15: t6_10_15 - x6_15 <= 0
tri3_6_10_15: t6_10_15 - x10_15 <= 0
tri4_6_10_15: t6_10_15 - x6_10 - x6_15 - x10_15 >= -2
tri1_6_10_16: t6_10_16 - x6_10 <= 0
tri2_6_10_16: t6_10_16 - x6_16 <= 0
tri3_6_10_16: t6_10_16 - x10_16 <= 0
tri4_6_10_16: t6_10_16 - x6_10 - x6_16 - x10_16 >= -2
tri1_6_10_17: t6_10_17 - x6_10 <= 0
tri2_6_10_17: t6_10_17 - x6_17 <= 0
tri3_6_10_17: t6_10_17 - x10_17 <= 0
tri4_6_10_17: t6_10_17 - x6_10 - x6_17 - x10_17 >= -2
tri1_6_10_18: t6_10_18 - x6_10 <= 0
tri2_6_10_18: t6_10_18 - x6_18 <= 0
tri3_6_10_18: t6_10_18 - x10_18 <= 0
tri4_6_10_18: t6_10_18 - x6_10 - x6_18 - x10_18 >= -2
tri1_6_10_19: t6_10_19 - x6_10 <= 0
tri2_6_10_19: t6_10_19 - x6_19 <= 0
tri3_6_10_19: t6_10_19 - x10_19 <= 0
tri4_6_10_19: t6_10_19 - x6_10 - x6_19 - x10_19 >= -2
tri1_6_10_20: t6_10_20 - x6_10 <= 0
tri2_6_10_20: t6_10_20 - x6_20 <= 0
tri3_6_10_20: t6_10_20 - x10_20 <= 0
tri4_6_10_20: t6_10_20 - x6_10 - x6_20 - x10_20 >= -2
tri1_6_10_21: t6_10_21 - x6_10 <= 0
tri2_6_10_21: t6_10_21 - x6_21 <= 0
tri3_6_10_21: t6_10_21 - x10_21 <= 0
tri4_6_10_21: t6_10_21 - x6_10 - x6_21 - x10_21 >= -2
tri1_6_10_22: t6_10_22 - x6_10 <= 0
tri2_6_10_22: t6_10_22 - x6_22 <= 0
tri3_6_10_22: t6_10_22 - x10_22 <= 0
tri4_6_10_22: t6_10_22 - x6_10 - x6_22 - x10_22 >= -2
tri1_6_10_23: t6_10_23 - x6_10 <= 0
tri2_6_10_23: t6_10_23 - x6_23 <= 0
tri3_6_10_23: t6_10_23 - x10_23 <= 0
tri4_6_10_23: t6_10_23 - x6_10 - x6_23 - x10_23 >= -2
tri1_6_11_12: t6_11_12 - x6_11 <= 0
tri2_6_11_12: t6_11_12 - x6_12 <= 0
tri3_6_11_12: t6_11_12 - x11_12 <= 0
tri4_6_11_12: t6_11_12 - x6_11 - x6_12 - x11_12 >= -2
tri1_6_11_13: t6_11_13 - x6_11 <= 0
tri2_6_11_13: t6_11_13 - x6_13 <= 0
tri3_6_11_13: t6_11_13 - x11_13 <= 0
tri4_6_11_13: t6_11_13 - x6_11 - x6_13 - x11_13 >= -2
tri1_6_11_14: t6_11_14 - x6_11 <= 0
tri2_6_11_14: t6_11_14 - x6_14 <= 0
tri3_6_11_14: t6_11_14 - x11_14 <= 0
tri4_6_11_14: t6_11_14 - x6_11 - x6_14 - x11_14 >= -2
tri1_6_11_15: t6_11_15 - x6_11 <= 0
tri2_6_11_15: t6_11_15 - x6_15 <= 0
tri3_6_11_15: t6_11_15 - x11_15 <= 0
tri4_6_11_15: t6_11_15 - x6_11 - x6_15 - x11_15 >= -2
tri1_6_11_16: t6_11_16 - x6_11 <= 0
tri2_6_11_16: t6_11_16 - x6_16 <= 0
tri3_6_11_16: t6_11_16 - x11_16 <= 0
tri4_6_11_16: t6_11_16 - x6_11 - x6_16 - x11_16 >= -2
tri1_6_11_17: t6_11_17 - x6_11 <= 0
tri2_6_11_17: t6_11_17 - x6_17 <= 0
tri3_6_11_17: t6_11_17 - x11_17 <= 0
tri4_6_11_17: t6_11_17 - x6_11 - x6_17 - x11_17 >= -2
tri1_6_11_18: t6_11_18 - x6_11 <= 0
tri2_6_11_18: t6_11_18 - x6_18 <= 0
tri3_6_11_18: t6_11_18 - x11_18 <= 0
tri4_6_11_18: t6_11_18 - x6_11 - x6_18 - x11_18 >= -2
tri1_6_11_19: t6_11_19 - x6_11 <= 0
tri2_6_11_19: t6_11_19 - x6_19 <= 0
tri3_6_11_19: t6_11_19 - x11_19 <= 0
tri4_6_11_19: t6_11_19 - x6_11 - x6_19 - x11_19 >= -2
tri1_6_11_20: t6_11_20 - x6_11 <= 0
tri2_6_11_20: t6_11_20 - x6_20 <= 0
tri3_6_11_20: t6_11_20 - x11_20 <= 0
tri4_6_11_20: t6_11_20 - x6_11 - x6_20 - x11_20 >= -2
tri1_6_11_21: t6_11_21 - x6_11 <= 0
tri2_6_11_21: t6_11_21 - x6_21 <= 0
tri3_6_11_21: t6_11_21 - x11_21 <= 0
tri4_6_11_21: t6_11_21 - x6_11 - x6_21 - x11_21 >= -2
tri1_6_11_22: t6_11_22 - x6_11 <= 0
tri2_6_11_22: t6_11_22 - x6_22 <= 0
tri3_6_11_22: t6_11_22 - x11_22 <= 0
tri4_6_11_22: t6_11_22 - x6_11 - x6_22 - x11_22 >= -2
tri1_6_11_23: t6_11_23 - x6_11 <= 0
tri2_6_11_23: t6_11_23 - x6_23 <= 0
tri3_6_11_23: t6_11_23 - x11_23 <= 0
tri4_6_11_23: t6_11_23 - x6_11 - x6_23 - x11_23 >= -2
tri1_6_12_13: t6_12_13 - x6_12 <= 0
tri2_6_12_13: t6_12_13 - x6_13 <= 0
tri3_6_12_13: t6_12_13 - x12_13 <= 0
tri4_6_12_13: t6_12_13 - x6_12 - x6_13 - x12_13 >= -2
tri1_6_12_14: t6_12_14 - x6_12 <= 0
tri2_6_12_14: t6_12_14 - x6_14 <= 0
tri3_6_12_14: t6_12_14 - x12_14 <= 0
tri4_6_12_14: t6_12_14 - x6_12 - x6_14 - x12_14 >= -2
tri1_6_12_15: t6_12_15 - x6_12 <= 0
tri2_6_12_15: t6_12_15 - x6_15 <= 0
tri3_6_12_15: t6_12_15 - x12_15 <= 0
tri4_6_12_15: t6_12_15 - x6_12 - x6_15 - x12_15 >= -2
tri1_6_12_16: t6_12_16 - x6_12 <= 0
tri2_6_12_16: t6_12_16 - x6_16 <= 0
tri3_6_12_16: t6_12_16 - x12_16 <= 0
tri4_6_12_16: t6_12_16 - x6_12 - x6_16 - x12_16 >= -2
tri1_6_12_17: t6_12_17 - x6_12 <= 0
tri2_6_12_17: t6_12_17 - x6_17 <= 0
tri3_6_12_17: t6_12_17 - x12_17 <= 0
tri4_6_12_17: t6_12_17 - x6_12 - x6_17 - x12_17 >= -2
tri1_6_12_18: t6_12_18 - x6_12 <= 0
tri2_6_12_18: t6_12_18 - x6_18 <= 0
tri3_6_12_18: t6_12_18 - x12_18 <= 0
tri4_6_12_18: t6_12_18 - x6_12 - x6_18 - x12_18 >= -2
tri1_6_12_19: t6_12_19 - x6_12 <= 0
tri2_6_12_19: t6_12_19 - x6_19 <= 0
tri3_6_12_19: t6_12_19 - x12_19 <= 0
tri4_6_12_19: t6_12_19 - x6_12 - x6_19 - x12_19 >= -2
tri1_6_12_20: t6_12_20 - x6_12 <= 0
tri2_6_12_20: t6_12_20 - x6_20 <= 0
tri3_6_12_20: t6_12_20 - x12_20 <= 0
tri4_6_12_20: t6_12_20 - x6_12 - x6_20 - x12_20 >= -2
tri1_6_12_21: t6_12_21 - x6_12 <= 0
tri2_6_12_21: t6_12_21 - x6_21 <= 0
tri3_6_12_21: t6_12_21 - x12_21 <= 0
tri4_6_12_21: t6_12_21 - x6_12 - x6_21 - x12_21 >= -2
tri1_6_12_22: t6_12_22 - x6_12 <= 0
tri2_6_12_22: t6_12_22 - x6_22 <= 0
tri3_6_12_22: t6_12_22 - x12_22 <= 0
tri4_6_12_22: t6_12_22 - x6_12 - x6_22 - x12_22 >= -2
tri1_6_12_23: t6_12_23 - x6_12 <= 0
tri2_6_12_23: t6_12_23 - x6_23 <= 0
tri3_6_12_23: t6_12_23 - x12_23 <= 0
tri4_6_12_23: t6_12_23 - x6_12 - x6_23 - x12_23 >= -2
tri1_6_13_14: t6_13_14 - x6_13 <= 0
tri2_6_13_14: t6_13_14 - x6_14 <= 0
tri3_6_13_14: t6_13_14 - x13_14 <= 0
tri4_6_13_14: t6_13_14 - x6_13 - x6_14 - x13_14 >= -2
tri1_6_13_15: t6_13_15 - x6_13 <= 0
tri2_6_13_15: t6_13_15 - x6_15 <= 0
tri3_6_13_15: t6_13_15 - x13_15 <= 0
tri4_6_13_15: t6_13_15 - x6_13 - x6_15 - x13_15 >= -2
tri1_6_13_16: t6_13_16 - x6_13 <= 0
tri2_6_13_16: t6_13_16 - x6_16 <= 0
tri3_6_13_16: t6_13_16 - x13_16 <= 0
tri4_6_13_16: t6_13_16 - x6_13 - x6_16 - x13_16 >= -2
tri1_6_13_17: t6_13_17 - x6_13 <= 0
tri2_6_13_17: t6_13_17 - x6_17 <= 0
tri3_6_13_17: t6_13_17 - x13_17 <= 0
tri4_6_13_17: t6_13_17 - x6_13 - x6_17 - x13_17 >= -2
tri1_6_13_18: t6_13_18 - x6_13 <= 0
tri2_6_13_18: t6_13_18 - x6_18 <= 0
tri3_6_13_18: t6_13_18 - x13_18 <= 0
tri4_6_13_18: t6_13_18 - x6_13 - x6_18 - x13_18 >= -2
tri1_6_13_19: t6_13_19 - x6_13 <= 0
tri2_6_13_19: t6_13_19 - x6_19 <= 0
tri3_6_13_19: t6_13_19 - x13_19 <= 0
tri4_6_13_19: t6_13_19 - x6_13 - x6_19 - x13_19 >= -2
tri1_6_13_20: t6_13_20 - x6_13 <= 0
tri2_6_13_20: t6_13_20 - x6_20 <= 0
tri3_6_13_20: t6_13_20 - x13_20 <= 0
tri4_6_13_20: t6_13_20 - x6_13 - x6_20 - x13_20 >= -2
tri1_6_13_21: t6_13_21 - x6_13 <= 0
tri2_6_13_21: t6_13_21 - x6_21 <= 0
tri3_6_13_21: t6_13_21 - x13_21 <= 0
tri4_6_13_21: t6_13_21 - x6_13 - x6_21 - x13_21 >= -2
tri1_6_13_22: t6_13_22 - x6_13 <= 0
tri2_6_13_22: t6_13_22 - x6_22 <= 0
tri3_6_13_22: t6_13_22 - x13_22 <= 0
tri4_6_13_22: t6_13_22 - x6_13 - x6_22 - x13_22 >= -2
tri1_6_13_23: t6_13_23 - x6_13 <= 0
tri2_6_13_23: t6_13_23 - x6_23 <= 0
tri3_6_13_23: t6_13_23 - x13_23 <= 0
tri4_6_13_23: t6_13_23 - x6_13 - x6_23 - x13_23 >= -2
tri1_6_14_15: t6_14_15 - x6_14 <= 0
tri2_6_14_15: t6_14_15 - x6_15 <= 0
tri3_6_14_15: t6_14_15 - x14_15 <= 0
tri4_6_14_15: t6_14_15 - x6_14 - x6_15 - x14_15 >= -2
tri1_6_14_16: t6_14_16 - x6_14 <= 0
tri2_6_14_16: t6_14_16 - x6_16 <= 0
tri3_6_14_16: t6_14_16 - x14_16 <= 0
tri4_6_14_16: t6_14_16 - x6_14 - x6_16 - x14_16 >= -2
tri1_6_14_17: t6_14_17 - x6_14 <= 0
tri2_6_14_17: t6_14_17 - x6_17 <= 0
tri3_6_14_17: t6_14_17 - x14_17 <= 0
tri4_6_14_17: t6_14_17 - x6_14 - x6_17 - x14_17 >= -2
tri1_6_14_18: t6_14_18 - x6_14 <= 0
tri2_6_14_18: t6_14_18 - x6_18 <= 0
tri3_6_14_18: t6_14_18 - x14_18 <= 0
tri4_6_14_18: t6_14_18 - x6_14 - x6_18 - x14_18 >= -2
tri1_6_14_19: t6_14_19 - x6_14 <= 0
tri2_6_14_19: t6_14_19 - x6_19 <= 0
tri3_6_14_19: t6_14_19 - x14_19 <= 0
tri4_6_14_19: t6_14_19 - x6_14 - x6_19 - x14_19 >= -2
tri1_6_14_20: t6_14_20 - x6_14 <= 0
tri2_6_14_20: t6_14_20 - x6_20 <= 0
tri3_6_14_20: t6_14_20 - x14_20 <= 0
tri4_6_14_20: t6_14_20 - x6_14 - x6_20 - x14_20 >= -2
tri1_6_14_21: t6_14_21 - x6_14 <= 0
tri2_6_14_21: t6_14_21 - x6_21 <= 0
tri3_6_14_21: t6_14_21 - x14_21 <= 0
tri4_6_14_21: t6_14_21 - x6_14 - x6_21 - x14_21 >= -2
tri1_6_14_22: t6_14_22 - x6_14 <= 0
tri2_6_14_22: t6_14_22 - x6_22 <= 0
tri3_6_14_22: t6_14_22 - x14_22 <= 0
tri4_6_14_22: t6_14_22 - x6_14 - x6_22 - x14_22 >= -2
tri1_6_14_23: t6_14_23 - x6_14 <= 0
tri2_6_14_23: t6_14_23 - x6_23 <= 0
tri3_6_14_23: t6_14_23 - x14_23 <= 0
tri4_6_14_23: t6_14_23 - x6_14 - x6_23 - x14_23 >= -2
tri1_6_15_16: t6_15_16 - x6_15 <= 0
tri2_6_15_16: t6_15_16 - x6_16 <= 0
tri3_6_15_16: t6_15_16 - x15_16 <= 0
tri4_6_15_16: t6_15_16 - x6_15 - x6_16 - x15_16 >= -2
tri1_6_15_17: t6_15_17 - x6_15 <= 0
tri2_6_15_17: t6_15_17 - x6_17 <= 0
tri3_6_15_17: t6_15_17 - x15_17 <= 0
tri4_6_15_17: t6_15_17 - x6_15 - x6_17 - x15_17 >= -2
tri1_6_15_18: t6_15_18 - x6_15 <= 0
tri2_6_15_18: t6_15_18 - x6_18 <= 0
tri3_6_15_18: t6_15_18 - x15_18 <= 0
tri4_6_15_18: t6_15_18 - x6_15 - x6_18 - x15_18 >= -2
tri1_6_15_19: t6_15_19 - x6_15 <= 0
tri2_6_15_19: t6_15_19 - x6_19 <= 0
tri3_6_15_19: t6_15_19 - x15_19 <= 0
tri4_6_15_19: t6_15_19 - x6_15 - x6_19 - x15_19 >= -2
tri1_6_15_20: t6_15_20 - x6_15 <= 0
tri2_6_15_20: t6_15_20 - x6_20 <= 0
tri3_6_15_20: t6_15_20 - x15_20 <= 0
tri4_6_15_20: t6_15_20 - x6_15 - x6_20 - x15_20 >= -2
tri1_6_15_21: t6_15_21 - x6_15 <= 0
tri2_6_15_21: t6_15_21 - x6_21 <= 0
tri3_6_15_21: t6_15_21 - x15_21 <= 0
tri4_6_15_21: t6_15_21 - x6_15 - x6_21 - x15_21 >= -2
tri1_6_15_22: t6_15_22 - x6_15 <= 0
tri2_6_15_22: t6_15_22 - x6_22 <= 0
tri3_6_15_22: t6_15_22 - x15_22 <= 0
tri4_6_15_22: t6_15_22 - x6_15 - x6_22 - x15_22 >= -2
tri1_6_15_23: t6_15_23 - x6_15 <= 0
tri2_6_15_23: t6_15_23 - x6_23 <= 0
tri3_6_15_23: t6_15_23 - x15_23 <= 0
tri4_6_15_23: t6_15_23 - x6_15 - x6_23 - x15_23 >= -2
tri1_6_16_17: t6_16_17 - x6_16 <= 0
tri2_6_16_17: t6_16_17 - x6_17 <= 0
tri3_6_16_17: t6_16_17 - x16_17 <= 0
tri4_6_16_17: t6_16_17 - x6_16 - x6_17 - x16_17 >= -2
tri1_6_16_18: t6_16_18 - x6_16 <= 0
tri2_6_16_18: t6_16_18 - x6_18 <= 0
tri3_6_16_18: t6_16_18 - x16_18 <= 0
tri4_6_16_18: t6_16_18 - x6_16 - x6_18 - x16_18 >= -2
tri1_6_16_19: t6_16_19 - x6_16 <= 0
tri2_6_16_19: t6_16_19 - x6_19 <= 0
tri3_6_16_19: t6_16_19 - x16_19 <= 0
tri4_6_16_19: t6_16_19 - x6_16 - x6_19 - x16_19 >= -2
tri1_6_16_20: t6_16_20 - x6_16 <= 0
tri2_6_16_20: t6_16_20 - x6_20 <= 0
tri3_6_16_20: t6_16_20 - x16_20 <= 0
tri4_6_16_20: t6_16_20 - x6_16 - x6_20 - x16_20 >= -2
tri1_6_16_21: t6_16_21 - x6_16 <= 0
tri2_6_16_21: t6_16_21 - x6_21 <= 0
tri3_6_16_21: t6_16_21 - x16_21 <= 0
tri4_6_16_21: t6_16_21 - x6_16 - x6_21 - x16_21 >= -2
tri1_6_16_22: t6_16_22 - x6_16 <= 0
tri2_6_16_22: t6_16_22 - x6_22 <= 0
tri3_6_16_22: t6_16_22 - x16_22 <= 0
tri4_6_16_22: t6_16_22 - x6_16 - x6_22 - x16_22 >= -2
tri1_6_16_23: t6_16_23 - x6_16 <= 0
tri2_6_16_23: t6_16_23 - x6_23 <= 0
tri3_6_16_23: t6_16_23 - x16_23 <= 0
tri4_6_16_23: t6_16_23 - x6_16 - x6_23 - x16_23 >= -2
tri1_6_17_18: t6_17_18 - x6_17 <= 0
tri2_6_17_18: t6_17_18 - x6_18 <= 0
tri3_6_17_18: t6_17_18 - x17_18 <= 0
tri4_6_17_18: t6_17_18 - x6_17 - x6_18 - x17_18 >= -2
tri1_6_17_19: t6_17_19 - x6_17 <= 0
tri2_6_17_19: t6_17_19 - x6_19 <= 0
tri3_6_17_19: t6_17_19 - x17_19 <= 0
tri4_6_17_19: t6_17_19 - x6_17 - x6_19 - x17_19 >= -2
tri1_6_17_20: t6_17_20 - x6_17 <= 0
tri2_6_17_20: t6_17_20 - x6_20 <= 0
tri3_6_17_20: t6_17_20 - x17_20 <= 0
tri4_6_17_20: t6_17_20 - x6_17 - x6_20 - x17_20 >= -2
tri1_6_17_21: t6_17_21 - x6_17 <= 0
tri2_6_17_21: t6_17_21 - x6_21 <= 0
tri3_6_17_21: t6_17_21 - x17_21 <= 0
tri4_6_17_21: t6_17_21 - x6_17 - x6_21 - x17_21 >= -2
tri1_6_17_22: t6_17_22 - x6_17 <= 0
tri2_6_17_22: t6_17_22 - x6_22 <= 0
tri3_6_17_22: t6_17_22 - x17_22 <= 0
tri4_6_17_22: t6_17_22 - x6_17 - x6_22 - x17_22 >= -2
tri1_6_17_23: t6_17_23 - x6_17 <= 0
tri2_6_17_23: t6_17_23 - x6_23 <= 0
tri3_6_17_23: t6_17_23 - x17_23 <= 0
tri4_6_17_23: t6_17_23 - x6_17 - x6_23 - x17_23 >= -2
tri1_6_18_19: t6_18_19 - x6_18 <= 0
tri2_6_18_19: t6_18_19 - x6_19 <= 0
tri3_6_18_19: t6_18_19 - x18_19 <= 0
tri4_6_18_19: t6_18_19 - x6_18 - x6_19 - x18_19 >= -2
tri1_6_18_20: t6_18_20 - x6_18 <= 0
tri2_6_18_20: t6_18_20 - x6_20 <= 0
tri3_6_18_20: t6_18_20 - x18_20 <= 0
tri4_6_18_20: t6_18_20 - x6_18 - x6_20 - x18_20 >= -2
tri1_6_18_21: t6_18_21 - x6_18 <= 0
tri2_6_18_21: t6_18_21 - x6_21 <= 0
tri3_6_18_21: t6_18_21 - x18_21 <= 0
tri4_6_18_21: t6_18_21 - x6_18 - x6_21 - x18_21 >= -2
tri1_6_18_22: t6_18_22 - x6_18 <= 0
tri2_6_18_22: t6_18_22 - x6_22 <= 0
tri3_6_18_22: t6_18_22 - x18_22 <= 0
tri4_6_18_22: t6_18_22 - x6_18 - x6_22 - x18_22 >= -2
tri1_6_18_23: t6_18_23 - x6_18 <= 0
tri2_6_18_23: t6_18_23 - x6_23 <= 0
tri3_6_18_23: t6_18_23 - x18_23 <= 0
tri4_6_18_23: t6_18_23 - x6_18 - x6_23 - x18_23 >= -2
tri1_6_19_20: t6_19_20 - x6_19 <= 0
tri2_6_19_20: t6_19_20 - x6_20 <= 0
tri3_6_19_20: t6_19_20 - x19_20 <= 0
tri4_6_19_20: t6_19_20 - x6_19 - x6_20 - x19_20 >= -2
tri1_6_19_21: t6_19_21 - x6_19 <= 0
tri2_6_19_21: t6_19_21 - x6_21 <= 0
tri3_6_19_21: t6_19_21 - x19_21 <= 0
tri4_6_19_21: t6_19_21 - x6_19 - x6_21 - x19_21 >= -2
tri1_6_19_22: t6_19_22 - x6_19 <= 0
tri2_6_19_22: t6_19_22 - x6_22 <= 0
tri3_6_19_22: t6_19_22 - x19_22 <= 0
tri4_6_19_22: t6_19_22 - x6_19 - x6_22 - x19_22 >= -2
tri1_6_19_23: t6_19_23 - x6_19 <= 0
tri2_6_19_23: t6_19_23 - x6_23 <= 0
tri3_6_19_23: t6_19_23 - x19_23 <= 0
tri4_6_19_23: t6_19_23 - x6_19 - x6_23 - x19_23 >= -2
tri1_6_20_21: t6_20_21 - x6_20 <= 0
tri2_6_20_21: t6_20_21 - x6_21 <= 0
tri3_6_20_21: t6_20_21 - x20_21 <= 0
tri4_6_20_21: t6_20_21 - x6_20 - x6_21 - x20_21 >= -2
tri1_6_20_22: t6_20_22 - x6_20 <= 0
tri2_6_20_22: t6_20_22 - x6_22 <= 0
tri3_6_20_22: t6_20_22 - x20_22 <= 0
tri4_6_20_22: t6_20_22 - x6_20 - x6_22 - x20_22 >= -2
tri1_6_20_23: t6_20_23 - x6_20 <= 0
tri2_6_20_23: t6_20_23 - x6_23 <= 0
tri3_6_20_23: t6_20_23 - x20_23 <= 0
tri4_6_20_23: t6_20_23 - x6_20 - x6_23 - x20_23 >= -2
tri1_6_21_22: t6_21_22 - x6_21 <= 0
tri2_6_21_22: t6_21_22 - x6_22 <= 0
tri3_6_21_22: t6_21_22 - x21_22 <= 0
tri4_6_21_22: t6_21_22 - x6_21 - x6_22 - x21_22 >= -2
tri1_6_21_23: t6_21_23 - x6_21 <= 0
tri2_6_21_23: t6_21_23 - x6_23 <= 0
tri3_6_21_23: t6_21_23 - x21_23 <= 0
tri4_6_21_23: t6_21_23 - x6_21 - x6_23 - x21_23 >= -2
tri1_6_22_23: t6_22_23 - x6_22 <= 0
tri2_6_22_23: t6_22_23 - x6_23 <= 0
tri3_6_22_23: t6_22_23 - x22_23 <= 0
tri4_6_22_23: t6_22_23 - x6_22 - x6_23 - x22_23 >= -2
tri1_7_8_9: t7_8_9 - x7_8 <= 0
tri2_7_8_9: t7_8_9 - x7_9 <= 0
tri3_7_8_9: t7_8_9 - x8_9 <= 0
tri4_7_8_9: t7_8_9 - x7_8 - x7_9 - x8_9 >= -2
tri1_7_8_10: t7_8_10 - x7_8 <= 0
tri2_7_8_10: t7_8_10 - x7_10 <= 0
tri3_7_8_10: t7_8_10 - x8_10 <= 0
tri4_7_8_10: t7_8_10 - x7_8 - x7_10 - x8_10 >= -2
tri1_7_8_11: t7_8_11 - x7_8 <= 0
tri2_7_8_11: t7_8_11 - x7_11 <= 0
tri3_7_8_11: t7_8_11 - x8_11 <= 0
tri4_7_8_11: t7_8_11 - x7_8 - x7_11 - x8_11 >= -2
tri1_7_8_12: t7_8_12 - x7_8 <= 0
tri2_7_8_12: t7_8_12 - x7_12 <= 0
tri3_7_8_12: t7_8_12 - x8_12 <= 0
tri4_7_8_12: t7_8_12 - x7_8 - x7_12 - x8_12 >= -2
tri1_7_8_13: t7_8_13 - x7_8 <= 0
tri2_7_8_13: t7_8_13 - x7_13 <= 0
tri3_7_8_13: t7_8_13 - x8_13 <= 0
tri4_7_8_13: t7_8_13 - x7_8 - x7_13 - x8_13 >= -2
tri1_7_8_14: t7_8_14 - x7_8 <= 0
tri2_7_8_14: t7_8_14 - x7_14 <= 0
tri3_7_8_14: t7_8_14 - x8_14 <= 0
tri4_7_8_14: t7_8_14 - x7_8 - x7_14 - x8_14 >= -2
tri1_7_8_15: t7_8_15 - x7_8 <= 0
tri2_7_8_15: t7_8_15 - x7_15 <= 0
tri3_7_8_15: t7_8_15 - x8_15 <= 0
tri4_7_8_15: t7_8_15 - x7_8 - x7_15 - x8_15 >= -2
tri1_7_8_16: t7_8_16 - x7_8 <= 0
tri2_7_8_16: t7_8_16 - x7_16 <= 0
tri3_7_8_16: t7_8_16 - x8_16 <= 0
tri4_7_8_16: t7_8_16 - x7_8 - x7_16 - x8_16 >= -2
tri1_7_8_17: t7_8_17 - x7_8 <= 0
tri2_7_8_17: t7_8_17 - x7_17 <= 0
tri3_7_8_17: t7_8_17 - x8_17 <= 0
tri4_7_8_17: t7_8_17 - x7_8 - x7_17 - x8_17 >= -2
tri1_7_8_18: t7_8_18 - x7_8 <= 0
tri2_7_8_18: t7_8_18 - x7_18 <= 0
tri3_7_8_18: t7_8_18 - x8_18 <= 0
tri4_7_8_18: t7_8_18 - x7_8 - x7_18 - x8_18 >= -2
tri1_7_8_19: t7_8_19 - x7_8 <= 0
tri2_7_8_19: t7_8_19 - x7_19 <= 0
tri3_7_8_19: t7_8_19 - x8_19 <= 0
tri4_7_8_19: t7_8_19 - x7_8 - x7_19 - x8_19 >= -2
tri1_7_8_20: t7_8_20 - x7_8 <= 0
tri2_7_8_20: t7_8_20 - x7_20 <= 0
tri3_7_8_20: t7_8_20 - x8_20 <= 0
tri4_7_8_20: t7_8_20 - x7_8 - x7_20 - x8_20 >= -2
tri1_7_8_21: t7_8_21 - x7_8 <= 0
tri2_7_8_21: t7_8_21 - x7_21 <= 0
tri3_7_8_21: t7_8_21 - x8_21 <= 0
tri4_7_8_21: t7_8_21 - x7_8 - x7_21 - x8_21 >= -2
tri1_7_8_22: t7_8_22 - x7_8 <= 0
tri2_7_8_22: t7_8_22 - x7_22 <= 0
tri3_7_8_22: t7_8_22 - x8_22 <= 0
tri4_7_8_22: t7_8_22 - x7_8 - x7_22 - x8_22 >= -2
tri1_7_8_23: t7_8_23 - x7_8 <= 0
tri2_7_8_23: t7_8_23 - x7_23 <= 0
tri3_7_8_23: t7_8_23 - x8_23 <= 0
tri4_7_8_23: t7_8_23 - x7_8 - x7_23 - x8_23 >= -2
tri1_7_9_10: t7_9_10 - x7_9 <= 0
tri2_7_9_10: t7_9_10 - x7_10 <= 0
tri3_7_9_10: t7_9_10 - x9_10 <= 0
tri4_7_9_10: t7_9_10 - x7_9 - x7_10 - x9_10 >= -2
tri1_7_9_11: t7_9_11 - x7_9 <= 0
tri2_7_9_11: t7_9_11 - x7_11 <= 0
tri3_7_9_11: t7_9_11 - x9_11 <= 0
tri4_7_9_11: t7_9_11 - x7_9 - x7_11 - x9_11 >= -2
tri1_7_9_12: t7_9_12 - x7_9 <= 0
tri2_7_9_12: t7_9_12 - x7_12 <= 0
tri3_7_9_12: t7_9_12 - x9_12 <= 0
tri4_7_9_12: t7_9_12 - x7_9 - x7_12 - x9_12 >= -2
tri1_7_9_13: t7_9_13 - x7_9 <= 0
tri2_7_9_13: t7_9_13 - x7_13 <= 0
tri3_7_9_13: t7_9_13 - x9_13 <= 0
tri4_7_9_13: t7_9_13 - x7_9 - x7_13 - x9_13 >= -2
tri1_7_9_14: t7_9_14 - x7_9 <= 0
tri2_7_9_14: t7_9_14 - x7_14 <= 0
tri3_7_9_14: t7_9_14 - x9_14 <= 0
tri4_7_9_14: t7_9_14 - x7_9 - x7_14 - x9_14 >= -2
tri1_7_9_15: t7_9_15 - x7_9 <= 0
tri2_7_9_15: t7_9_15 - x7_15 <= 0
tri3_7_9_15: t7_9_15 - x9_15 <= 0
tri4_7_9_15: t7_9_15 - x7_9 - x7_15 - x9_15 >= -2
tri1_7_9_16: t7_9_16 - x7_9 <= 0
tri2_7_9_16: t7_9_16 - x7_16 <= 0
tri3_7_9_16: t7_9_16 - x9_16 <= 0
tri4_7_9_16: t7_9_16 - x7_9 - x7_16 - x9_16 >= -2
tri1_7_9_17: t7_9_17 - x7_9 <= 0
tri2_7_9_17: t7_9_17 - x7_17 <= 0
tri3_7_9_17: t7_9_17 - x9_17 <= 0
tri4_7_9_17: t7_9_17 - x7_9 - x7_17 - x9_17 >= -2
tri1_7_9_18: t7_9_18 - x7_9 <= 0
tri2_7_9_18: t7_9_18 - x7_18 <= 0
tri3_7_9_18: t7_9_18 - x9_18 <= 0
tri4_7_9_18: t7_9_18 - x7_9 - x7_18 - x9_18 >= -2
tri1_7_9_19: t7_9_19 - x7_9 <= 0
tri2_7_9_19: t7_9_19 - x7_19 <= 0
tri3_7_9_19: t7_9_19 - x9_19 <= 0
tri4_7_9_19: t7_9_19 - x7_9 - x7_19 - x9_19 >= -2
tri1_7_9_20: t7_9_20 - x7_9 <= 0
tri2_7_9_20: t7_9_20 - x7_20 <= 0
tri3_7_9_20: t7_9_20 - x9_20 <= 0
tri4_7_9_20: t7_9_20 - x7_9 - x7_20 - x9_20 >= -2
tri1_7_9_21: t7_9_21 - x7_9 <= 0
tri2_7_9_21: t7_9_21 - x7_21 <= 0
tri3_7_9_21: t7_9_21 - x9_21 <= 0
tri4_7_9_21: t7_9_21 - x7_9 - x7_21 - x9_21 >= -2
tri1_7_9_22: t7_9_22 - x7_9 <= 0
tri2_7_9_22: t7_9_22 - x7_22 <= 0
tri3_7_9_22: t7_9_22 - x9_22 <= 0
tri4_7_9_22: t7_9_22 - x7_9 - x7_22 - x9_22 >= -2
tri1_7_9_23: t7_9_23 - x7_9 <= 0
tri2_7_9_23: t7_9_23 - x7_23 <= 0
tri3_7_9_23: t7_9_23 - x9_23 <= 0
tri4_7_9_23: t7_9_23 - x7_9 - x7_23 - x9_23 >= -2
tri1_7_10_11: t7_10_11 - x7_10 <= 0
tri2_7_10_11: t7_10_11 - x7_11 <= 0
tri3_7_10_11: t7_10_11 - x10_11 <= 0
tri4_7_10_11: t7_10_11 - x7_10 - x7_11 - x10_11 >= -2
tri1_7_10_12: t7_10_12 - x7_10 <= 0
tri2_7_10_12: t7_10_12 - x7_12 <= 0
tri3_7_10_12: t7_10_12 - x10_12 <= 0
tri4_7_10_12: t7_10_12 - x7_10 - x7_12 - x10_12 >= -2
tri1_7_10_13: t7_10_13 - x7_10 <= 0
tri2_7_10_13: t7_10_13 - x7_13 <= 0
tri3_7_10_13: t7_10_13 - x10_13 <= 0
tri4_7_10_13: t7_10_13 - x7_10 - x7_13 - x10_13 >= -2
tri1_7_10_14: t7_10_14 - x7_10 <= 0
tri2_7_10_14: t7_10_14 - x7_14 <= 0
tri3_7_10_14: t7_10_14 - x10_14 <= 0
tri4_7_10_14: t7_10_14 - x7_10 - x7_14 - x10_14 >= -2
tri1_7_10_15: t7_10_15 - x7_10 <= 0
tri2_7_10_15: t7_10_15 - x7_15 <= 0
tri3_7_10_15: t7_10_15 - x10_15 <= 0
tri4_7_10_15: t7_10_15 - x7_10 - x7_15 - x10_15 >= -2
tri1_7_10_16: t7_10_16 - x7_10 <= 0
tri2_7_10_16: t7_10_16 - x7_16 <= 0
tri3_7_10_16: t7_10_16 - x10_16 <= 0
tri4_7_10_16: t7_10_16 - x7_10 - x7_16 - x10_16 >= -2
tri1_7_10_17: t7_10_17 - x7_10 <= 0
tri2_7_10_17: t7_10_17 - x7_17 <= 0
tri3_7_10_17: t7_10_17 - x10_17 <= 0
tri4_7_10_17: t7_10_17 - x7_10 - x7_17 - x10_17 >= -2
tri1_7_10_18: t7_10_18 - x7_10 <= 0
tri2_7_10_18: t7_10_18 - x7_18 <= 0
tri3_7_10_18: t7_10_18 - x10_18 <= 0
tri4_7_10_18: t7_10_18 - x7_10 - x7_18 - x10_18 >= -2
tri1_7_10_19: t7_10_19 - x7_10 <= 0
tri2_7_10_19: t7_10_19 - x7_19 <= 0
tri3_7_10_19: t7_10_19 - x10_19 <= 0
tri4_7_10_19: t7_10_19 - x7_10 - x7_19 - x10_19 >= -2
tri1_7_10_20: t7_10_20 - x7_10 <= 0
tri2_7_10_20: t7_10_20 - x7_20 <= 0
tri3_7_10_20: t7_10_20 - x10_20 <= 0
tri4_7_10_20: t7_10_20 - x7_10 - x7_20 - x10_20 >= -2
tri1_7_10_21: t7_10_21 - x7_10 <= 0
tri2_7_10_21: t7_10_21 - x7_21 <= 0
tri3_7_10_21: t7_10_21 - x10_21 <= 0
tri4_7_10_21: t7_10_21 - x7_10 - x7_21 - x10_21 >= -2
tri1_7_10_22: t7_10_22 - x7_10 <= 0
tri2_7_10_22: t7_10_22 - x7_22 <= 0
tri3_7_10_22: t7_10_22 - x10_22 <= 0
tri4_7_10_22: t7_10_22 - x7_10 - x7_22 - x10_22 >= -2
tri1_7_10_23: t7_10_23 - x7_10 <= 0
tri2_7_10_23: t7_10_23 - x7_23 <= 0
tri3_7_10_23: t7_10_23 - x10_23 <= 0
tri4_7_10_23: t7_10_23 - x7_10 - x7_23 - x10_23 >= -2
tri1_7_11_12: t7_11_12 - x7_11 <= 0
tri2_7_11_12: t7_11_12 - x7_12 <= 0
tri3_7_11_12: t7_11_12 - x11_12 <= 0
tri4_7_11_12: t7_11_12 - x7_11 - x7_12 - x11_12 >= -2
tri1_7_11_13: t7_11_13 - x7_11 <= 0
tri2_7_11_13: t7_11_13 - x7_13 <= 0
tri3_7_11_13: t7_11_13 - x11_13 <= 0
tri4_7_11_13: t7_11_13 - x7_11 - x7_13 - x11_13 >= -2
tri1_7_11_14: t7_11_14 - x7_11 <= 0
tri2_7_11_14: t7_11_14 - x7_14 <= 0
tri3_7_11_14: t7_11_14 - x11_14 <= 0
tri4_7_11_14: t7_11_14 - x7_11 - x7_14 - x11_14 >= -2
tri1_7_11_15: t7_11_15 - x7_11 <= 0
tri2_7_11_15: t7_11_15 - x7_15 <= 0
tri3_7_11_15: t7_11_15 - x11_15 <= 0
tri4_7_11_15: t7_11_15 - x7_11 - x7_15 - x11_15 >= -2
tri1_7_11_16: t7_11_16 - x7_11 <= 0
tri2_7_11_16: t7_11_16 - x7_16 <= 0
tri3_7_11_16: t7_11_16 - x11_16 <= 0
tri4_7_11_16: t7_11_16 - x7_11 - x7_16 - x11_16 >= -2
tri1_7_11_17: t7_11_17 - x7_11 <= 0
tri2_7_11_17: t7_11_17 - x7_17 <= 0
tri3_7_11_17: t7_11_17 - x11_17 <= 0
tri4_7_11_17: t7_11_17 - x7_11 - x7_17 - x11_17 >= -2
tri1_7_11_18: t7_11_18 - x7_11 <= 0
tri2_7_11_18: t7_11_18 - x7_18 <= 0
tri3_7_11_18: t7_11_18 - x11_18 <= 0
tri4_7_11_18: t7_11_18 - x7_11 - x7_18 - x11_18 >= -2
tri1_7_11_19: t7_11_19 - x7_11 <= 0
tri2_7_11_19: t7_11_19 - x7_19 <= 0
tri3_7_11_19: t7_11_19 - x11_19 <= 0
tri4_7_11_19: t7_11_19 - x7_11 - x7_19 - x11_19 >= -2
tri1_7_11_20: t7_11_20 - x7_11 <= 0
tri2_7_11_20: t7_11_20 - x7_20 <= 0
tri3_7_11_20: t7_11_20 - x11_20 <= 0
tri4_7_11_20: t7_11_20 - x7_11 - x7_20 - x11_20 >= -2
tri1_7_11_21: t7_11_21 - x7_11 <= 0
tri2_7_11_21: t7_11_21 - x7_21 <= 0
tri3_7_11_21: t7_11_21 - x11_21 <= 0
tri4_7_11_21: t7_11_21 - x7_11 - x7_21 - x11_21 >= -2
tri1_7_11_22: t7_11_22 - x7_11 <= 0
tri2_7_11_22: t7_11_22 - x7_22 <= 0
tri3_7_11_22: t7_11_22 - x11_22 <= 0
tri4_7_11_22: t7_11_22 - x7_11 - x7_22 - x11_22 >= -2
tri1_7_11_23: t7_11_23 - x7_11 <= 0
tri2_7_11_23: t7_11_23 - x7_23 <= 0
tri3_7_11_23: t7_11_23 - x11_23 <= 0
tri4_7_11_23: t7_11_23 - x7_11 - x7_23 - x11_23 >= -2
tri1_7_12_13: t7_12_13 - x7_12 <= 0
tri2_7_12_13: t7_12_13 - x7_13 <= 0
tri3_7_12_13: t7_12_13 - x12_13 <= 0
tri4_7_12_13: t7_12_13 - x7_12 - x7_13 - x12_13 >= -2
tri1_7_12_14: t7_12_14 - x7_12 <= 0
tri2_7_12_14: t7_12_14 - x7_14 <= 0
tri3_7_12_14: t7_12_14 - x12_14 <= 0
tri4_7_12_14: t7_12_14 - x7_12 - x7_14 - x12_14 >= -2
tri1_7_12_15: t7_12_15 - x7_12 <= 0
tri2_7_12_15: t7_12_15 - x7_15 <= 0
tri3_7_12_15: t7_12_15 - x12_15 <= 0
tri4_7_12_15: t7_12_15 - x7_12 - x7_15 - x12_15 >= -2
tri1_7_12_16: t7_12_16 - x7_12 <= 0
tri2_7_12_16: t7_12_16 - x7_16 <= 0
tri3_7_12_16: t7_12_16 - x12_16 <= 0
tri4_7_12_16: t7_12_16 - x7_12 - x7_16 - x12_16 >= -2
tri1_7_12_17: t7_12_17 - x7_12 <= 0
tri2_7_12_17: t7_12_17 - x7_17 <= 0
tri3_7_12_17: t7_12_17 - x12_17 <= 0
tri4_7_12_17: t7_12_17 - x7_12 - x7_17 - x12_17 >= -2
tri1_7_12_18: t7_12_18 - x7_12 <= 0
tri2_7_12_18: t7_12_18 - x7_18 <= 0
tri3_7_12_18: t7_12_18 - x12_18 <= 0
tri4_7_12_18: t7_12_18 - x7_12 - x7_18 - x12_18 >= -2
tri1_7_12_19: t7_12_19 - x7_12 <= 0
tri2_7_12_19: t7_12_19 - x7_19 <= 0
tri3_7_12_19: t7_12_19 - x12_19 <= 0
tri4_7_12_19: t7_12_19 - x7_12 - x7_19 - x12_19 >= -2
tri1_7_12_20: t7_12_20 - x7_12 <= 0
tri2_7_12_20: t7_12_20 - x7_20 <= 0
tri3_7_12_20: t7_12_20 - x12_20 <= 0
tri4_7_12_20: t7_12_20 - x7_12 - x7_20 - x12_20 >= -2
tri1_7_12_21: t7_12_21 - x7_12 <= 0
tri2_7_12_21: t7_12_21 - x7_21 <= 0
tri3_7_12_21: t7_12_21 - x12_21 <= 0
tri4_7_12_21: t7_12_21 - x7_12 - x7_21 - x12_21 >= -2
tri1_7_12_22: t7_12_22 - x7_12 <= 0
tri2_7_12_22: t7_12_22 - x7_22 <= 0
tri3_7_12_22: t7_12_22 - x12_22 <= 0
tri4_7_12_22: t7_12_22 - x7_12 - x7_22 - x12_22 >= -2
tri1_7_12_23: t7_12_23 - x7_12 <= 0
tri2_7_12_23: t7_12_23 - x7_23 <= 0
tri3_7_12_23: t7_12_23 - x12_23 <= 0
tri4_7_12_23: t7_12_23 - x7_12 - x7_23 - x12_23 >= -2
tri1_7_13_14: t7_13_14 - x7_13 <= 0
tri2_7_13_14: t7_13_14 - x7_14 <= 0
tri3_7_13_14: t7_13_14 - x13_14 <= 0
tri4_7_13_14: t7_13_14 - x7_13 - x7_14 - x13_14 >= -2
tri1_7_13_15: t7_13_15 - x7_13 <= 0
tri2_7_13_15: t7_13_15 - x7_15 <= 0
tri3_7_13_15: t7_13_15 - x13_15 <= 0
tri4_7_13_15: t7_13_15 - x7_13 - x7_15 - x13_15 >= -2
tri1_7_13_16: t7_13_16 - x7_13 <= 0
tri2_7_13_16: t7_13_16 - x7_16 <= 0
tri3_7_13_16: t7_13_16 - x13_16 <= 0
tri4_7_13_16: t7_13_16 - x7_13 - x7_16 - x13_16 >= -2
tri1_7_13_17: t7_13_17 - x7_13 <= 0
tri2_7_13_17: t7_13_17 - x7_17 <= 0
tri3_7_13_17: t7_13_17 - x13_17 <= 0
tri4_7_13_17: t7_13_17 - x7_13 - x7_17 - x13_17 >= -2
tri1_7_13_18: t7_13_18 - x7_13 <= 0
tri2_7_13_18: t7_13_18 - x7_18 <= 0
tri3_7_13_18: t7_13_18 - x13_18 <= 0
tri4_7_13_18: t7_13_18 - x7_13 - x7_18 - x13_18 >= -2
tri1_7_13_19: t7_13_19 - x7_13 <= 0
tri2_7_13_19: t7_13_19 - x7_19 <= 0
tri3_7_13_19: t7_13_19 - x13_19 <= 0
tri4_7_13_19: t7_13_19 - x7_13 - x7_19 - x13_19 >= -2
tri1_7_13_20: t7_13_20 - x7_13 <= 0
tri2_7_13_20: t7_13_20 - x7_20 <= 0
tri3_7_13_20: t7_13_20 - x13_20 <= 0
tri4_7_13_20: t7_13_20 - x7_13 - x7_20 - x13_20 >= -2
tri1_7_13_21: t7_13_21 - x7_13 <= 0
tri2_7_13_21: t7_13_21 - x7_21 <= 0
tri3_7_13_21: t7_13_21 - x13_21 <= 0
tri4_7_13_21: t7_13_21 - x7_13 - x7_21 - x13_21 >= -2
tri1_7_13_22: t7_13_22 - x7_13 <= 0
tri2_7_13_22: t7_13_22 - x7_22 <= 0
tri3_7_13_22: t7_13_22 - x13_22 <= 0
tri4_7_13_22: t7_13_22 - x7_13 - x7_22 - x13_22 >= -2
tri1_7_13_23: t7_13_23 - x7_13 <= 0
tri2_7_13_23: t7_13_23 - x7_23 <= 0
tri3_7_13_23: t7_13_23 - x13_23 <= 0
tri4_7_13_23: t7_13_23 - x7_13 - x7_23 - x13_23 >= -2
tri1_7_14_15: t7_14_15 - x7_14 <= 0
tri2_7_14_15: t7_14_15 - x7_15 <= 0
tri3_7_14_15: t7_14_15 - x14_15 <= 0
tri4_7_14_15: t7_14_15 - x7_14 - x7_15 - x14_15 >= -2
tri1_7_14_16: t7_14_16 - x7_14 <= 0
tri2_7_14_16: t7_14_16 - x7_16 <= 0
tri3_7_14_16: t7_14_16 - x14_16 <= 0
tri4_7_14_16: t7_14_16 - x7_14 - x7_16 - x14_16 >= -2
tri1_7_14_17: t7_14_17 - x7_14 <= 0
tri2_7_14_17: t7_14_17 - x7_17 <= 0
tri3_7_14_17: t7_14_17 - x14_17 <= 0
tri4_7_14_17: t7_14_17 - x7_14 - x7_17 - x14_17 >= -2
tri1_7_14_18: t7_14_18 - x7_14 <= 0
tri2_7_14_18: t7_14_18 - x7_18 <= 0
tri3_7_14_18: t7_14_18 - x14_18 <= 0
tri4_7_14_18: t7_14_18 - x7_14 - x7_18 - x14_18 >= -2
tri1_7_14_19: t7_14_19 - x7_14 <= 0
tri2_7_14_19: t7_14_19 - x7_19 <= 0
tri3_7_14_19: t7_14_19 - x14_19 <= 0
tri4_7_14_19: t7_14_19 - x7_14 - x7_19 - x14_19 >= -2
tri1_7_14_20: t7_14_20 - x7_14 <= 0
tri2_7_14_20: t7_14_20 - x7_20 <= 0
tri3_7_14_20: t7_14_20 - x14_20 <= 0
tri4_7_14_20: t7_14_20 - x7_14 - x7_20 - x14_20 >= -2
tri1_7_14_21: t7_14_21 - x7_14 <= 0
tri2_7_14_21: t7_14_21 - x7_21 <= 0
tri3_7_14_21: t7_14_21 - x14_21 <= 0
tri4_7_14_21: t7_14_21 - x7_14 - x7_21 - x14_21 >= -2
tri1_7_14_22: t7_14_22 - x7_14 <= 0
tri2_7_14_22: t7_14_22 - x7_22 <= 0
tri3_7_14_22: t7_14_22 - x14_22 <= 0
tri4_7_14_22: t7_14_22 - x7_14 - x7_22 - x14_22 >= -2
tri1_7_14_23: t7_14_23 - x7_14 <= 0
tri2_7_14_23: t7_14_23 - x7_23 <= 0
tri3_7_14_23: t7_14_23 - x14_23 <= 0
tri4_7_14_23: t7_14_23 - x7_14 - x7_23 - x14_23 >= -2
tri1_7_15_16: t7_15_16 - x7_15 <= 0
tri2_7_15_16: t7_15_16 - x7_16 <= 0
tri3_7_15_16: t7_15_16 - x15_16 <= 0
tri4_7_15_16: t7_15_16 - x7_15 - x7_16 - x15_16 >= -2
tri1_7_15_17: t7_15_17 - x7_15 <= 0
tri2_7_15_17: t7_15_17 - x7_17 <= 0
tri3_7_15_17: t7_15_17 - x15_17 <= 0
tri4_7_15_17: t7_15_17 - x7_15 - x7_17 - x15_17 >= -2
tri1_7_15_18: t7_15_18 - x7_15 <= 0
tri2_7_15_18: t7_15_18 - x7_18 <= 0
tri3_7_15_18: t7_15_18 - x15_18 <= 0
tri4_7_15_18: t7_15_18 - x7_15 - x7_18 - x15_18 >= -2
tri1_7_15_19: t7_15_19 - x7_15 <= 0
tri2_7_15_19: t7_15_19 - x7_19 <= 0
tri3_7_15_19: t7_15_19 - x15_19 <= 0
tri4_7_15_19: t7_15_19 - x7_15 - x7_19 - x15_19 >= -2
tri1_7_15_20: t7_15_20 - x7_15 <= 0
tri2_7_15_20: t7_15_20 - x7_20 <= 0
tri3_7_15_20: t7_15_20 - x15_20 <= 0
tri4_7_15_20: t7_15_20 - x7_15 - x7_20 - x15_20 >= -2
tri1_7_15_21: t7_15_21 - x7_15 <= 0
tri2_7_15_21: t7_15_21 - x7_21 <= 0
tri3_7_15_21: t7_15_21 - x15_21 <= 0
tri4_7_15_21: t7_15_21 - x7_15 - x7_21 - x15_21 >= -2
tri1_7_15_22: t7_15_22 - x7_15 <= 0
tri2_7_15_22: t7_15_22 - x7_22 <= 0
tri3_7_15_22: t7_15_22 - x15_22 <= 0
tri4_7_15_22: t7_15_22 - x7_15 - x7_22 - x15_22 >= -2
tri1_7_15_23: t7_15_23 - x7_15 <= 0
tri2_7_15_23: t7_15_23 - x7_23 <= 0
tri3_7_15_23: t7_15_23 - x15_23 <= 0
tri4_7_15_23: t7_15_23 - x7_15 - x7_23 - x15_23 >= -2
tri1_7_16_17: t7_16_17 - x7_16 <= 0
tri2_7_16_17: t7_16_17 - x7_17 <= 0
tri3_7_16_17: t7_16_17 - x16_17 <= 0
tri4_7_16_17: t7_16_17 - x7_16 - x7_17 - x16_17 >= -2
tri1_7_16_18: t7_16_18 - x7_16 <= 0
tri2_7_16_18: t7_16_18 - x7_18 <= 0
tri3_7_16_18: t7_16_18 - x16_18 <= 0
tri4_7_16_18: t7_16_18 - x7_16 - x7_18 - x16_18 >= -2
tri1_7_16_19: t7_16_19 - x7_16 <= 0
tri2_7_16_19: t7_16_19 - x7_19 <= 0
tri3_7_16_19: t7_16_19 - x16_19 <= 0
tri4_7_16_19: t7_16_19 - x7_16 - x7_19 - x16_19 >= -2
tri1_7_16_20: t7_16_20 - x7_16 <= 0
tri2_7_16_20: t7_16_20 - x7_20 <= 0
tri3_7_16_20: t7_16_20 - x16_20 <= 0
tri4_7_16_20: t7_16_20 - x7_16 - x7_20 - x16_20 >= -2
tri1_7_16_21: t7_16_21 - x7_16 <= 0
tri2_7_16_21: t7_16_21 - x7_21 <= 0
tri3_7_16_21: t7_16_21 - x16_21 <= 0
tri4_7_16_21: t7_16_21 - x7_16 - x7_21 - x16_21 >= -2
tri1_7_16_22: t7_16_22 - x7_16 <= 0
tri2_7_16_22: t7_16_22 - x7_22 <= 0
tri3_7_16_22: t7_16_22 - x16_22 <= 0
tri4_7_16_22: t7_16_22 - x7_16 - x7_22 - x16_22 >= -2
tri1_7_16_23: t7_16_23 - x7_16 <= 0
tri2_7_16_23: t7_16_23 - x7_23 <= 0
tri3_7_16_23: t7_16_23 - x16_23 <= 0
tri4_7_16_23: t7_16_23 - x7_16 - x7_23 - x16_23 >= -2
tri1_7_17_18: t7_17_18 - x7_17 <= 0
tri2_7_17_18: t7_17_18 - x7_18 <= 0
tri3_7_17_18: t7_17_18 - x17_18 <= 0
tri4_7_17_18: t7_17_18 - x7_17 - x7_18 - x17_18 >= -2
tri1_7_17_19: t7_17_19 - x7_17 <= 0
tri2_7_17_19: t7_17_19 - x7_19 <= 0
tri3_7_17_19: t7_17_19 - x17_19 <= 0
tri4_7_17_19: t7_17_19 - x7_17 - x7_19 - x17_19 >= -2
tri1_7_17_20: t7_17_20 - x7_17 <= 0
tri2_7_17_20: t7_17_20 - x7_20 <= 0
tri3_7_17_20: t7_17_20 - x17_20 <= 0
tri4_7_17_20: t7_17_20 - x7_17 - x7_20 - x17_20 >= -2
tri1_7_17_21: t7_17_21 - x7_17 <= 0
tri2_7_17_21: t7_17_21 - x7_21 <= 0
tri3_7_17_21: t7_17_21 - x17_21 <= 0
tri4_7_17_21: t7_17_21 - x7_17 - x7_21 - x17_21 >= -2
tri1_7_17_22: t7_17_22 - x7_17 <= 0
tri2_7_17_22: t7_17_22 - x7_22 <= 0
tri3_7_17_22: t7_17_22 - x17_22 <= 0
tri4_7_17_22: t7_17_22 - x7_17 - x7_22 - x17_22 >= -2
tri1_7_17_23: t7_17_23 - x7_17 <= 0
tri2_7_17_23: t7_17_23 - x7_23 <= 0
tri3_7_17_23: t7_17_23 - x17_23 <= 0
tri4_7_17_23: t7_17_23 - x7_17 - x7_23 - x17_23 >= -2
tri1_7_18_19: t7_18_19 - x7_18 <= 0
tri2_7_18_19: t7_18_19 - x7_19 <= 0
tri3_7_18_19: t7_18_19 - x18_19 <= 0
tri4_7_18_19: t7_18_19 - x7_18 - x7_19 - x18_19 >= -2
tri1_7_18_20: t7_18_20 - x7_18 <= 0
tri2_7_18_20: t7_18_20 - x7_20 <= 0
tri3_7_18_20: t7_18_20 - x18_20 <= 0
tri4_7_18_20: t7_18_20 - x7_18 - x7_20 - x18_20 >= -2
tri1_7_18_21: t7_18_21 - x7_18 <= 0
tri2_7_18_21: t7_18_21 - x7_21 <= 0
tri3_7_18_21: t7_18_21 - x18_21 <= 0
tri4_7_18_21: t7_18_21 - x7_18 - x7_21 - x18_21 >= -2
tri1_7_18_22: t7_18_22 - x7_18 <= 0
tri2_7_18_22: t7_18_22 - x7_22 <= 0
tri3_7_18_22: t7_18_22 - x18_22 <= 0
tri4_7_18_22: t7_18_22 - x7_18 - x7_22 - x18_22 >= -2
tri1_7_18_23: t7_18_23 - x7_18 <= 0
tri2_7_18_23: t7_18_23 - x7_23 <= 0
tri3_7_18_23: t7_18_23 - x18_23 <= 0
tri4_7_18_23: t7_18_23 - x7_18 - x7_23 - x18_23 >= -2
tri1_7_19_20: t7_19_20 - x7_19 <= 0
tri2_7_19_20: t7_19_20 - x7_20 <= 0
tri3_7_19_20: t7_19_20 - x19_20 <= 0
tri4_7_19_20: t7_19_20 - x7_19 - x7_20 - x19_20 >= -2
tri1_7_19_21: t7_19_21 - x7_19 <= 0
tri2_7_19_21: t7_19_21 - x7_21 <= 0
tri3_7_19_21: t7_19_21 - x19_21 <= 0
tri4_7_19_21: t7_19_21 - x7_19 - x7_21 - x19_21 >= -2
tri1_7_19_22: t7_19_22 - x7_19 <= 0
tri2_7_19_22: t7_19_22 - x7_22 <= 0
tri3_7_19_22: t7_19_22 - x19_22 <= 0
tri4_7_19_22: t7_19_22 - x7_19 - x7_22 - x19_22 >= -2
tri1_7_19_23: t7_19_23 - x7_19 <= 0
tri2_7_19_23: t7_19_23 - x7_23 <= 0
tri3_7_19_23: t7_19_23 - x19_23 <= 0
tri4_7_19_23: t7_19_23 - x7_19 - x7_23 - x19_23 >= -2
tri1_7_20_21: t7_20_21 - x7_20 <= 0
tri2_7_20_21: t7_20_21 - x7_21 <= 0
tri3_7_20_21: t7_20_21 - x20_21 <= 0
tri4_7_20_21: t7_20_21 - x7_20 - x7_21 - x20_21 >= -2
tri1_7_20_22: t7_20_22 - x7_20 <= 0
tri2_7_20_22: t7_20_22 - x7_22 <= 0
tri3_7_20_22: t7_20_22 - x20_22 <= 0
tri4_7_20_22: t7_20_22 - x7_20 - x7_22 - x20_22 >= -2
tri1_7_20_23: t7_20_23 - x7_20 <= 0
tri2_7_20_23: t7_20_23 - x7_23 <= 0
tri3_7_20_23: t7_20_23 - x20_23 <= 0
tri4_7_20_23: t7_20_23 - x7_20 - x7_23 - x20_23 >= -2
tri1_7_21_22: t7_21_22 - x7_21 <= 0
tri2_7_21_22: t7_21_22 - x7_22 <= 0
tri3_7_21_22: t7_21_22 - x21_22 <= 0
tri4_7_21_22: t7_21_22 - x7_21 - x7_22 - x21_22 >= -2
tri1_7_21_23: t7_21_23 - x7_21 <= 0
tri2_7_21_23: t7_21_23 - x7_23 <= 0
tri3_7_21_23: t7_21_23 - x21_23 <= 0
tri4_7_21_23: t7_21_23 - x7_21 - x7_23 - x21_23 >= -2
tri1_7_22_23: t7_22_23 - x7_22 <= 0
tri2_7_22_23: t7_22_23 - x7_23 <= 0
tri3_7_22_23: t7_22_23 - x22_23 <= 0
tri4_7_22_23: t7_22_23 - x7_22 - x7_23 - x22_23 >= -2
tri1_8_9_10: t8_9_10 - x8_9 <= 0
tri2_8_9_10: t8_9_10 - x8_10 <= 0
tri3_8_9_10: t8_9_10 - x9_10 <= 0
tri4_8_9_10: t8_9_10 - x8_9 - x8_10 - x9_10 >= -2
tri1_8_9_11: t8_9_11 - x8_9 <= 0
tri2_8_9_11: t8_9_11 - x8_11 <= 0
tri3_8_9_11: t8_9_11 - x9_11 <= 0
tri4_8_9_11: t8_9_11 - x8_9 - x8_11 - x9_11 >= -2
tri1_8_9_12: t8_9_12 - x8_9 <= 0
tri2_8_9_12: t8_9_12 - x8_12 <= 0
tri3_8_9_12: t8_9_12 - x9_12 <= 0
tri4_8_9_12: t8_9_12 - x8_9 - x8_12 - x9_12 >= -2
tri1_8_9_13: t8_9_13 - x8_9 <= 0
tri2_8_9_13: t8_9_13 - x8_13 <= 0
tri3_8_9_13: t8_9_13 - x9_13 <= 0
tri4_8_9_13: t8_9_13 - x8_9 - x8_13 - x9_13 >= -2
tri1_8_9_14: t8_9_14 - x8_9 <= 0
tri2_8_9_14: t8_9_14 - x8_14 <= 0
tri3_8_9_14: t8_9_14 - x9_14 <= 0
tri4_8_9_14: t8_9_14 - x8_9 - x8_14 - x9_14 >= -2
tri1_8_9_15: t8_9_15 - x8_9 <= 0
tri2_8_9_15: t8_9_15 - x8_15 <= 0
tri3_8_9_15: t8_9_15 - x9_15 <= 0
tri4_8_9_15: t8_9_15 - x8_9 - x8_15 - x9_15 >= -2
tri1_8_9_16: t8_9_16 - x8_9 <= 0
tri2_8_9_16: t8_9_16 - x8_16 <= 0
tri3_8_9_16: t8_9_16 - x9_16 <= 0
tri4_8_9_16: t8_9_16 - x8_9 - x8_16 - x9_16 >= -2
tri1_8_9_17: t8_9_17 - x8_9 <= 0
tri2_8_9_17: t8_9_17 - x8_17 <= 0
tri3_8_9_17: t8_9_17 - x9_17 <= 0
tri4_8_9_17: t8_9_17 - x8_9 - x8_17 - x9_17 >= -2
tri1_8_9_18: t8_9_18 - x8_9 <= 0
tri2_8_9_18: t8_9_18 - x8_18 <= 0
tri3_8_9_18: t8_9_18 - x9_18 <= 0
tri4_8_9_18: t8_9_18 - x8_9 - x8_18 - x9_18 >= -2
tri1_8_9_19: t8_9_19 - x8_9 <= 0
tri2_8_9_19: t8_9_19 - x8_19 <= 0
tri3_8_9_19: t8_9_19 - x9_19 <= 0
tri4_8_9_19: t8_9_19 - x8_9 - x8_19 - x9_19 >= -2
tri1_8_9_20: t8_9_20 - x8_9 <= 0
tri2_8_9_20: t8_9_20 - x8_20 <= 0
tri3_8_9_20: t8_9_20 - x9_20 <= 0
tri4_8_9_20: t8_9_20 - x8_9 - x8_20 - x9_20 >= -2
tri1_8_9_21: t8_9_21 - x8_9 <= 0
tri2_8_9_21: t8_9_21 - x8_21 <= 0
tri3_8_9_21: t8_9_21 - x9_21 <= 0
tri4_8_9_21: t8_9_21 - x8_9 - x8_21 - x9_21 >= -2
tri1_8_9_22: t8_9_22 - x8_9 <= 0
tri2_8_9_22: t8_9_22 - x8_22 <= 0
tri3_8_9_22: t8_9_22 - x9_22 <= 0
tri4_8_9_22: t8_9_22 - x8_9 - x8_22 - x9_22 >= -2
tri1_8_9_23: t8_9_23 - x8_9 <= 0
tri2_8_9_23: t8_9_23 - x8_23 <= 0
tri3_8_9_23: t8_9_23 - x9_23 <= 0
tri4_8_9_23: t8_9_23 - x8_9 - x8_23 - x9_23 >= -2
tri1_8_10_11: t8_10_11 - x8_10 <= 0
tri2_8_10_11: t8_10_11 - x8_11 <= 0
tri3_8_10_11: t8_10_11 - x10_11 <= 0
tri4_8_10_11: t8_10_11 - x8_10 - x8_11 - x10_11 >= -2
tri1_8_10_12: t8_10_12 - x8_10 <= 0
tri2_8_10_12: t8_10_12 - x8_12 <= 0
tri3_8_10_12: t8_10_12 - x10_12 <= 0
tri4_8_10_12: t8_10_12 - x8_10 - x8_12 - x10_12 >= -2
tri1_8_10_13: t8_10_13 - x8_10 <= 0
tri2_8_10_13: t8_10_13 - x8_13 <= 0
tri3_8_10_13: t8_10_13 - x10_13 <= 0
tri4_8_10_13: t8_10_13 - x8_10 - x8_13 - x10_13 >= -2
tri1_8_10_14: t8_10_14 - x8_10 <= 0
tri2_8_10_14: t8_10_14 - x8_14 <= 0
tri3_8_10_14: t8_10_14 - x10_14 <= 0
tri4_8_10_14: t8_10_14 - x8_10 - x8_14 - x10_14 >= -2
tri1_8_10_15: t8_10_15 - x8_10 <= 0
tri2_8_10_15: t8_10_15 - x8_15 <= 0
tri3_8_10_15: t8_10_15 - x10_15 <= 0
tri4_8_10_15: t8_10_15 - x8_10 - x8_15 - x10_15 >= -2
tri1_8_10_16: t8_10_16 - x8_10 <= 0
tri2_8_10_16: t8_10_16 - x8_16 <= 0
tri3_8_10_16: t8_10_16 - x10_16 <= 0
tri4_8_10_16: t8_10_16 - x8_10 - x8_16 - x10_16 >= -2
tri1_8_10_17: t8_10_17 - x8_10 <= 0
tri2_8_10_17: t8_10_17 - x8_17 <= 0
tri3_8_10_17: t8_10_17 - x10_17 <= 0
tri4_8_10_17: t8_10_17 - x8_10 - x8_17 - x10_17 >= -2
tri1_8_10_18: t8_10_18 - x8_10 <= 0
tri2_8_10_18: t8_10_18 - x8_18 <= 0
tri3_8_10_18: t8_10_18 - x10_18 <= 0
tri4_8_10_18: t8_10_18 - x8_10 - x8_18 - x10_18 >= -2
tri1_8_10_19: t8_10_19 - x8_10 <= 0
tri2_8_10_19: t8_10_19 - x8_19 <= 0
tri3_8_10_19: t8_10_19 - x10_19 <= 0
tri4_8_10_19: t8_10_19 - x8_10 - x8_19 - x10_19 >= -2
tri1_8_10_20: t8_10_20 - x8_10 <= 0
tri2_8_10_20: t8_10_20 - x8_20 <= 0
tri3_8_10_20: t8_10_20 - x10_20 <= 0
tri4_8_10_20: t8_10_20 - x8_10 - x8_20 - x10_20 >= -2
tri1_8_10_21: t8_10_21 - x8_10 <= 0
tri2_8_10_21: t8_10_21 - x8_21 <= 0
tri3_8_10_21: t8_10_21 - x10_21 <= 0
tri4_8_10_21: t8_10_21 - x8_10 - x8_21 - x10_21 >= -2
tri1_8_10_22: t8_10_22 - x8_10 <= 0
tri2_8_10_22: t8_10_22 - x8_22 <= 0
tri3_8_10_22: t8_10_22 - x10_22 <= 0
tri4_8_10_22: t8_10_22 - x8_10 - x8_22 - x10_22 >= -2
tri1_8_10_23: t8_10_23 - x8_10 <= 0
tri2_8_10_23: t8_10_23 - x8_23 <= 0
tri3_8_10_23: t8_10_23 - x10_23 <= 0
tri4_8_10_23: t8_10_23 - x8_10 - x8_23 - x10_23 >= -2
tri1_8_11_12: t8_11_12 - x8_11 <= 0
tri2_8_11_12: t8_11_12 - x8_12 <= 0
tri3_8_11_12: t8_11_12 - x11_12 <= 0
tri4_8_11_12: t8_11_12 - x8_11 - x8_12 - x11_12 >= -2
tri1_8_11_13: t8_11_13 - x8_11 <= 0
tri2_8_11_13: t8_11_13 - x8_13 <= 0
tri3_8_11_13: t8_11_13 - x11_13 <= 0
tri4_8_11_13: t8_11_13 - x8_11 - x8_13 - x11_13 >= -2
tri1_8_11_14: t8_11_14 - x8_11 <= 0
tri2_8_11_14: t8_11_14 - x8_14 <= 0
tri3_8_11_14: t8_11_14 - x11_14 <= 0
tri4_8_11_14: t8_11_14 - x8_11 - x8_14 - x11_14 >= -2
tri1_8_11_15: t8_11_15 - x8_11 <= 0
tri2_8_11_15: t8_11_15 - x8_15 <= 0
tri3_8_11_15: t8_11_15 - x11_15 <= 0
tri4_8_11_15: t8_11_15 - x8_11 - x8_15 - x11_15 >= -2
tri1_8_11_16: t8_11_16 - x8_11 <= 0
tri2_8_11_16: t8_11_16 - x8_16 <= 0
tri3_8_11_16: t8_11_16 - x11_16 <= 0
tri4_8_11_16: t8_11_16 - x8_11 - x8_16 - x11_16 >= -2
tri1_8_11_17: t8_11_17 - x8_11 <= 0
tri2_8_11_17: t8_11_17 - x8_17 <= 0
tri3_8_11_17: t8_11_17 - x11_17 <= 0
tri4_8_11_17: t8_11_17 - x8_11 - x8_17 - x11_17 >= -2
tri1_8_11_18: t8_11_18 - x8_11 <= 0
tri2_8_11_18: t8_11_18 - x8_18 <= 0
tri3_8_11_18: t8_11_18 - x11_18 <= 0
tri4_8_11_18: t8_11_18 - x8_11 - x8_18 - x11_18 >= -2
tri1_8_11_19: t8_11_19 - x8_11 <= 0
tri2_8_11_19: t8_11_19 - x8_19 <= 0
tri3_8_11_19: t8_11_19 - x11_19 <= 0
tri4_8_11_19: t8_11_19 - x8_11 - x8_19 - x11_19 >= -2
tri1_8_11_20: t8_11_20 - x8_11 <= 0
tri2_8_11_20: t8_11_20 - x8_20 <= 0
tri3_8_11_20: t8_11_20 - x11_20 <= 0
tri4_8_11_20: t8_11_20 - x8_11 - x8_20 - x11_20 >= -2
tri1_8_11_21: t8_11_21 - x8_11 <= 0
tri2_8_11_21: t8_11_21 - x8_21 <= 0
tri3_8_11_21: t8_11_21 - x11_21 <= 0
tri4_8_11_21: t8_11_21 - x8_11 - x8_21 - x11_21 >= -2
tri1_8_11_22: t8_11_22 - x8_11 <= 0
tri2_8_11_22: t8_11_22 - x8_22 <= 0
tri3_8_11_22: t8_11_22 - x11_22 <= 0
tri4_8_11_22: t8_11_22 - x8_11 - x8_22 - x11_22 >= -2
tri1_8_11_23: t8_11_23 - x8_11 <= 0
tri2_8_11_23: t8_11_23 - x8_23 <= 0
tri3_8_11_23: t8_11_23 - x11_23 <= 0
tri4_8_11_23: t8_11_23 - x8_11 - x8_23 - x11_23 >= -2
tri1_8_12_13: t8_12_13 - x8_12 <= 0
tri2_8_12_13: t8_12_13 - x8_13 <= 0
tri3_8_12_13: t8_12_13 - x12_13 <= 0
tri4_8_12_13: t8_12_13 - x8_12 - x8_13 - x12_13 >= -2
tri1_8_12_14: t8_12_14 - x8_12 <= 0
tri2_8_12_14: t8_12_14 - x8_14 <= 0
tri3_8_12_14: t8_12_14 - x12_14 <= 0
tri4_8_12_14: t8_12_14 - x8_12 - x8_14 - x12_14 >= -2
tri1_8_12_15: t8_12_15 - x8_12 <= 0
tri2_8_12_15: t8_12_15 - x8_15 <= 0
tri3_8_12_15: t8_12_15 - x12_15 <= 0
tri4_8_12_15: t8_12_15 - x8_12 - x8_15 - x12_15 >= -2
tri1_8_12_16: t8_12_16 - x8_12 <= 0
tri2_8_12_16: t8_12_16 - x8_16 <= 0
tri3_8_12_16: t8_12_16 - x12_16 <= 0
tri4_8_12_16: t8_12_16 - x8_12 - x8_16 - x12_16 >= -2
tri1_8_12_17: t8_12_17 - x8_12 <= 0
tri2_8_12_17: t8_12_17 - x8_17 <= 0
tri3_8_12_17: t8_12_17 - x12_17 <= 0
tri4_8_12_17: t8_12_17 - x8_12 - x8_17 - x12_17 >= -2
tri1_8_12_18: t8_12_18 - x8_12 <= 0
tri2_8_12_18: t8_12_18 - x8_18 <= 0
tri3_8_12_18: t8_12_18 - x12_18 <= 0
tri4_8_12_18: t8_12_18 - x8_12 - x8_18 - x12_18 >= -2
tri1_8_12_19: t8_12_19 - x8_12 <= 0
tri2_8_12_19: t8_12_19 - x8_19 <= 0
tri3_8_12_19: t8_12_19 - x12_19 <= 0
tri4_8_12_19: t8_12_19 - x8_12 - x8_19 - x12_19 >= -2
tri1_8_12_20: t8_12_20 - x8_12 <= 0
tri2_8_12_20: t8_12_20 - x8_20 <= 0
tri3_8_12_20: t8_12_20 - x12_20 <= 0
tri4_8_12_20: t8_12_20 - x8_12 - x8_20 - x12_20 >= -2
tri1_8_12_21: t8_12_21 - x8_12 <= 0
tri2_8_12_21: t8_12_21 - x8_21 <= 0
tri3_8_12_21: t8_12_21 - x12_21 <= 0
tri4_8_12_21: t8_12_21 - x8_12 - x8_21 - x12_21 >= -2
tri1_8_12_22: t8_12_22 - x8_12 <= 0
tri2_8_12_22: t8_12_22 - x8_22 <= 0
tri3_8_12_22: t8_12_22 - x12_22 <= 0
tri4_8_12_22: t8_12_22 - x8_12 - x8_22 - x12_22 >= -2
tri1_8_12_23: t8_12_23 - x8_12 <= 0
tri2_8_12_23: t8_12_23 - x8_23 <= 0
tri3_8_12_23: t8_12_23 - x12_23 <= 0
tri4_8_12_23: t8_12_23 - x8_12 - x8_23 - x12_23 >= -2
tri1_8_13_14: t8_13_14 - x8_13 <= 0
tri2_8_13_14: t8_13_14 - x8_14 <= 0
tri3_8_13_14: t8_13_14 - x13_14 <= 0
tri4_8_13_14: t8_13_14 - x8_13 - x8_14 - x13_14 >= -2
tri1_8_13_15: t8_13_15 - x8_13 <= 0
tri2_8_13_15: t8_13_15 - x8_15 <= 0
tri3_8_13_15: t8_13_15 - x13_15 <= 0
tri4_8_13_15: t8_13_15 - x8_13 - x8_15 - x13_15 >= -2
tri1_8_13_16: t8_13_16 - x8_13 <= 0
tri2_8_13_16: t8_13_16 - x8_16 <= 0
tri3_8_13_16: t8_13_16 - x13_16 <= 0
tri4_8_13_16: t8_13_16 - x8_13 - x8_16 - x13_16 >= -2
tri1_8_13_17: t8_13_17 - x8_13 <= 0
tri2_8_13_17: t8_13_17 - x8_17 <= 0
tri3_8_13_17: t8_13_17 - x13_17 <= 0
tri4_8_13_17: t8_13_17 - x8_13 - x8_17 - x13_17 >= -2
tri1_8_13_18: t8_13_18 - x8_13 <= 0
tri2_8_13_18: t8_13_18 - x8_18 <= 0
tri3_8_13_18: t8_13_18 - x13_18 <= 0
tri4_8_13_18: t8_13_18 - x8_13 - x8_18 - x13_18 >= -2
tri1_8_13_19: t8_13_19 - x8_13 <= 0
tri2_8_13_19: t8_13_19 - x8_19 <= 0
tri3_8_13_19: t8_13_19 - x13_19 <= 0
tri4_8_13_19: t8_13_19 - x8_13 - x8_19 - x13_19 >= -2
tri1_8_13_20: t8_13_20 - x8_13 <= 0
tri2_8_13_20: t8_13_20 - x8_20 <= 0
tri3_8_13_20: t8_13_20 - x13_20 <= 0
tri4_8_13_20: t8_13_20 - x8_13 - x8_20 - x13_20 >= -2
tri1_8_13_21: t8_13_21 - x8_13 <= 0
tri2_8_13_21: t8_13_21 - x8_21 <= 0
tri3_8_13_21: t8_13_21 - x13_21 <= 0
tri4_8_13_21: t8_13_21 - x8_13 - x8_21 - x13_21 >= -2
tri1_8_13_22: t8_13_22 - x8_13 <= 0
tri2_8_13_22: t8_13_22 - x8_22 <= 0
tri3_8_13_22: t8_13_22 - x13_22 <= 0
tri4_8_13_22: t8_13_22 - x8_13 - x8_22 - x13_22 >= -2
tri1_8_13_23: t8_13_23 - x8_13 <= 0
tri2_8_13_23: t8_13_23 - x8_23 <= 0
tri3_8_13_23: t8_13_23 - x13_23 <= 0
tri4_8_13_23: t8_13_23 - x8_13 - x8_23 - x13_23 >= -2
tri1_8_14_15: t8_14_15 - x8_14 <= 0
tri2_8_14_15: t8_14_15 - x8_15 <= 0
tri3_8_14_15: t8_14_15 - x14_15 <= 0
tri4_8_14_15: t8_14_15 - x8_14 - x8_15 - x14_15 >= -2
tri1_8_14_16: t8_14_16 - x8_14 <= 0
tri2_8_14_16: t8_14_16 - x8_16 <= 0
tri3_8_14_16: t8_14_16 - x14_16 <= 0
tri4_8_14_16: t8_14_16 - x8_14 - x8_16 - x14_16 >= -2
tri1_8_14_17: t8_14_17 - x8_14 <= 0
tri2_8_14_17: t8_14_17 - x8_17 <= 0
tri3_8_14_17: t8_14_17 - x14_17 <= 0
tri4_8_14_17: t8_14_17 - x8_14 - x8_17 - x14_17 >= -2
tri1_8_14_18: t8_14_18 - x8_14 <= 0
tri2_8_14_18: t8_14_18 - x8_18 <= 0
tri3_8_14_18: t8_14_18 - x14_18 <= 0
tri4_8_14_18: t8_14_18 - x8_14 - x8_18 - x14_18 >= -2
tri1_8_14_19: t8_14_19 - x8_14 <= 0
tri2_8_14_19: t8_14_19 - x8_19 <= 0
tri3_8_14_19: t8_14_19 - x14_19 <= 0
tri4_8_14_19: t8_14_19 - x8_14 - x8_19 - x14_19 >= -2
tri1_8_14_20: t8_14_20 - x8_14 <= 0
tri2_8_14_20: t8_14_20 - x8_20 <= 0
tri3_8_14_20: t8_14_20 - x14_20 <= 0
tri4_8_14_20: t8_14_20 - x8_14 - x8_20 - x14_20 >= -2
tri1_8_14_21: t8_14_21 - x8_14 <= 0
tri2_8_14_21: t8_14_21 - x8_21 <= 0
tri3_8_14_21: t8_14_21 - x14_21 <= 0
tri4_8_14_21: t8_14_21 - x8_14 - x8_21 - x14_21 >= -2
tri1_8_14_22: t8_14_22 - x8_14 <= 0
tri2_8_14_22: t8_14_22 - x8_22 <= 0
tri3_8_14_22: t8_14_22 - x14_22 <= 0
tri4_8_14_22: t8_14_22 - x8_14 - x8_22 - x14_22 >= -2
tri1_8_14_23: t8_14_23 - x8_14 <= 0
tri2_8_14_23: t8_14_23 - x8_23 <= 0
tri3_8_14_23: t8_14_23 - x14_23 <= 0
tri4_8_14_23: t8_14_23 - x8_14 - x8_23 - x14_23 >= -2
tri1_8_15_16: t8_15_16 - x8_15 <= 0
tri2_8_15_16: t8_15_16 - x8_16 <= 0
tri3_8_15_16: t8_15_16 - x15_16 <= 0
tri4_8_15_16: t8_15_16 - x8_15 - x8_16 - x15_16 >= -2
tri1_8_15_17: t8_15_17 - x8_15 <= 0
tri2_8_15_17: t8_15_17 - x8_17 <= 0
tri3_8_15_17: t8_15_17 - x15_17 <= 0
tri4_8_15_17: t8_15_17 - x8_15 - x8_17 - x15_17 >= -2
tri1_8_15_18: t8_15_18 - x8_15 <= 0
tri2_8_15_18: t8_15_18 - x8_18 <= 0
tri3_8_15_18: t8_15_18 - x15_18 <= 0
tri4_8_15_18: t8_15_18 - x8_15 - x8_18 - x15_18 >= -2
tri1_8_15_19: t8_15_19 - x8_15 <= 0
tri2_8_15_19: t8_15_19 - x8_19 <= 0
tri3_8_15_19: t8_15_19 - x15_19 <= 0
tri4_8_15_19: t8_15_19 - x8_15 - x8_19 - x15_19 >= -2
tri1_8_15_20: t8_15_20 - x8_15 <= 0
tri2_8_15_20: t8_15_20 - x8_20 <= 0
tri3_8_15_20: t8_15_20 - x15_20 <= 0
tri4_8_15_20: t8_15_20 - x8_15 - x8_20 - x15_20 >= -2
tri1_8_15_21: t8_15_21 - x8_15 <= 0
tri2_8_15_21: t8_15_21 - x8_21 <= 0
tri3_8_15_21: t8_15_21 - x15_21 <= 0
tri4_8_15_21: t8_15_21 - x8_15 - x8_21 - x15_21 >= -2
tri1_8_15_22: t8_15_22 - x8_15 <= 0
tri2_8_15_22: t8_15_22 - x8_22 <= 0
tri3_8_15_22: t8_15_22 - x15_22 <= 0
tri4_8_15_22: t8_15_22 - x8_15 - x8_22 - x15_22 >= -2
tri1_8_15_23: t8_15_23 - x8_15 <= 0
tri2_8_15_23: t8_15_23 - x8_23 <= 0
tri3_8_15_23: t8_15_23 - x15_23 <= 0
tri4_8_15_23: t8_15_23 - x8_15 - x8_23 - x15_23 >= -2
tri1_8_16_17: t8_16_17 - x8_16 <= 0
tri2_8_16_17: t8_16_17 - x8_17 <= 0
tri3_8_16_17: t8_16_17 - x16_17 <= 0
tri4_8_16_17: t8_16_17 - x8_16 - x8_17 - x16_17 >= -2
tri1_8_16_18: t8_16_18 - x8_16 <= 0
tri2_8_16_18: t8_16_18 - x8_18 <= 0
tri3_8_16_18: t8_16_18 - x16_18 <= 0
tri4_8_16_18: t8_16_18 - x8_16 - x8_18 - x16_18 >= -2
tri1_8_16_19: t8_16_19 - x8_16 <= 0
tri2_8_16_19: t8_16_19 - x8_19 <= 0
tri3_8_16_19: t8_16_19 - x16_19 <= 0
tri4_8_16_19: t8_16_19 - x8_16 - x8_19 - x16_19 >= -2
tri1_8_16_20: t8_16_20 - x8_16 <= 0
tri2_8_16_20: t8_16_20 - x8_20 <= 0
tri3_8_16_20: t8_16_20 - x16_20 <= 0
tri4_8_16_20: t8_16_20 - x8_16 - x8_20 - x16_20 >= -2
tri1_8_16_21: t8_16_21 - x8_16 <= 0
tri2_8_16_21: t8_16_21 - x8_21 <= 0
tri3_8_16_21: t8_16_21 - x16_21 <= 0
tri4_8_16_21: t8_16_21 - x8_16 - x8_21 - x16_21 >= -2
tri1_8_16_22: t8_16_22 - x8_16 <= 0
tri2_8_16_22: t8_16_22 - x8_22 <= 0
tri3_8_16_22: t8_16_22 - x16_22 <= 0
tri4_8_16_22: t8_16_22 - x8_16 - x8_22 - x16_22 >= -2
tri1_8_16_23: t8_16_23 - x8_16 <= 0
tri2_8_16_23: t8_16_23 - x8_23 <= 0
tri3_8_16_23: t8_16_23 - x16_23 <= 0
tri4_8_16_23: t8_16_23 - x8_16 - x8_23 - x16_23 >= -2
tri1_8_17_18: t8_17_18 - x8_17 <= 0
tri2_8_17_18: t8_17_18 - x8_18 <= 0
tri3_8_17_18: t8_17_18 - x17_18 <= 0
tri4_8_17_18: t8_17_18 - x8_17 - x8_18 - x17_18 >= -2
tri1_8_17_19: t8_17_19 - x8_17 <= 0
tri2_8_17_19: t8_17_19 - x8_19 <= 0
tri3_8_17_19: t8_17_19 - x17_19 <= 0
tri4_8_17_19: t8_17_19 - x8_17 - x8_19 - x17_19 >= -2
tri1_8_17_20: t8_17_20 - x8_17 <= 0
tri2_8_17_20: t8_17_20 - x8_20 <= 0
tri3_8_17_20: t8_17_20 - x17_20 <= 0
tri4_8_17_20: t8_17_20 - x8_17 - x8_20 - x17_20 >= -2
tri1_8_17_21: t8_17_21 - x8_17 <= 0
tri2_8_17_21: t8_17_21 - x8_21 <= 0
tri3_8_17_21: t8_17_21 - x17_21 <= 0
tri4_8_17_21: t8_17_21 - x8_17 - x8_21 - x17_21 >= -2
tri1_8_17_22: t8_17_22 - x8_17 <= 0
tri2_8_17_22: t8_17_22 - x8_22 <= 0
tri3_8_17_22: t8_17_22 - x17_22 <= 0
tri4_8_17_22: t8_17_22 - x8_17 - x8_22 - x17_22 >= -2
tri1_8_17_23: t8_17_23 - x8_17 <= 0
tri2_8_17_23: t8_17_23 - x8_23 <= 0
tri3_8_17_23: t8_17_23 - x17_23 <= 0
tri4_8_17_23: t8_17_23 - x8_17 - x8_23 - x17_23 >= -2
tri1_8_18_19: t8_18_19 - x8_18 <= 0
tri2_8_18_19: t8_18_19 - x8_19 <= 0
tri3_8_18_19: t8_18_19 - x18_19 <= 0
tri4_8_18_19: t8_18_19 - x8_18 - x8_19 - x18_19 >= -2
tri1_8_18_20: t8_18_20 - x8_18 <= 0
tri2_8_18_20: t8_18_20 - x8_20 <= 0
tri3_8_18_20: t8_18_20 - x18_20 <= 0
tri4_8_18_20: t8_18_20 - x8_18 - x8_20 - x18_20 >= -2
tri1_8_18_21: t8_18_21 - x8_18 <= 0
tri2_8_18_21: t8_18_21 - x8_21 <= 0
tri3_8_18_21: t8_18_21 - x18_21 <= 0
tri4_8_18_21: t8_18_21 - x8_18 - x8_21 - x18_21 >= -2
tri1_8_18_22: t8_18_22 - x8_18 <= 0
tri2_8_18_22: t8_18_22 - x8_22 <= 0
tri3_8_18_22: t8_18_22 - x18_22 <= 0
tri4_8_18_22: t8_18_22 - x8_18 - x8_22 - x18_22 >= -2
tri1_8_18_23: t8_18_23 - x8_18 <= 0
tri2_8_18_23: t8_18_23 - x8_23 <= 0
tri3_8_18_23: t8_18_23 - x18_23 <= 0
tri4_8_18_23: t8_18_23 - x8_18 - x8_23 - x18_23 >= -2
tri1_8_19_20: t8_19_20 - x8_19 <= 0
tri2_8_19_20: t8_19_20 - x8_20 <= 0
tri3_8_19_20: t8_19_20 - x19_20 <= 0
tri4_8_19_20: t8_19_20 - x8_19 - x8_20 - x19_20 >= -2
tri1_8_19_21: t8_19_21 - x8_19 <= 0
tri2_8_19_21: t8_19_21 - x8_21 <= 0
tri3_8_19_21: t8_19_21 - x19_21 <= 0
tri4_8_19_21: t8_19_21 - x8_19 - x8_21 - x19_21 >= -2
tri1_8_19_22: t8_19_22 - x8_19 <= 0
tri2_8_19_22: t8_19_22 - x8_22 <= 0
tri3_8_19_22: t8_19_22 - x19_22 <= 0
tri4_8_19_22: t8_19_22 - x8_19 - x8_22 - x19_22 >= -2
tri1_8_19_23: t8_19_23 - x8_19 <= 0
tri2_8_19_23: t8_19_23 - x8_23 <= 0
tri3_8_19_23: t8_19_23 - x19_23 <= 0
tri4_8_19_23: t8_19_23 - x8_19 - x8_23 - x19_23 >= -2
tri1_8_20_21: t8_20_21 - x8_20 <= 0
tri2_8_20_21: t8_20_21 - x8_21 <= 0
tri3_8_20_21: t8_20_21 - x20_21 <= 0
tri4_8_20_21: t8_20_21 - x8_20 - x8_21 - x20_21 >= -2
tri1_8_20_22: t8_20_22 - x8_20 <= 0
tri2_8_20_22: t8_20_22 - x8_22 <= 0
tri3_8_20_22: t8_20_22 - x20_22 <= 0
tri4_8_20_22: t8_20_22 - x8_20 - x8_22 - x20_22 >= -2
tri1_8_20_23: t8_20_23 - x8_20 <= 0
tri2_8_20_23: t8_20_23 - x8_23 <= 0
tri3_8_20_23: t8_20_23 - x20_23 <= 0
tri4_8_20_23: t8_20_23 - x8_20 - x8_23 - x20_23 >= -2
tri1_8_21_22: t8_21_22 - x8_21 <= 0
tri2_8_21_22: t8_21_22 - x8_22 <= 0
tri3_8_21_22: t8_21_22 - x21_22 <= 0
tri4_8_21_22: t8_21_22 - x8_21 - x8_22 - x21_22 >= -2
tri1_8_21_23: t8_21_23 - x8_21 <= 0
tri2_8_21_23: t8_21_23 - x8_23 <= 0
tri3_8_21_23: t8_21_23 - x21_23 <= 0
tri4_8_21_23: t8_21_23 - x8_21 - x8_23 - x21_23 >= -2
tri1_8_22_23: t8_22_23 - x8_22 <= 0
tri2_8_22_23: t8_22_23 - x8_23 <= 0
tri3_8_22_23: t8_22_23 - x22_23 <= 0
tri4_8_22_23: t8_22_23 - x8_22 - x8_23 - x22_23 >= -2
tri1_9_10_11: t9_10_11 - x9_10 <= 0
tri2_9_10_11: t9_10_11 - x9_11 <= 0
tri3_9_10_11: t9_10_11 - x10_11 <= 0
tri4_9_10_11: t9_10_11 - x9_10 - x9_11 - x10_11 >= -2
tri1_9_10_12: t9_10_12 - x9_10 <= 0
tri2_9_10_12: t9_10_12 - x9_12 <= 0
tri3_9_10_12: t9_10_12 - x10_12 <= 0
tri4_9_10_12: t9_10_12 - x9_10 - x9_12 - x10_12 >= -2
tri1_9_10_13: t9_10_13 - x9_10 <= 0
tri2_9_10_13: t9_10_13 - x9_13 <= 0
tri3_9_10_13: t9_10_13 - x10_13 <= 0
tri4_9_10_13: t9_10_13 - x9_10 - x9_13 - x10_13 >= -2
tri1_9_10_14: t9_10_14 - x9_10 <= 0
tri2_9_10_14: t9_10_14 - x9_14 <= 0
tri3_9_10_14: t9_10_14 - x10_14 <= 0
tri4_9_10_14: t9_10_14 - x9_10 - x9_14 - x10_14 >= -2
tri1_9_10_15: t9_10_15 - x9_10 <= 0
tri2_9_10_15: t9_10_15 - x9_15 <= 0
tri3_9_10_15: t9_10_15 - x10_15 <= 0
tri4_9_10_15: t9_10_15 - x9_10 - x9_15 - x10_15 >= -2
tri1_9_10_16: t9_10_16 - x9_10 <= 0
tri2_9_10_16: t9_10_16 - x9_16 <= 0
tri3_9_10_16: t9_10_16 - x10_16 <= 0
tri4_9_10_16: t9_10_16 - x9_10 - x9_16 - x10_16 >= -2
tri1_9_10_17: t9_10_17 - x9_10 <= 0
tri2_9_10_17: t9_10_17 - x9_17 <= 0
tri3_9_10_17: t9_10_17 - x10_17 <= 0
tri4_9_10_17: t9_10_17 - x9_10 - x9_17 - x10_17 >= -2
tri1_9_10_18: t9_10_18 - x9_10 <= 0
tri2_9_10_18: t9_10_18 - x9_18 <= 0
tri3_9_10_18: t9_10_18 - x10_18 <= 0
tri4_9_10_18: t9_10_18 - x9_10 - x9_18 - x10_18 >= -2
tri1_9_10_19: t9_10_19 - x9_10 <= 0
tri2_9_10_19: t9_10_19 - x9_19 <= 0
tri3_9_10_19: t9_10_19 - x10_19 <= 0
tri4_9_10_19: t9_10_19 - x9_10 - x9_19 - x10_19 >= -2
tri1_9_10_20: t9_10_20 - x9_10 <= 0
tri2_9_10_20: t9_10_20 - x9_20 <= 0
tri3_9_10_20: t9_10_20 - x10_20 <= 0
tri4_9_10_20: t9_10_20 - x9_10 - x9_20 - x10_20 >= -2
tri1_9_10_21: t9_10_21 - x9_10 <= 0
tri2_9_10_21: t9_10_21 - x9_21 <= 0
tri3_9_10_21: t9_10_21 - x10_21 <= 0
tri4_9_10_21: t9_10_21 - x9_10 - x9_21 - x10_21 >= -2
tri1_9_10_22: t9_10_22 - x9_10 <= 0
tri2_9_10_22: t9_10_22 - x9_22 <= 0
tri3_9_10_22: t9_10_22 - x10_22 <= 0
tri4_9_10_22: t9_10_22 - x9_10 - x9_22 - x10_22 >= -2
tri1_9_10_23: t9_10_23 - x9_10 <= 0
tri2_9_10_23: t9_10_23 - x9_23 <= 0
tri3_9_10_23: t9_10_23 - x10_23 <= 0
tri4_9_10_23: t9_10_23 - x9_10 - x9_23 - x10_23 >= -2
tri1_9_11_12: t9_11_12 - x9_11 <= 0
tri2_9_11_12: t9_11_12 - x9_12 <= 0
tri3_9_11_12: t9_11_12 - x11_12 <= 0
tri4_9_11_12: t9_11_12 - x9_11 - x9_12 - x11_12 >= -2
tri1_9_11_13: t9_11_13 - x9_11 <= 0
tri2_9_11_13: t9_11_13 - x9_13 <= 0
tri3_9_11_13: t9_11_13 - x11_13 <= 0
tri4_9_11_13: t9_11_13 - x9_11 - x9_13 - x11_13 >= -2
tri1_9_11_14: t9_11_14 - x9_11 <= 0
tri2_9_11_14: t9_11_14 - x9_14 <= 0
tri3_9_11_14: t9_11_14 - x11_14 <= 0
tri4_9_11_14: t9_11_14 - x9_11 - x9_14 - x11_14 >= -2
tri1_9_11_15: t9_11_15 - x9_11 <= 0
tri2_9_11_15: t9_11_15 - x9_15 <= 0
tri3_9_11_15: t9_11_15 - x11_15 <= 0
tri4_9_11_15: t9_11_15 - x9_11 - x9_15 - x11_15 >= -2
tri1_9_11_16: t9_11_16 - x9_11 <= 0
tri2_9_11_16: t9_11_16 - x9_16 <= 0
tri3_9_11_16: t9_11_16 - x11_16 <= 0
tri4_9_11_16: t9_11_16 - x9_11 - x9_16 - x11_16 >= -2
tri1_9_11_17: t9_11_17 - x9_11 <= 0
tri2_9_11_17: t9_11_17 - x9_17 <= 0
tri3_9_11_17: t9_11_17 - x11_17 <= 0
tri4_9_11_17: t9_11_17 - x9_11 - x9_17 - x11_17 >= -2
tri1_9_11_18: t9_11_18 - x9_11 <= 0
tri2_9_11_18: t9_11_18 - x9_18 <= 0
tri3_9_11_18: t9_11_18 - x11_18 <= 0
tri4_9_11_18: t9_11_18 - x9_11 - x9_18 - x11_18 >= -2
tri1_9_11_19: t9_11_19 - x9_11 <= 0
tri2_9_11_19: t9_11_19 - x9_19 <= 0
tri3_9_11_19: t9_11_19 - x11_19 <= 0
tri4_9_11_19: t9_11_19 - x9_11 - x9_19 - x11_19 >= -2
tri1_9_11_20: t9_11_20 - x9_11 <= 0
tri2_9_11_20: t9_11_20 - x9_20 <= 0
tri3_9_11_20: t9_11_20 - x11_20 <= 0
tri4_9_11_20: t9_11_20 - x9_11 - x9_20 - x11_20 >= -2
tri1_9_11_21: t9_11_21 - x9_11 <= 0
tri2_9_11_21: t9_11_21 - x9_21 <= 0
tri3_9_11_21: t9_11_21 - x11_21 <= 0
tri4_9_11_21: t9_11_21 - x9_11 - x9_21 - x11_21 >= -2
tri1_9_11_22: t9_11_22 - x9_11 <= 0
tri2_9_11_22: t9_11_22 - x9_22 <= 0
tri3_9_11_22: t9_11_22 - x11_22 <= 0
tri4_9_11_22: t9_11_22 - x9_11 - x9_22 - x11_22 >= -2
tri1_9_11_23: t9_11_23 - x9_11 <= 0
tri2_9_11_23: t9_11_23 - x9_23 <= 0
tri3_9_11_23: t9_11_23 - x11_23 <= 0
tri4_9_11_23: t9_11_23 - x9_11 - x9_23 - x11_23 >= -2
tri1_9_12_13: t9_12_13 - x9_12 <= 0
tri2_9_12_13: t9_12_13 - x9_13 <= 0
tri3_9_12_13: t9_12_13 - x12_13 <= 0
tri4_9_12_13: t9_12_13 - x9_12 - x9_13 - x12_13 >= -2
tri1_9_12_14: t9_12_14 - x9_12 <= 0
tri2_9_12_14: t9_12_14 - x9_14 <= 0
tri3_9_12_14: t9_12_14 - x12_14 <= 0
tri4_9_12_14: t9_12_14 - x9_12 - x9_14 - x12_14 >= -2
tri1_9_12_15: t9_12_15 - x9_12 <= 0
tri2_9_12_15: t9_12_15 - x9_15 <= 0
tri3_9_12_15: t9_12_15 - x12_15 <= 0
tri4_9_12_15: t9_12_15 - x9_12 - x9_15 - x12_15 >= -2
tri1_9_12_16: t9_12_16 - x9_12 <= 0
tri2_9_12_16: t9_12_16 - x9_16 <= 0
tri3_9_12_16: t9_12_16 - x12_16 <= 0
tri4_9_12_16: t9_12_16 - x9_12 - x9_16 - x12_16 >= -2
tri1_9_12_17: t9_12_17 - x9_12 <= 0
tri2_9_12_17: t9_12_17 - x9_17 <= 0
tri3_9_12_17: t9_12_17 - x12_17 <= 0
tri4_9_12_17: t9_12_17 - x9_12 - x9_17 - x12_17 >= -2
tri1_9_12_18: t9_12_18 - x9_12 <= 0
tri2_9_12_18: t9_12_18 - x9_18 <= 0
tri3_9_12_18: t9_12_18 - x12_18 <= 0
tri4_9_12_18: t9_12_18 - x9_12 - x9_18 - x12_18 >= -2
tri1_9_12_19: t9_12_19 - x9_12 <= 0
tri2_9_12_19: t9_12_19 - x9_19 <= 0
tri3_9_12_19: t9_12_19 - x12_19 <= 0
tri4_9_12_19: t9_12_19 - x9_12 - x9_19 - x12_19 >= -2
tri1_9_12_20: t9_12_20 - x9_12 <= 0
tri2_9_12_20: t9_12_20 - x9_20 <= 0
tri3_9_12_20: t9_12_20 - x12_20 <= 0
tri4_9_12_20: t9_12_20 - x9_12 - x9_20 - x12_20 >= -2
tri1_9_12_21: t9_12_21 - x9_12 <= 0
tri2_9_12_21: t9_12_21 - x9_21 <= 0
tri3_9_12_21: t9_12_21 - x12_21 <= 0
tri4_9_12_21: t9_12_21 - x9_12 - x9_21 - x12_21 >= -2
tri1_9_12_22: t9_12_22 - x9_12 <= 0
tri2_9_12_22: t9_12_22 - x9_22 <= 0
tri3_9_12_22: t9_12_22 - x12_22 <= 0
tri4_9_12_22: t9_12_22 - x9_12 - x9_22 - x12_22 >= -2
tri1_9_12_23: t9_12_23 - x9_12 <= 0
tri2_9_12_23: t9_12_23 - x9_23 <= 0
tri3_9_12_23: t9_12_23 - x12_23 <= 0
tri4_9_12_23: t9_12_23 - x9_12 - x9_23 - x12_23 >= -2
tri1_9_13_14: t9_13_14 - x9_13 <= 0
tri2_9_13_14: t9_13_14 - x9_14 <= 0
tri3_9_13_14: t9_13_14 - x13_14 <= 0
tri4_9_13_14: t9_13_14 - x9_13 - x9_14 - x13_14 >= -2
tri1_9_13_15: t9_13_15 - x9_13 <= 0
tri2_9_13_15: t9_13_15 - x9_15 <= 0
tri3_9_13_15: t9_13_15 - x13_15 <= 0
tri4_9_13_15: t9_13_15 - x9_13 - x9_15 - x13_15 >= -2
tri1_9_13_16: t9_13_16 - x9_13 <= 0
tri2_9_13_16: t9_13_16 - x9_16 <= 0
tri3_9_13_16: t9_13_16 - x13_16 <= 0
tri4_9_13_16: t9_13_16 - x9_13 - x9_16 - x13_16 >= -2
tri1_9_13_17: t9_13_17 - x9_13 <= 0
tri2_9_13_17: t9_13_17 - x9_17 <= 0
tri3_9_13_17: t9_13_17 - x13_17 <= 0
tri4_9_13_17: t9_13_17 - x9_13 - x9_17 - x13_17 >= -2
tri1_9_13_18: t9_13_18 - x9_13 <= 0
tri2_9_13_18: t9_13_18 - x9_18 <= 0
tri3_9_13_18: t9_13_18 - x13_18 <= 0
tri4_9_13_18: t9_13_18 - x9_13 - x9_18 - x13_18 >= -2
tri1_9_13_19: t9_13_19 - x9_13 <= 0
tri2_9_13_19: t9_13_19 - x9_19 <= 0
tri3_9_13_19: t9_13_19 - x13_19 <= 0
tri4_9_13_19: t9_13_19 - x9_13 - x9_19 - x13_19 >= -2
tri1_9_13_20: t9_13_20 - x9_13 <= 0
tri2_9_13_20: t9_13_20 - x9_20 <= 0
tri3_9_13_20: t9_13_20 - x13_20 <= 0
tri4_9_13_20: t9_13_20 - x9_13 - x9_20 - x13_20 >= -2
tri1_9_13_21: t9_13_21 - x9_13 <= 0
tri2_9_13_21: t9_13_21 - x9_21 <= 0
tri3_9_13_21: t9_13_21 - x13_21 <= 0
tri4_9_13_21: t9_13_21 - x9_13 - x9_21 - x13_21 >= -2
tri1_9_13_22: t9_13_22 - x9_13 <= 0
tri2_9_13_22: t9_13_22 - x9_22 <= 0
tri3_9_13_22: t9_13_22 - x13_22 <= 0
tri4_9_13_22: t9_13_22 - x9_13 - x9_22 - x13_22 >= -2
tri1_9_13_23: t9_13_23 - x9_13 <= 0
tri2_9_13_23: t9_13_23 - x9_23 <= 0
tri3_9_13_23: t9_13_23 - x13_23 <= 0
tri4_9_13_23: t9_13_23 - x9_13 - x9_23 - x13_23 >= -2
tri1_9_14_15: t9_14_15 - x9_14 <= 0
tri2_9_14_15: t9_14_15 - x9_15 <= 0
tri3_9_14_15: t9_14_15 - x14_15 <= 0
tri4_9_14_15: t9_14_15 - x9_14 - x9_15 - x14_15 >= -2
tri1_9_14_16: t9_14_16 - x9_14 <= 0
tri2_9_14_16: t9_14_16 - x9_16 <= 0
tri3_9_14_16: t9_14_16 - x14_16 <= 0
tri4_9_14_16: t9_14_16 - x9_14 - x9_16 - x14_16 >= -2
tri1_9_14_17: t9_14_17 - x9_14 <= 0
tri2_9_14_17: t9_14_17 - x9_17 <= 0
tri3_9_14_17: t9_14_17 - x14_17 <= 0
tri4_9_14_17: t9_14_17 - x9_14 - x9_17 - x14_17 >= -2
tri1_9_14_18: t9_14_18 - x9_14 <= 0
tri2_9_14_18: t9_14_18 - x9_18 <= 0
tri3_9_14_18: t9_14_18 - x14_18 <= 0
tri4_9_14_18: t9_14_18 - x9_14 - x9_18 - x14_18 >= -2
tri1_9_14_19: t9_14_19 - x9_14 <= 0
tri2_9_14_19: t9_14_19 - x9_19 <= 0
tri3_9_14_19: t9_14_19 - x14_19 <= 0
tri4_9_14_19: t9_14_19 - x9_14 - x9_19 - x14_19 >= -2
tri1_9_14_20: t9_14_20 - x9_14 <= 0
tri2_9_14_20: t9_14_20 - x9_20 <= 0
tri3_9_14_20: t9_14_20 - x14_20 <= 0
tri4_9_14_20: t9_14_20 - x9_14 - x9_20 - x14_20 >= -2
tri1_9_14_21: t9_14_21 - x9_14 <= 0
tri2_9_14_21: t9_14_21 - x9_21 <= 0
tri3_9_14_21: t9_14_21 - x14_21 <= 0
tri4_9_14_21: t9_14_21 - x9_14 - x9_21 - x14_21 >= -2
tri1_9_14_22: t9_14_22 - x9_14 <= 0
tri2_9_14_22: t9_14_22 - x9_22 <= 0
tri3_9_14_22: t9_14_22 - x14_22 <= 0
tri4_9_14_22: t9_14_22 - x9_14 - x9_22 - x14_22 >= -2
tri1_9_14_23: t9_14_23 - x9_14 <= 0
tri2_9_14_23: t9_14_23 - x9_23 <= 0
tri3_9_14_23: t9_14_23 - x14_23 <= 0
tri4_9_14_23: t9_14_23 - x9_14 - x9_23 - x14_23 >= -2
tri1_9_15_16: t9_15_16 - x9_15 <= 0
tri2_9_15_16: t9_15_16 - x9_16 <= 0
tri3_9_15_16: t9_15_16 - x15_16 <= 0
tri4_9_15_16: t9_15_16 - x9_15 - x9_16 - x15_16 >= -2
tri1_9_15_17: t9_15_17 - x9_15 <= 0
tri2_9_15_17: t9_15_17 - x9_17 <= 0
tri3_9_15_17: t9_15_17 - x15_17 <= 0
tri4_9_15_17: t9_15_17 - x9_15 - x9_17 - x15_17 >= -2
tri1_9_15_18: t9_15_18 - x9_15 <= 0
tri2_9_15_18: t9_15_18 - x9_18 <= 0
tri3_9_15_18: t9_15_18 - x15_18 <= 0
tri4_9_15_18: t9_15_18 - x9_15 - x9_18 - x15_18 >= -2
tri1_9_15_19: t9_15_19 - x9_15 <= 0
tri2_9_15_19: t9_15_19 - x9_19 <= 0
tri3_9_15_19: t9_15_19 - x15_19 <= 0
tri4_9_15_19: t9_15_19 - x9_15 - x9_19 - x15_19 >= -2
tri1_9_15_20: t9_15_20 - x9_15 <= 0
tri2_9_15_20: t9_15_20 - x9_20 <= 0
tri3_9_15_20: t9_15_20 - x15_20 <= 0
tri4_9_15_20: t9_15_20 - x9_15 - x9_20 - x15_20 >= -2
tri1_9_15_21: t9_15_21 - x9_15 <= 0
tri2_9_15_21: t9_15_21 - x9_21 <= 0
tri3_9_15_21: t9_15_21 - x15_21 <= 0
tri4_9_15_21: t9_15_21 - x9_15 - x9_21 - x15_21 >= -2
tri1_9_15_22: t9_15_22 - x9_15 <= 0
tri2_9_15_22: t9_15_22 - x9_22 <= 0
tri3_9_15_22: t9_15_22 - x15_22 <= 0
tri4_9_15_22: t9_15_22 - x9_15 - x9_22 - x15_22 >= -2
tri1_9_15_23: t9_15_23 - x9_15 <= 0
tri2_9_15_23: t9_15_23 - x9_23 <= 0
tri3_9_15_23: t9_15_23 - x15_23 <= 0
tri4_9_15_23: t9_15_23 - x9_15 - x9_23 - x15_23 >= -2
tri1_9_16_17: t9_16_17 - x9_16 <= 0
tri2_9_16_17: t9_16_17 - x9_17 <= 0
tri3_9_16_17: t9_16_17 - x16_17 <= 0
tri4_9_16_17: t9_16_17 - x9_16 - x9_17 - x16_17 >= -2
tri1_9_16_18: t9_16_18 - x9_16 <= 0
tri2_9_16_18: t9_16_18 - x9_18 <= 0
tri3_9_16_18: t9_16_18 - x16_18 <= 0
tri4_9_16_18: t9_16_18 - x9_16 - x9_18 - x16_18 >= -2
tri1_9_16_19: t9_16_19 - x9_16 <= 0
tri2_9_16_19: t9_16_19 - x9_19 <= 0
tri3_9_16_19: t9_16_19 - x16_19 <= 0
tri4_9_16_19: t9_16_19 - x9_16 - x9_19 - x16_19 >= -2
tri1_9_16_20: t9_16_20 - x9_16 <= 0
tri2_9_16_20: t9_16_20 - x9_20 <= 0
tri3_9_16_20: t9_16_20 - x16_20 <= 0
tri4_9_16_20: t9_16_20 - x9_16 - x9_20 - x16_20 >= -2
tri1_9_16_21: t9_16_21 - x9_16 <= 0
tri2_9_16_21: t9_16_21 - x9_21 <= 0
tri3_9_16_21: t9_16_21 - x16_21 <= 0
tri4_9_16_21: t9_16_21 - x9_16 - x9_21 - x16_21 >= -2
tri1_9_16_22: t9_16_22 - x9_16 <= 0
tri2_9_16_22: t9_16_22 - x9_22 <= 0
tri3_9_16_22: t9_16_22 - x16_22 <= 0
tri4_9_16_22: t9_16_22 - x9_16 - x9_22 - x16_22 >= -2
tri1_9_16_23: t9_16_23 - x9_16 <= 0
tri2_9_16_23: t9_16_23 - x9_23 <= 0
tri3_9_16_23: t9_16_23 - x16_23 <= 0
tri4_9_16_23: t9_16_23 - x9_16 - x9_23 - x16_23 >= -2
tri1_9_17_18: t9_17_18 - x9_17 <= 0
tri2_9_17_18: t9_17_18 - x9_18 <= 0
tri3_9_17_18: t9_17_18 - x17_18 <= 0
tri4_9_17_18: t9_17_18 - x9_17 - x9_18 - x17_18 >= -2
tri1_9_17_19: t9_17_19 - x9_17 <= 0
tri2_9_17_19: t9_17_19 - x9_19 <= 0
tri3_9_17_19: t9_17_19 - x17_19 <= 0
tri4_9_17_19: t9_17_19 - x9_17 - x9_19 - x17_19 >= -2
tri1_9_17_20: t9_17_20 - x9_17 <= 0
tri2_9_17_20: t9_17_20 - x9_20 <= 0
tri3_9_17_20: t9_17_20 - x17_20 <= 0
tri4_9_17_20: t9_17_20 - x9_17 - x9_20 - x17_20 >= -2
tri1_9_17_21: t9_17_21 - x9_17 <= 0
tri2_9_17_21: t9_17_21 - x9_21 <= 0
tri3_9_17_21: t9_17_21 - x17_21 <= 0
tri4_9_17_21: t9_17_21 - x9_17 - x9_21 - x17_21 >= -2
tri1_9_17_22: t9_17_22 - x9_17 <= 0
tri2_9_17_22: t9_17_22 - x9_22 <= 0
tri3_9_17_22: t9_17_22 - x17_22 <= 0
tri4_9_17_22: t9_17_22 - x9_17 - x9_22 - x17_22 >= -2
tri1_9_17_23: t9_17_23 - x9_17 <= 0
tri2_9_17_23: t9_17_23 - x9_23 <= 0
tri3_9_17_23: t9_17_23 - x17_23 <= 0
tri4_9_17_23: t9_17_23 - x9_17 - x9_23 - x17_23 >= -2
tri1_9_18_19: t9_18_19 - x9_18 <= 0
tri2_9_18_19: t9_18_19 - x9_19 <= 0
tri3_9_18_19: t9_18_19 - x18_19 <= 0
tri4_9_18_19: t9_18_19 - x9_18 - x9_19 - x18_19 >= -2
tri1_9_18_20: t9_18_20 - x9_18 <= 0
tri2_9_18_20: t9_18_20 - x9_20 <= 0
tri3_9_18_20: t9_18_20 - x18_20 <= 0
tri4_9_18_20: t9_18_20 - x9_18 - x9_20 - x18_20 >= -2
tri1_9_18_21: t9_18_21 - x9_18 <= 0
tri2_9_18_21: t9_18_21 - x9_21 <= 0
tri3_9_18_21: t9_18_21 - x18_21 <= 0
tri4_9_18_21: t9_18_21 - x9_18 - x9_21 - x18_21 >= -2
tri1_9_18_22: t9_18_22 - x9_18 <= 0
tri2_9_18_22: t9_18_22 - x9_22 <= 0
tri3_9_18_22: t9_18_22 - x18_22 <= 0
tri4_9_18_22: t9_18_22 - x9_18 - x9_22 - x18_22 >= -2
tri1_9_18_23: t9_18_23 - x9_18 <= 0
tri2_9_18_23: t9_18_23 - x9_23 <= 0
tri3_9_18_23: t9_18_23 - x18_23 <= 0
tri4_9_18_23: t9_18_23 - x9_18 - x9_23 - x18_23 >= -2
tri1_9_19_20: t9_19_20 - x9_19 <= 0
tri2_9_19_20: t9_19_20 - x9_20 <= 0
tri3_9_19_20: t9_19_20 - x19_20 <= 0
tri4_9_19_20: t9_19_20 - x9_19 - x9_20 - x19_20 >= -2
tri1_9_19_21: t9_19_21 - x9_19 <= 0
tri2_9_19_21: t9_19_21 - x9_21 <= 0
tri3_9_19_21: t9_19_21 - x19_21 <= 0
tri4_9_19_21: t9_19_21 - x9_19 - x9_21 - x19_21 >= -2
tri1_9_19_22: t9_19_22 - x9_19 <= 0
tri2_9_19_22: t9_19_22 - x9_22 <= 0
tri3_9_19_22: t9_19_22 - x19_22 <= 0
tri4_9_19_22: t9_19_22 - x9_19 - x9_22 - x19_22 >= -2
tri1_9_19_23: t9_19_23 - x9_19 <= 0
tri2_9_19_23: t9_19_23 - x9_23 <= 0
tri3_9_19_23: t9_19_23 - x19_23 <= 0
tri4_9_19_23: t9_19_23 - x9_19 - x9_23 - x19_23 >= -2
tri1_9_20_21: t9_20_21 - x9_20 <= 0
tri2_9_20_21: t9_20_21 - x9_21 <= 0
tri3_9_20_21: t9_20_21 - x20_21 <= 0
tri4_9_20_21: t9_20_21 - x9_20 - x9_21 - x20_21 >= -2
tri1_9_20_22: t9_20_22 - x9_20 <= 0
tri2_9_20_22: t9_20_22 - x9_22 <= 0
tri3_9_20_22: t9_20_22 - x20_22 <= 0
tri4_9_20_22: t9_20_22 - x9_20 - x9_22 - x20_22 >= -2
tri1_9_20_23: t9_20_23 - x9_20 <= 0
tri2_9_20_23: t9_20_23 - x9_23 <= 0
tri3_9_20_23: t9_20_23 - x20_23 <= 0
tri4_9_20_23: t9_20_23 - x9_20 - x9_23 - x20_23 >= -2
tri1_9_21_22: t9_21_22 - x9_21 <= 0
tri2_9_21_22: t9_21_22 - x9_22 <= 0
tri3_9_21_22: t9_21_22 - x21_22 <= 0
tri4_9_21_22: t9_21_22 - x9_21 - x9_22 - x21_22 >= -2
tri1_9_21_23: t9_21_23 - x9_21 <= 0
tri2_9_21_23: t9_21_23 - x9_23 <= 0
tri3_9_21_23: t9_21_23 - x21_23 <= 0
tri4_9_21_23: t9_21_23 - x9_21 - x9_23 - x21_23 >= -2
tri1_9_22_23: t9_22_23 - x9_22 <= 0
tri2_9_22_23: t9_22_23 - x9_23 <= 0
tri3_9_22_23: t9_22_23 - x22_23 <= 0
tri4_9_22_23: t9_22_23 - x9_22 - x9_23 - x22_23 >= -2
tri1_10_11_12: t10_11_12 - x10_11 <= 0
tri2_10_11_12: t10_11_12 - x10_12 <= 0
tri3_10_11_12: t10_11_12 - x11_12 <= 0
tri4_10_11_12: t10_11_12 - x10_11 - x10_12 - x11_12 >= -2
tri1_10_11_13: t10_11_13 - x10_11 <= 0
tri2_10_11_13: t10_11_13 - x10_13 <= 0
tri3_10_11_13: t10_11_13 - x11_13 <= 0
tri4_10_11_13: t10_11_13 - x10_11 - x10_13 - x11_13 >= -2
tri1_10_11_14: t10_11_14 - x10_11 <= 0
tri2_10_11_14: t10_11_14 - x10_14 <= 0
tri3_10_11_14: t10_11_14 - x11_14 <= 0
tri4_10_11_14: t10_11_14 - x10_11 - x10_14 - x11_14 >= -2
tri1_10_11_15: t10_11_15 - x10_11 <= 0
tri2_10_11_15: t10_11_15 - x10_15 <= 0
tri3_10_11_15: t10_11_15 - x11_15 <= 0
tri4_10_11_15: t10_11_15 - x10_11 - x10_15 - x11_15 >= -2
tri1_10_11_16: t10_11_16 - x10_11 <= 0
tri2_10_11_16: t10_11_16 - x10_16 <= 0
tri3_10_11_16: t10_11_16 - x11_16 <= 0
tri4_10_11_16: t10_11_16 - x10_11 - x10_16 - x11_16 >= -2
tri1_10_11_17: t10_11_17 - x10_11 <= 0
tri2_10_11_17: t10_11_17 - x10_17 <= 0
tri3_10_11_17: t10_11_17 - x11_17 <= 0
tri4_10_11_17: t10_11_17 - x10_11 - x10_17 - x11_17 >= -2
tri1_10_11_18: t10_11_18 - x10_11 <= 0
tri2_10_11_18: t10_11_18 - x10_18 <= 0
tri3_10_11_18: t10_11_18 - x11_18 <= 0
tri4_10_11_18: t10_11_18 - x10_11 - x10_18 - x11_18 >= -2
tri1_10_11_19: t10_11_19 - x10_11 <= 0
tri2_10_11_19: t10_11_19 - x10_19 <= 0
tri3_10_11_19: t10_11_19 - x11_19 <= 0
tri4_10_11_19: t10_11_19 - x10_11 - x10_19 - x11_19 >= -2
tri1_10_11_20: t10_11_20 - x10_11 <= 0
tri2_10_11_20: t10_11_20 - x10_20 <= 0
tri3_10_11_20: t10_11_20 - x11_20 <= 0
tri4_10_11_20: t10_11_20 - x10_11 - x10_20 - x11_20 >= -2
tri1_10_11_21: t10_11_21 - x10_11 <= 0
tri2_10_11_21: t10_11_21 - x10_21 <= 0
tri3_10_11_21: t10_11_21 - x11_21 <= 0
tri4_10_11_21: t10_11_21 - x10_11 - x10_21 - x11_21 >= -2
tri1_10_11_22: t10_11_22 - x10_11 <= 0
tri2_10_11_22: t10_11_22 - x10_22 <= 0
tri3_10_11_22: t10_11_22 - x11_22 <= 0
tri4_10_11_22: t10_11_22 - x10_11 - x10_22 - x11_22 >= -2
tri1_10_11_23: t10_11_23 - x10_11 <= 0
tri2_10_11_23: t10_11_23 - x10_23 <= 0
tri3_10_11_23: t10_11_23 - x11_23 <= 0
tri4_10_11_23: t10_11_23 - x10_11 - x10_23 - x11_23 >= -2
tri1_10_12_13: t10_12_13 - x10_12 <= 0
tri2_10_12_13: t10_12_13 - x10_13 <= 0
tri3_10_12_13: t10_12_13 - x12_13 <= 0
tri4_10_12_13: t10_12_13 - x10_12 - x10_13 - x12_13 >= -2
tri1_10_12_14: t10_12_14 - x10_12 <= 0
tri2_10_12_14: t10_12_14 - x10_14 <= 0
tri3_10_12_14: t10_12_14 - x12_14 <= 0
tri4_10_12_14: t10_12_14 - x10_12 - x10_14 - x12_14 >= -2
tri1_10_12_15: t10_12_15 - x10_12 <= 0
tri2_10_12_15: t10_12_15 - x10_15 <= 0
tri3_10_12_15: t10_12_15 - x12_15 <= 0
tri4_10_12_15: t10_12_15 - x10_12 - x10_15 - x12_15 >= -2
tri1_10_12_16: t10_12_16 - x10_12 <= 0
tri2_10_12_16: t10_12_16 - x10_16 <= 0
tri3_10_12_16: t10_12_16 - x12_16 <= 0
tri4_10_12_16: t10_12_16 - x10_12 - x10_16 - x12_16 >= -2
tri1_10_12_17: t10_12_17 - x10_12 <= 0
tri2_10_12_17: t10_12_17 - x10_17 <= 0
tri3_10_12_17: t10_12_17 - x12_17 <= 0
tri4_10_12_17: t10_12_17 - x10_12 - x10_17 - x12_17 >= -2
tri1_10_12_18: t10_12_18 - x10_12 <= 0
tri2_10_12_18: t10_12_18 - x10_18 <= 0
tri3_10_12_18: t10_12_18 - x12_18 <= 0
tri4_10_12_18: t10_12_18 - x10_12 - x10_18 - x12_18 >= -2
tri1_10_12_19: t10_12_19 - x10_12 <= 0
tri2_10_12_19: t10_12_19 - x10_19 <= 0
tri3_10_12_19: t10_12_19 - x12_19 <= 0
tri4_10_12_19: t10_12_19 - x10_12 - x10_19 - x12_19 >= -2
tri1_10_12_20: t10_12_20 - x10_12 <= 0
tri2_10_12_20: t10_12_20 - x10_20 <= 0
tri3_10_12_20: t10_12_20 - x12_20 <= 0
tri4_10_12_20: t10_12_20 - x10_12 - x10_20 - x12_20 >= -2
tri1_10_12_21: t10_12_21 - x10_12 <= 0
tri2_10_12_21: t10_12_21 - x10_21 <= 0
tri3_10_12_21: t10_12_21 - x12_21 <= 0
tri4_10_12_21: t10_12_21 - x10_12 - x10_21 - x12_21 >= -2
tri1_10_12_22: t10_12_22 - x10_12 <= 0
tri2_10_12_22: t10_12_22 - x10_22 <= 0
tri3_10_12_22: t10_12_22 - x12_22 <= 0
tri4_10_12_22: t10_12_22 - x10_12 - x10_22 - x12_22 >= -2
tri1_10_12_23: t10_12_23 - x10_12 <= 0
tri2_10_12_23: t10_12_23 - x10_23 <= 0
tri3_10_12_23: t10_12_23 - x12_23 <= 0
tri4_10_12_23: t10_12_23 - x10_12 - x10_23 - x12_23 >= -2
tri1_10_13_14: t10_13_14 - x10_13 <= 0
tri2_10_13_14: t10_13_14 - x10_14 <= 0
tri3_10_13_14: t10_13_14 - x13_14 <= 0
tri4_10_13_14: t10_13_14 - x10_13 - x10_14 - x13_14 >= -2
tri1_10_13_15: t10_13_15 - x10_13 <= 0
tri2_10_13_15: t10_13_15 - x10_15 <= 0
tri3_10_13_15: t10_13_15 - x13_15 <= 0
tri4_10_13_15: t10_13_15 - x10_13 - x10_15 - x13_15 >= -2
tri1_10_13_16: t10_13_16 - x10_13 <= 0
tri2_10_13_16: t10_13_16 - x10_16 <= 0
tri3_10_13_16: t10_13_16 - x13_16 <= 0
tri4_10_13_16: t10_13_16 - x10_13 - x10_16 - x13_16 >= -2
tri1_10_13_17: t10_13_17 - x10_13 <= 0
tri2_10_13_17: t10_13_17 - x10_17 <= 0
tri3_10_13_17: t10_13_17 - x13_17 <= 0
tri4_10_13_17: t10_13_17 - x10_13 - x10_17 - x13_17 >= -2
tri1_10_13_18: t10_13_18 - x10_13 <= 0
tri2_10_13_18: t10_13_18 - x10_18 <= 0
tri3_10_13_18: t10_13_18 - x13_18 <= 0
tri4_10_13_18: t10_13_18 - x10_13 - x10_18 - x13_18 >= -2
tri1_10_13_19: t10_13_19 - x10_13 <= 0
tri2_10_13_19: t10_13_19 - x10_19 <= 0
tri3_10_13_19: t10_13_19 - x13_19 <= 0
tri4_10_13_19: t10_13_19 - x10_13 - x10_19 - x13_19 >= -2
tri1_10_13_20: t10_13_20 - x10_13 <= 0
tri2_10_13_20: t10_13_20 - x10_20 <= 0
tri3_10_13_20: t10_13_20 - x13_20 <= 0
tri4_10_13_20: t10_13_20 - x10_13 - x10_20 - x13_20 >= -2
tri1_10_13_21: t10_13_21 - x10_13 <= 0
tri2_10_13_21: t10_13_21 - x10_21 <= 0
tri3_10_13_21: t10_13_21 - x13_21 <= 0
tri4_10_13_21: t10_13_21 - x10_13 - x10_21 - x13_21 >= -2
tri1_10_13_22: t10_13_22 - x10_13 <= 0
tri2_10_13_22: t10_13_22 - x10_22 <= 0
tri3_10_13_22: t10_13_22 - x13_22 <= 0
tri4_10_13_22: t10_13_22 - x10_13 - x10_22 - x13_22 >= -2
tri1_10_13_23: t10_13_23 - x10_13 <= 0
tri2_10_13_23: t10_13_23 - x10_23 <= 0
tri3_10_13_23: t10_13_23 - x13_23 <= 0
tri4_10_13_23: t10_13_23 - x10_13 - x10_23 - x13_23 >= -2
tri1_10_14_15: t10_14_15 - x10_14 <= 0
tri2_10_14_15: t10_14_15 - x10_15 <= 0
tri3_10_14_15: t10_14_15 - x14_15 <= 0
tri4_10_14_15: t10_14_15 - x10_14 - x10_15 - x14_15 >= -2
tri1_10_14_16: t10_14_16 - x10_14 <= 0
tri2_10_14_16: t10_14_16 - x10_16 <= 0
tri3_10_14_16: t10_14_16 - x14_16 <= 0
tri4_10_14_16: t10_14_16 - x10_14 - x10_16 - x14_16 >= -2
tri1_10_14_17: t10_14_17 - x10_14 <= 0
tri2_10_14_17: t10_14_17 - x10_17 <= 0
tri3_10_14_17: t10_14_17 - x14_17 <= 0
tri4_10_14_17: t10_14_17 - x10_14 - x10_17 - x14_17 >= -2
tri1_10_14_18: t10_14_18 - x10_14 <= 0
tri2_10_14_18: t10_14_18 - x10_18 <= 0
tri3_10_14_18: t10_14_18 - x14_18 <= 0
tri4_10_14_18: t10_14_18 - x10_14 - x10_18 - x14_18 >= -2
tri1_10_14_19: t10_14_19 - x10_14 <= 0
tri2_10_14_19: t10_14_19 - x10_19 <= 0
tri3_10_14_19: t10_14_19 - x14_19 <= 0
tri4_10_14_19: t10_14_19 - x10_14 - x10_19 - x14_19 >= -2
tri1_10_14_20: t10_14_20 - x10_14 <= 0
tri2_10_14_20: t10_14_20 - x10_20 <= 0
tri3_10_14_20: t10_14_20 - x14_20 <= 0
tri4_10_14_20: t10_14_20 - x10_14 - x10_20 - x14_20 >= -2
tri1_10_14_21: t10_14_21 - x10_14 <= 0
tri2_10_14_21: t10_14_21 - x10_21 <= 0
tri3_10_14_21: t10_14_21 - x14_21 <= 0
tri4_10_14_21: t10_14_21 - x10_14 - x10_21 - x14_21 >= -2
tri1_10_14_22: t10_14_22 - x10_14 <= 0
tri2_10_14_22: t10_14_22 - x10_22 <= 0
tri3_10_14_22: t10_14_22 - x14_22 <= 0
tri4_10_14_22: t10_14_22 - x10_14 - x10_22 - x14_22 >= -2
tri1_10_14_23: t10_14_23 - x10_14 <= 0
tri2_10_14_23: t10_14_23 - x10_23 <= 0
tri3_10_14_23: t10_14_23 - x14_23 <= 0
tri4_10_14_23: t10_14_23 - x10_14 - x10_23 - x14_23 >= -2
tri1_10_15_16: t10_15_16 - x10_15 <= 0
tri2_10_15_16: t10_15_16 - x10_16 <= 0
tri3_10_15_16: t10_15_16 - x15_16 <= 0
tri4_10_15_16: t10_15_16 - x10_15 - x10_16 - x15_16 >= -2
tri1_10_15_17: t10_15_17 - x10_15 <= 0
tri2_10_15_17: t10_15_17 - x10_17 <= 0
tri3_10_15_17: t10_15_17 - x15_17 <= 0
tri4_10_15_17: t10_15_17 - x10_15 - x10_17 - x15_17 >= -2
tri1_10_15_18: t10_15_18 - x10_15 <= 0
tri2_10_15_18: t10_15_18 - x10_18 <= 0
tri3_10_15_18: t10_15_18 - x15_18 <= 0
tri4_10_15_18: t10_15_18 - x10_15 - x10_18 - x15_18 >= -2
tri1_10_15_19: t10_15_19 - x10_15 <= 0
tri2_10_15_19: t10_15_19 - x10_19 <= 0
tri3_10_15_19: t10_15_19 - x15_19 <= 0
tri4_10_15_19: t10_15_19 - x10_15 - x10_19 - x15_19 >= -2
tri1_10_15_20: t10_15_20 - x10_15 <= 0
tri2_10_15_20: t10_15_20 - x10_20 <= 0
tri3_10_15_20: t10_15_20 - x15_20 <= 0
tri4_10_15_20: t10_15_20 - x10_15 - x10_20 - x15_20 >= -2
tri1_10_15_21: t10_15_21 - x10_15 <= 0
tri2_10_15_21: t10_15_21 - x10_21 <= 0
tri3_10_15_21: t10_15_21 - x15_21 <= 0
tri4_10_15_21: t10_15_21 - x10_15 - x10_21 - x15_21 >= -2
tri1_10_15_22: t10_15_22 - x10_15 <= 0
tri2_10_15_22: t10_15_22 - x10_22 <= 0
tri3_10_15_22: t10_15_22 - x15_22 <= 0
tri4_10_15_22: t10_15_22 - x10_15 - x10_22 - x15_22 >= -2
tri1_10_15_23: t10_15_23 - x10_15 <= 0
tri2_10_15_23: t10_15_23 - x10_23 <= 0
tri3_10_15_23: t10_15_23 - x15_23 <= 0
tri4_10_15_23: t10_15_23 - x10_15 - x10_23 - x15_23 >= -2
tri1_10_16_17: t10_16_17 - x10_16 <= 0
tri2_10_16_17: t10_16_17 - x10_17 <= 0
tri3_10_16_17: t10_16_17 - x16_17 <= 0
tri4_10_16_17: t10_16_17 - x10_16 - x10_17 - x16_17 >= -2
tri1_10_16_18: t10_16_18 - x10_16 <= 0
tri2_10_16_18: t10_16_18 - x10_18 <= 0
tri3_10_16_18: t10_16_18 - x16_18 <= 0
tri4_10_16_18: t10_16_18 - x10_16 - x10_18 - x16_18 >= -2
tri1_10_16_19: t10_16_19 - x10_16 <= 0
tri2_10_16_19: t10_16_19 - x10_19 <= 0
tri3_10_16_19: t10_16_19 - x16_19 <= 0
tri4_10_16_19: t10_16_19 - x10_16 - x10_19 - x16_19 >= -2
tri1_10_16_20: t10_16_20 - x10_16 <= 0
tri2_10_16_20: t10_16_20 - x10_20 <= 0
tri3_10_16_20: t10_16_20 - x16_20 <= 0
tri4_10_16_20: t10_16_20 - x10_16 - x10_20 - x16_20 >= -2
tri1_10_16_21: t10_16_21 - x10_16 <= 0
tri2_10_16_21: t10_16_21 - x10_21 <= 0
tri3_10_16_21: t10_16_21 - x16_21 <= 0
tri4_10_16_21: t10_16_21 - x10_16 - x10_21 - x16_21 >= -2
tri1_10_16_22: t10_16_22 - x10_16 <= 0
tri2_10_16_22: t10_16_22 - x10_22 <= 0
tri3_10_16_22: t10_16_22 - x16_22 <= 0
tri4_10_16_22: t10_16_22 - x10_16 - x10_22 - x16_22 >= -2
tri1_10_16_23: t10_16_23 - x10_16 <= 0
tri2_10_16_23: t10_16_23 - x10_23 <= 0
tri3_10_16_23: t10_16_23 - x16_23 <= 0
tri4_10_16_23: t10_16_23 - x10_16 - x10_23 - x16_23 >= -2
tri1_10_17_18: t10_17_18 - x10_17 <= 0
tri2_10_17_18: t10_17_18 - x10_18 <= 0
tri3_10_17_18: t10_17_18 - x17_18 <= 0
tri4_10_17_18: t10_17_18 - x10_17 - x10_18 - x17_18 >= -2
tri1_10_17_19: t10_17_19 - x10_17 <= 0
tri2_10_17_19: t10_17_19 - x10_19 <= 0
tri3_10_17_19: t10_17_19 - x17_19 <= 0
tri4_10_17_19: t10_17_19 - x10_17 - x10_19 - x17_19 >= -2
tri1_10_17_20: t10_17_20 - x10_17 <= 0
tri2_10_17_20: t10_17_20 - x10_20 <= 0
tri3_10_17_20: t10_17_20 - x17_20 <= 0
tri4_10_17_20: t10_17_20 - x10_17 - x10_20 - x17_20 >= -2
tri1_10_17_21: t10_17_21 - x10_17 <= 0
tri2_10_17_21: t10_17_21 - x10_21 <= 0
tri3_10_17_21: t10_17_21 - x17_21 <= 0
tri4_10_17_21: t10_17_21 - x10_17 - x10_21 - x17_21 >= -2
tri1_10_17_22: t10_17_22 - x10_17 <= 0
tri2_10_17_22: t10_17_22 - x10_22 <= 0
tri3_10_17_22: t10_17_22 - x17_22 <= 0
tri4_10_17_22: t10_17_22 - x10_17 - x10_22 - x17_22 >= -2
tri1_10_17_23: t10_17_23 - x10_17 <= 0
tri2_10_17_23: t10_17_23 - x10_23 <= 0
tri3_10_17_23: t10_17_23 - x17_23 <= 0
tri4_10_17_23: t10_17_23 - x10_17 - x10_23 - x17_23 >= -2
tri1_10_18_19: t10_18_19 - x10_18 <= 0
tri2_10_18_19: t10_18_19 - x10_19 <= 0
tri3_10_18_19: t10_18_19 - x18_19 <= 0
tri4_10_18_19: t10_18_19 - x10_18 - x10_19 - x18_19 >= -2
tri1_10_18_20: t10_18_20 - x10_18 <= 0
tri2_10_18_20: t10_18_20 - x10_20 <= 0
tri3_10_18_20: t10_18_20 - x18_20 <= 0
tri4_10_18_20: t10_18_20 - x10_18 - x10_20 - x18_20 >= -2
tri1_10_18_21: t10_18_21 - x10_18 <= 0
tri2_10_18_21: t10_18_21 - x10_21 <= 0
tri3_10_18_21: t10_18_21 - x18_21 <= 0
tri4_10_18_21: t10_18_21 - x10_18 - x10_21 - x18_21 >= -2
tri1_10_18_22: t10_18_22 - x10_18 <= 0
tri2_10_18_22: t10_18_22 - x10_22 <= 0
tri3_10_18_22: t10_18_22 - x18_22 <= 0
tri4_10_18_22: t10_18_22 - x10_18 - x10_22 - x18_22 >= -2
tri1_10_18_23: t10_18_23 - x10_18 <= 0
tri2_10_18_23: t10_18_23 - x10_23 <= 0
tri3_10_18_23: t10_18_23 - x18_23 <= 0
tri4_10_18_23: t10_18_23 - x10_18 - x10_23 - x18_23 >= -2
tri1_10_19_20: t10_19_20 - x10_19 <= 0
tri2_10_19_20: t10_19_20 - x10_20 <= 0
tri3_10_19_20: t10_19_20 - x19_20 <= 0
tri4_10_19_20: t10_19_20 - x10_19 - x10_20 - x19_20 >= -2
tri1_10_19_21: t10_19_21 - x10_19 <= 0
tri2_10_19_21: t10_19_21 - x10_21 <= 0
tri3_10_19_21: t10_19_21 - x19_21 <= 0
tri4_10_19_21: t10_19_21 - x10_19 - x10_21 - x19_21 >= -2
tri1_10_19_22: t10_19_22 - x10_19 <= 0
tri2_10_19_22: t10_19_22 - x10_22 <= 0
tri3_10_19_22: t10_19_22 - x19_22 <= 0
tri4_10_19_22: t10_19_22 - x10_19 - x10_22 - x19_22 >= -2
tri1_10_19_23: t10_19_23 - x10_19 <= 0
tri2_10_19_23: t10_19_23 - x10_23 <= 0
tri3_10_19_23: t10_19_23 - x19_23 <= 0
tri4_10_19_23: t10_19_23 - x10_19 - x10_23 - x19_23 >= -2
tri1_10_20_21: t10_20_21 - x10_20 <= 0
tri2_10_20_21: t10_20_21 - x10_21 <= 0
tri3_10_20_21: t10_20_21 - x20_21 <= 0
tri4_10_20_21: t10_20_21 - x10_20 - x10_21 - x20_21 >= -2
tri1_10_20_22: t10_20_22 - x10_20 <= 0
tri2_10_20_22: t10_20_22 - x10_22 <= 0
tri3_10_20_22: t10_20_22 - x20_22 <= 0
tri4_10_20_22: t10_20_22 - x10_20 - x10_22 - x20_22 >= -2
tri1_10_20_23: t10_20_23 - x10_20 <= 0
tri2_10_20_23: t10_20_23 - x10_23 <= 0
tri3_10_20_23: t10_20_23 - x20_23 <= 0
tri4_10_20_23: t10_20_23 - x10_20 - x10_23 - x20_23 >= -2
tri1_10_21_22: t10_21_22 - x10_21 <= 0
tri2_10_21_22: t10_21_22 - x10_22 <= 0
tri3_10_21_22: t10_21_22 - x21_22 <= 0
tri4_10_21_22: t10_21_22 - x10_21 - x10_22 - x21_22 >= -2
tri1_10_21_23: t10_21_23 - x10_21 <= 0
tri2_10_21_23: t10_21_23 - x10_23 <= 0
tri3_10_21_23: t10_21_23 - x21_23 <= 0
tri4_10_21_23: t10_21_23 - x10_21 - x10_23 - x21_23 >= -2
tri1_10_22_23: t10_22_23 - x10_22 <= 0
tri2_10_22_23: t10_22_23 - x10_23 <= 0
tri3_10_22_23: t10_22_23 - x22_23 <= 0
tri4_10_22_23: t10_22_23 - x10_22 - x10_23 - x22_23 >= -2
tri1_11_12_13: t11_12_13 - x11_12 <= 0
tri2_11_12_13: t11_12_13 - x11_13 <= 0
tri3_11_12_13: t11_12_13 - x12_13 <= 0
tri4_11_12_13: t11_12_13 - x11_12 - x11_13 - x12_13 >= -2
tri1_11_12_14: t11_12_14 - x11_12 <= 0
tri2_11_12_14: t11_12_14 - x11_14 <= 0
tri3_11_12_14: t11_12_14 - x12_14 <= 0
tri4_11_12_14: t11_12_14 - x11_12 - x11_14 - x12_14 >= -2
tri1_11_12_15: t11_12_15 - x11_12 <= 0
tri2_11_12_15: t11_12_15 - x11_15 <= 0
tri3_11_12_15: t11_12_15 - x12_15 <= 0
tri4_11_12_15: t11_12_15 - x11_12 - x11_15 - x12_15 >= -2
tri1_11_12_16: t11_12_16 - x11_12 <= 0
tri2_11_12_16: t11_12_16 - x11_16 <= 0
tri3_11_12_16: t11_12_16 - x12_16 <= 0
tri4_11_12_16: t11_12_16 - x11_12 - x11_16 - x12_16 >= -2
tri1_11_12_17: t11_12_17 - x11_12 <= 0
tri2_11_12_17: t11_12_17 - x11_17 <= 0
tri3_11_12_17: t11_12_17 - x12_17 <= 0
tri4_11_12_17: t11_12_17 - x11_12 - x11_17 - x12_17 >= -2
tri1_11_12_18: t11_12_18 - x11_12 <= 0
tri2_11_12_18: t11_12_18 - x11_18 <= 0
tri3_11_12_18: t11_12_18 - x12_18 <= 0
tri4_11_12_18: t11_12_18 - x11_12 - x11_18 - x12_18 >= -2
tri1_11_12_19: t11_12_19 - x11_12 <= 0
tri2_11_12_19: t11_12_19 - x11_19 <= 0
tri3_11_12_19: t11_12_19 - x12_19 <= 0
tri4_11_12_19: t11_12_19 - x11_12 - x11_19 - x12_19 >= -2
tri1_11_12_20: t11_12_20 - x11_12 <= 0
tri2_11_12_20: t11_12_20 - x11_20 <= 0
tri3_11_12_20: t11_12_20 - x12_20 <= 0
tri4_11_12_20: t11_12_20 - x11_12 - x11_20 - x12_20 >= -2
tri1_11_12_21: t11_12_21 - x11_12 <= 0
tri2_11_12_21: t11_12_21 - x11_21 <= 0
tri3_11_12_21: t11_12_21 - x12_21 <= 0
tri4_11_12_21: t11_12_21 - x11_12 - x11_21 - x12_21 >= -2
tri1_11_12_22: t11_12_22 - x11_12 <= 0
tri2_11_12_22: t11_12_22 - x11_22 <= 0
tri3_11_12_22: t11_12_22 - x12_22 <= 0
tri4_11_12_22: t11_12_22 - x11_12 - x11_22 - x12_22 >= -2
tri1_11_12_23: t11_12_23 - x11_12 <= 0
tri2_11_12_23: t11_12_23 - x11_23 <= 0
tri3_11_12_23: t11_12_23 - x12_23 <= 0
tri4_11_12_23: t11_12_23 - x11_12 - x11_23 - x12_23 >= -2
tri1_11_13_14: t11_13_14 - x11_13 <= 0
tri2_11_13_14: t11_13_14 - x11_14 <= 0
tri3_11_13_14: t11_13_14 - x13_14 <= 0
tri4_11_13_14: t11_13_14 - x11_13 - x11_14 - x13_14 >= -2
tri1_11_13_15: t11_13_15 - x11_13 <= 0
tri2_11_13_15: t11_13_15 - x11_15 <= 0
tri3_11_13_15: t11_13_15 - x13_15 <= 0
tri4_11_13_15: t11_13_15 - x11_13 - x11_15 - x13_15 >= -2
tri1_11_13_16: t11_13_16 - x11_13 <= 0
tri2_11_13_16: t11_13_16 - x11_16 <= 0
tri3_11_13_16: t11_13_16 - x13_16 <= 0
tri4_11_13_16: t11_13_16 - x11_13 - x11_16 - x13_16 >= -2
tri1_11_13_17: t11_13_17 - x11_13 <= 0
tri2_11_13_17: t11_13_17 - x11_17 <= 0
tri3_11_13_17: t11_13_17 - x13_17 <= 0
tri4_11_13_17: t11_13_17 - x11_13 - x11_17 - x13_17 >= -2
tri1_11_13_18: t11_13_18 - x11_13 <= 0
tri2_11_13_18: t11_13_18 - x11_18 <= 0
tri3_11_13_18: t11_13_18 - x13_18 <= 0
tri4_11_13_18: t11_13_18 - x11_13 - x11_18 - x13_18 >= -2
tri1_11_13_19: t11_13_19 - x11_13 <= 0
tri2_11_13_19: t11_13_19 - x11_19 <= 0
tri3_11_13_19: t11_13_19 - x13_19 <= 0
tri4_11_13_19: t11_13_19 - x11_13 - x11_19 - x13_19 >= -2
tri1_11_13_20: t11_13_20 - x11_13 <= 0
tri2_11_13_20: t11_13_20 - x11_20 <= 0
tri3_11_13_20: t11_13_20 - x13_20 <= 0
tri4_11_13_20: t11_13_20 - x11_13 - x11_20 - x13_20 >= -2
tri1_11_13_21: t11_13_21 - x11_13 <= 0
tri2_11_13_21: t11_13_21 - x11_21 <= 0
tri3_11_13_21: t11_13_21 - x13_21 <= 0
tri4_11_13_21: t11_13_21 - x11_13 - x11_21 - x13_21 >= -2
tri1_11_13_22: t11_13_22 - x11_13 <= 0
tri2_11_13_22: t11_13_22 - x11_22 <= 0
tri3_11_13_22: t11_13_22 - x13_22 <= 0
tri4_11_13_22: t11_13_22 - x11_13 - x11_22 - x13_22 >= -2
tri1_11_13_23: t11_13_23 - x11_13 <= 0
tri2_11_13_23: t11_13_23 - x11_23 <= 0
tri3_11_13_23: t11_13_23 - x13_23 <= 0
tri4_11_13_23: t11_13_23 - x11_13 - x11_23 - x13_23 >= -2
tri1_11_14_15: t11_14_15 - x11_14 <= 0
tri2_11_14_15: t11_14_15 - x11_15 <= 0
tri3_11_14_15: t11_14_15 - x14_15 <= 0
tri4_11_14_15: t11_14_15 - x11_14 - x11_15 - x14_15 >= -2
tri1_11_14_16: t11_14_16 - x11_14 <= 0
tri2_11_14_16: t11_14_16 - x11_16 <= 0
tri3_11_14_16: t11_14_16 - x14_16 <= 0
tri4_11_14_16: t11_14_16 - x11_14 - x11_16 - x14_16 >= -2
tri1_11_14_17: t11_14_17 - x11_14 <= 0
tri2_11_14_17: t11_14_17 - x11_17 <= 0
tri3_11_14_17: t11_14_17 - x14_17 <= 0
tri4_11_14_17: t11_14_17 - x11_14 - x11_17 - x14_17 >= -2
tri1_11_14_18: t11_14_18 - x11_14 <= 0
tri2_11_14_18: t11_14_18 - x11_18 <= 0
tri3_11_14_18: t11_14_18 - x14_18 <= 0
tri4_11_14_18: t11_14_18 - x11_14 - x11_18 - x14_18 >= -2
tri1_11_14_19: t11_14_19 - x11_14 <= 0
tri2_11_14_19: t11_14_19 - x11_19 <= 0
tri3_11_14_19: t11_14_19 - x14_19 <= 0
tri4_11_14_19: t11_14_19 - x11_14 - x11_19 - x14_19 >= -2
tri1_11_14_20: t11_14_20 - x11_14 <= 0
tri2_11_14_20: t11_14_20 - x11_20 <= 0
tri3_11_14_20: t11_14_20 - x14_20 <= 0
tri4_11_14_20: t11_14_20 - x11_14 - x11_20 - x14_20 >= -2
tri1_11_14_21: t11_14_21 - x11_14 <= 0
tri2_11_14_21: t11_14_21 - x11_21 <= 0
tri3_11_14_21: t11_14_21 - x14_21 <= 0
tri4_11_14_21: t11_14_21 - x11_14 - x11_21 - x14_21 >= -2
tri1_11_14_22: t11_14_22 - x11_14 <= 0
tri2_11_14_22: t11_14_22 - x11_22 <= 0
tri3_11_14_22: t11_14_22 - x14_22 <= 0
tri4_11_14_22: t11_14_22 - x11_14 - x11_22 - x14_22 >= -2
tri1_11_14_23: t11_14_23 - x11_14 <= 0
tri2_11_14_23: t11_14_23 - x11_23 <= 0
tri3_11_14_23: t11_14_23 - x14_23 <= 0
tri4_11_14_23: t11_14_23 - x11_14 - x11_23 - x14_23 >= -2
tri1_11_15_16: t11_15_16 - x11_15 <= 0
tri2_11_15_16: t11_15_16 - x11_16 <= 0
tri3_11_15_16: t11_15_16 - x15_16 <= 0
tri4_11_15_16: t11_15_16 - x11_15 - x11_16 - x15_16 >= -2
tri1_11_15_17: t11_15_17 - x11_15 <= 0
tri2_11_15_17: t11_15_17 - x11_17 <= 0
tri3_11_15_17: t11_15_17 - x15_17 <= 0
tri4_11_15_17: t11_15_17 - x11_15 - x11_17 - x15_17 >= -2
tri1_11_15_18: t11_15_18 - x11_15 <= 0
tri2_11_15_18: t11_15_18 - x11_18 <= 0
tri3_11_15_18: t11_15_18 - x15_18 <= 0
tri4_11_15_18: t11_15_18 - x11_15 - x11_18 - x15_18 >= -2
tri1_11_15_19: t11_15_19 - x11_15 <= 0
tri2_11_15_19: t11_15_19 - x11_19 <= 0
tri3_11_15_19: t11_15_19 - x15_19 <= 0
tri4_11_15_19: t11_15_19 - x11_15 - x11_19 - x15_19 >= -2
tri1_11_15_20: t11_15_20 - x11_15 <= 0
tri2_11_15_20: t11_15_20 - x11_20 <= 0
tri3_11_15_20: t11_15_20 - x15_20 <= 0
tri4_11_15_20: t11_15_20 - x11_15 - x11_20 - x15_20 >= -2
tri1_11_15_21: t11_15_21 - x11_15 <= 0
tri2_11_15_21: t11_15_21 - x11_21 <= 0
tri3_11_15_21: t11_15_21 - x15_21 <= 0
tri4_11_15_21: t11_15_21 - x11_15 - x11_21 - x15_21 >= -2
tri1_11_15_22: t11_15_22 - x11_15 <= 0
tri2_11_15_22: t11_15_22 - x11_22 <= 0
tri3_11_15_22: t11_15_22 - x15_22 <= 0
tri4_11_15_22: t11_15_22 - x11_15 - x11_22 - x15_22 >= -2
tri1_11_15_23: t11_15_23 - x11_15 <= 0
tri2_11_15_23: t11_15_23 - x11_23 <= 0
tri3_11_15_23: t11_15_23 - x15_23 <= 0
tri4_11_15_23: t11_15_23 - x11_15 - x11_23 - x15_23 >= -2
tri1_11_16_17: t11_16_17 - x11_16 <= 0
tri2_11_16_17: t11_16_17 - x11_17 <= 0
tri3_11_16_17: t11_16_17 - x16_17 <= 0
tri4_11_16_17: t11_16_17 - x11_16 - x11_17 - x16_17 >= -2
tri1_11_16_18: t11_16_18 - x11_16 <= 0
tri2_11_16_18: t11_16_18 - x11_18 <= 0
tri3_11_16_18: t11_16_18 - x16_18 <= 0
tri4_11_16_18: t11_16_18 - x11_16 - x11_18 - x16_18 >= -2
tri1_11_16_19: t11_16_19 - x11_16 <= 0
tri2_11_16_19: t11_16_19 - x11_19 <= 0
tri3_11_16_19: t11_16_19 - x16_19 <= 0
tri4_11_16_19: t11_16_19 - x11_16 - x11_19 - x16_19 >= -2
tri1_11_16_20: t11_16_20 - x11_16 <= 0
tri2_11_16_20: t11_16_20 - x11_20 <= 0
tri3_11_16_20: t11_16_20 - x16_20 <= 0
tri4_11_16_20: t11_16_20 - x11_16 - x11_20 - x16_20 >= -2
tri1_11_16_21: t11_16_21 - x11_16 <= 0
tri2_11_16_21: t11_16_21 - x11_21 <= 0
tri3_11_16_21: t11_16_21 - x16_21 <= 0
tri4_11_16_21: t11_16_21 - x11_16 - x11_21 - x16_21 >= -2
tri1_11_16_22: t11_16_22 - x11_16 <= 0
tri2_11_16_22: t11_16_22 - x11_22 <= 0
tri3_11_16_22: t11_16_22 - x16_22 <= 0
tri4_11_16_22: t11_16_22 - x11_16 - x11_22 - x16_22 >= -2
tri1_11_16_23: t11_16_23 - x11_16 <= 0
tri2_11_16_23: t11_16_23 - x11_23 <= 0
tri3_11_16_23: t11_16_23 - x16_23 <= 0
tri4_11_16_23: t11_16_23 - x11_16 - x11_23 - x16_23 >= -2
tri1_11_17_18: t11_17_18 - x11_17 <= 0
tri2_11_17_18: t11_17_18 - x11_18 <= 0
tri3_11_17_18: t11_17_18 - x17_18 <= 0
tri4_11_17_18: t11_17_18 - x11_17 - x11_18 - x17_18 >= -2
tri1_11_17_19: t11_17_19 - x11_17 <= 0
tri2_11_17_19: t11_17_19 - x11_19 <= 0
tri3_11_17_19: t11_17_19 - x17_19 <= 0
tri4_11_17_19: t11_17_19 - x11_17 - x11_19 - x17_19 >= -2
tri1_11_17_20: t11_17_20 - x11_17 <= 0
tri2_11_17_20: t11_17_20 - x11_20 <= 0
tri3_11_17_20: t11_17_20 - x17_20 <= 0
tri4_11_17_20: t11_17_20 - x11_17 - x11_20 - x17_20 >= -2
tri1_11_17_21: t11_17_21 - x11_17 <= 0
tri2_11_17_21: t11_17_21 - x11_21 <= 0
tri3_11_17_21: t11_17_21 - x17_21 <= 0
tri4_11_17_21: t11_17_21 - x11_17 - x11_21 - x17_21 >= -2
tri1_11_17_22: t11_17_22 - x11_17 <= 0
tri2_11_17_22: t11_17_22 - x11_22 <= 0
tri3_11_17_22: t11_17_22 - x17_22 <= 0
tri4_11_17_22: t11_17_22 - x11_17 - x11_22 - x17_22 >= -2
tri1_11_17_23: t11_17_23 - x11_17 <= 0
tri2_11_17_23: t11_17_23 - x11_23 <= 0
tri3_11_17_23: t11_17_23 - x17_23 <= 0
tri4_11_17_23: t11_17_23 - x11_17 - x11_23 - x17_23 >= -2
tri1_11_18_19: t11_18_19 - x11_18 <= 0
tri2_11_18_19: t11_18_19 - x11_19 <= 0
tri3_11_18_19: t11_18_19 - x18_19 <= 0
tri4_11_18_19: t11_18_19 - x11_18 - x11_19 - x18_19 >= -2
tri1_11_18_20: t11_18_20 - x11_18 <= 0
tri2_11_18_20: t11_18_20 - x11_20 <= 0
tri3_11_18_20: t11_18_20 - x18_20 <= 0
tri4_11_18_20: t11_18_20 - x11_18 - x11_20 - x18_20 >= -2
tri1_11_18_21: t11_18_21 - x11_18 <= 0
tri2_11_18_21: t11_18_21 - x11_21 <= 0
tri3_11_18_21: t11_18_21 - x18_21 <= 0
tri4_11_18_21: t11_18_21 - x11_18 - x11_21 - x18_21 >= -2
tri1_11_18_22: t11_18_22 - x11_18 <= 0
tri2_11_18_22: t11_18_22 - x11_22 <= 0
tri3_11_18_22: t11_18_22 - x18_22 <= 0
tri4_11_18_22: t11_18_22 - x11_18 - x11_22 - x18_22 >= -2
tri1_11_18_23: t11_18_23 - x11_18 <= 0
tri2_11_18_23: t11_18_23 - x11_23 <= 0
tri3_11_18_23: t11_18_23 - x18_23 <= 0
tri4_11_18_23: t11_18_23 - x11_18 - x11_23 - x18_23 >= -2
tri1_11_19_20: t11_19_20 - x11_19 <= 0
tri2_11_19_20: t11_19_20 - x11_20 <= 0
tri3_11_19_20: t11_19_20 - x19_20 <= 0
tri4_11_19_20: t11_19_20 - x11_19 - x11_20 - x19_20 >= -2
tri1_11_19_21: t11_19_21 - x11_19 <= 0
tri2_11_19_21: t11_19_21 - x11_21 <= 0
tri3_11_19_21: t11_19_21 - x19_21 <= 0
tri4_11_19_21: t11_19_21 - x11_19 - x11_21 - x19_21 >= -2
tri1_11_19_22: t11_19_22 - x11_19 <= 0
tri2_11_19_22: t11_19_22 - x11_22 <= 0
tri3_11_19_22: t11_19_22 - x19_22 <= 0
tri4_11_19_22: t11_19_22 - x11_19 - x11_22 - x19_22 >= -2
tri1_11_19_23: t11_19_23 - x11_19 <= 0
tri2_11_19_23: t11_19_23 - x11_23 <= 0
tri3_11_19_23: t11_19_23 - x19_23 <= 0
tri4_11_19_23: t11_19_23 - x11_19 - x11_23 - x19_23 >= -2
tri1_11_20_21: t11_20_21 - x11_20 <= 0
tri2_11_20_21: t11_20_21 - x11_21 <= 0
tri3_11_20_21: t11_20_21 - x20_21 <= 0
tri4_11_20_21: t11_20_21 - x11_20 - x11_21 - x20_21 >= -2
tri1_11_20_22: t11_20_22 - x11_20 <= 0
tri2_11_20_22: t11_20_22 - x11_22 <= 0
tri3_11_20_22: t11_20_22 - x20_22 <= 0
tri4_11_20_22: t11_20_22 - x11_20 - x11_22 - x20_22 >= -2
tri1_11_20_23: t11_20_23 - x11_20 <= 0
tri2_11_20_23: t11_20_23 - x11_23 <= 0
tri3_11_20_23: t11_20_23 - x20_23 <= 0
tri4_11_20_23: t11_20_23 - x11_20 - x11_23 - x20_23 >= -2
tri1_11_21_22: t11_21_22 - x11_21 <= 0
tri2_11_21_22: t11_21_22 - x11_22 <= 0
tri3_11_21_22: t11_21_22 - x21_22 <= 0
tri4_11_21_22: t11_21_22 - x11_21 - x11_22 - x21_22 >= -2
tri1_11_21_23: t11_21_23 - x11_21 <= 0
tri2_11_21_23: t11_21_23 - x11_23 <= 0
tri3_11_21_23: t11_21_23 - x21_23 <= 0
tri4_11_21_23: t11_21_23 - x11_21 - x11_23 - x21_23 >= -2
tri1_11_22_23: t11_22_23 - x11_22 <= 0
tri2_11_22_23: t11_22_23 - x11_23 <= 0
tri3_11_22_23: t11_22_23 - x22_23 <= 0
tri4_11_22_23: t11_22_23 - x11_22 - x11_23 - x22_23 >= -2
tri1_12_13_14: t12_13_14 - x12_13 <= 0
tri2_12_13_14: t12_13_14 - x12_14 <= 0
tri3_12_13_14: t12_13_14 - x13_14 <= 0
tri4_12_13_14: t12_13_14 - x12_13 - x12_14 - x13_14 >= -2
tri1_12_13_15: t12_13_15 - x12_13 <= 0
tri2_12_13_15: t12_13_15 - x12_15 <= 0
tri3_12_13_15: t12_13_15 - x13_15 <= 0
tri4_12_13_15: t12_13_15 - x12_13 - x12_15 - x13_15 >= -2
tri1_12_13_16: t12_13_16 - x12_13 <= 0
tri2_12_13_16: t12_13_16 - x12_16 <= 0
tri3_12_13_16: t12_13_16 - x13_16 <= 0
tri4_12_13_16: t12_13_16 - x12_13 - x12_16 - x13_16 >= -2
tri1_12_13_17: t12_13_17 - x12_13 <= 0
tri2_12_13_17: t12_13_17 - x12_17 <= 0
tri3_12_13_17: t12_13_17 - x13_17 <= 0
tri4_12_13_17: t12_13_17 - x12_13 - x12_17 - x13_17 >= -2
tri1_12_13_18: t12_13_18 - x12_13 <= 0
tri2_12_13_18: t12_13_18 - x12_18 <= 0
tri3_12_13_18: t12_13_18 - x13_18 <= 0
tri4_12_13_18: t12_13_18 - x12_13 - x12_18 - x13_18 >= -2
tri1_12_13_19: t12_13_19 - x12_13 <= 0
tri2_12_13_19: t12_13_19 - x12_19 <= 0
tri3_12_13_19: t12_13_19 - x13_19 <= 0
tri4_12_13_19: t12_13_19 - x12_13 - x12_19 - x13_19 >= -2
tri1_12_13_20: t12_13_20 - x12_13 <= 0
tri2_12_13_20: t12_13_20 - x12_20 <= 0
tri3_12_13_20: t12_13_20 - x13_20 <= 0
tri4_12_13_20: t12_13_20 - x12_13 - x12_20 - x13_20 >= -2
tri1_12_13_21: t12_13_21 - x12_13 <= 0
tri2_12_13_21: t12_13_21 - x12_21 <= 0
tri3_12_13_21: t12_13_21 - x13_21 <= 0
tri4_12_13_21: t12_13_21 - x12_13 - x12_21 - x13_21 >= -2
tri1_12_13_22: t12_13_22 - x12_13 <= 0
tri2_12_13_22: t12_13_22 - x12_22 <= 0
tri3_12_13_22: t12_13_22 - x13_22 <= 0
tri4_12_13_22: t12_13_22 - x12_13 - x12_22 - x13_22 >= -2
tri1_12_13_23: t12_13_23 - x12_13 <= 0
tri2_12_13_23: t12_13_23 - x12_23 <= 0
tri3_12_13_23: t12_13_23 - x13_23 <= 0
tri4_12_13_23: t12_13_23 - x12_13 - x12_23 - x13_23 >= -2
tri1_12_14_15: t12_14_15 - x12_14 <= 0
tri2_12_14_15: t12_14_15 - x12_15 <= 0
tri3_12_14_15: t12_14_15 - x14_15 <= 0
tri4_12_14_15: t12_14_15 - x12_14 - x12_15 - x14_15 >= -2
tri1_12_14_16: t12_14_16 - x12_14 <= 0
tri2_12_14_16: t12_14_16 - x12_16 <= 0
tri3_12_14_16: t12_14_16 - x14_16 <= 0
tri4_12_14_16: t12_14_16 - x12_14 - x12_16 - x14_16 >= -2
tri1_12_14_17: t12_14_17 - x12_14 <= 0
tri2_12_14_17: t12_14_17 - x12_17 <= 0
tri3_12_14_17: t12_14_17 - x14_17 <= 0
tri4_12_14_17: t12_14_17 - x12_14 - x12_17 - x14_17 >= -2
tri1_12_14_18: t12_14_18 - x12_14 <= 0
tri2_12_14_18: t12_14_18 - x12_18 <= 0
tri3_12_14_18: t12_14_18 - x14_18 <= 0
tri4_12_14_18: t12_14_18 - x12_14 - x12_18 - x14_18 >= -2
tri1_12_14_19: t12_14_19 - x12_14 <= 0
tri2_12_14_19: t12_14_19 - x12_19 <= 0
tri3_12_14_19: t12_14_19 - x14_19 <= 0
tri4_12_14_19: t12_14_19 - x12_14 - x12_19 - x14_19 >= -2
tri1_12_14_20: t12_14_20 - x12_14 <= 0
tri2_12_14_20: t12_14_20 - x12_20 <= 0
tri3_12_14_20: t12_14_20 - x14_20 <= 0
tri4_12_14_20: t12_14_20 - x12_14 - x12_20 - x14_20 >= -2
tri1_12_14_21: t12_14_21 - x12_14 <= 0
tri2_12_14_21: t12_14_21 - x12_21 <= 0
tri3_12_14_21: t12_14_21 - x14_21 <= 0
tri4_12_14_21: t12_14_21 - x12_14 - x12_21 - x14_21 >= -2
tri1_12_14_22: t12_14_22 - x12_14 <= 0
tri2_12_14_22: t12_14_22 - x12_22 <= 0
tri3_12_14_22: t12_14_22 - x14_22 <= 0
tri4_12_14_22: t12_14_22 - x12_14 - x12_22 - x14_22 >= -2
tri1_12_14_23: t12_14_23 - x12_14 <= 0
tri2_12_14_23: t12_14_23 - x12_23 <= 0
tri3_12_14_23: t12_14_23 - x14_23 <= 0
tri4_12_14_23: t12_14_23 - x12_14 - x12_23 - x14_23 >= -2
tri1_12_15_16: t12_15_16 - x12_15 <= 0
tri2_12_15_16: t12_15_16 - x12_16 <= 0
tri3_12_15_16: t12_15_16 - x15_16 <= 0
tri4_12_15_16: t12_15_16 - x12_15 - x12_16 - x15_16 >= -2
tri1_12_15_17: t12_15_17 - x12_15 <= 0
tri2_12_15_17: t12_15_17 - x12_17 <= 0
tri3_12_15_17: t12_15_17 - x15_17 <= 0
tri4_12_15_17: t12_15_17 - x12_15 - x12_17 - x15_17 >= -2
tri1_12_15_18: t12_15_18 - x12_15 <= 0
tri2_12_15_18: t12_15_18 - x12_18 <= 0
tri3_12_15_18: t12_15_18 - x15_18 <= 0
tri4_12_15_18: t12_15_18 - x12_15 - x12_18 - x15_18 >= -2
tri1_12_15_19: t12_15_19 - x12_15 <= 0
tri2_12_15_19: t12_15_19 - x12_19 <= 0
tri3_12_15_19: t12_15_19 - x15_19 <= 0
tri4_12_15_19: t12_15_19 - x12_15 - x12_19 - x15_19 >= -2
tri1_12_15_20: t12_15_20 - x12_15 <= 0
tri2_12_15_20: t12_15_20 - x12_20 <= 0
tri3_12_15_20: t12_15_20 - x15_20 <= 0
tri4_12_15_20: t12_15_20 - x12_15 - x12_20 - x15_20 >= -2
tri1_12_15_21: t12_15_21 - x12_15 <= 0
tri2_12_15_21: t12_15_21 - x12_21 <= 0
tri3_12_15_21: t12_15_21 - x15_21 <= 0
tri4_12_15_21: t12_15_21 - x12_15 - x12_21 - x15_21 >= -2
tri1_12_15_22: t12_15_22 - x12_15 <= 0
tri2_12_15_22: t12_15_22 - x12_22 <= 0
tri3_12_15_22: t12_15_22 - x15_22 <= 0
tri4_12_15_22: t12_15_22 - x12_15 - x12_22 - x15_22 >= -2
tri1_12_15_23: t12_15_23 - x12_15 <= 0
tri2_12_15_23: t12_15_23 - x12_23 <= 0
tri3_12_15_23: t12_15_23 - x15_23 <= 0
tri4_12_15_23: t12_15_23 - x12_15 - x12_23 - x15_23 >= -2
tri1_12_16_17: t12_16_17 - x12_16 <= 0
tri2_12_16_17: t12_16_17 - x12_17 <= 0
tri3_12_16_17: t12_16_17 - x16_17 <= 0
tri4_12_16_17: t12_16_17 - x12_16 - x12_17 - x16_17 >= -2
tri1_12_16_18: t12_16_18 - x12_16 <= 0
tri2_12_16_18: t12_16_18 - x12_18 <= 0
tri3_12_16_18: t12_16_18 - x16_18 <= 0
tri4_12_16_18: t12_16_18 - x12_16 - x12_18 - x16_18 >= -2
tri1_12_16_19: t12_16_19 - x12_16 <= 0
tri2_12_16_19: t12_16_19 - x12_19 <= 0
tri3_12_16_19: t12_16_19 - x16_19 <= 0
tri4_12_16_19: t12_16_19 - x12_16 - x12_19 - x16_19 >= -2
tri1_12_16_20: t12_16_20 - x12_16 <= 0
tri2_12_16_20: t12_16_20 - x12_20 <= 0
tri3_12_16_20: t12_16_20 - x16_20 <= 0
tri4_12_16_20: t12_16_20 - x12_16 - x12_20 - x16_20 >= -2
tri1_12_16_21: t12_16_21 - x12_16 <= 0
tri2_12_16_21: t12_16_21 - x12_21 <= 0
tri3_12_16_21: t12_16_21 - x16_21 <= 0
tri4_12_16_21: t12_16_21 - x12_16 - x12_21 - x16_21 >= -2
tri1_12_16_22: t12_16_22 - x12_16 <= 0
tri2_12_16_22: t12_16_22 - x12_22 <= 0
tri3_12_16_22: t12_16_22 - x16_22 <= 0
tri4_12_16_22: t12_16_22 - x12_16 - x12_22 - x16_22 >= -2
tri1_12_16_23: t12_16_23 - x12_16 <= 0
tri2_12_16_23: t12_16_23 - x12_23 <= 0
tri3_12_16_23: t12_16_23 - x16_23 <= 0
tri4_12_16_23: t12_16_23 - x12_16 - x12_23 - x16_23 >= -2
tri1_12_17_18: t12_17_18 - x12_17 <= 0
tri2_12_17_18: t12_17_18 - x12_18 <= 0
tri3_12_17_18: t12_17_18 - x17_18 <= 0
tri4_12_17_18: t12_17_18 - x12_17 - x12_18 - x17_18 >= -2
tri1_12_17_19: t12_17_19 - x12_17 <= 0
tri2_12_17_19: t12_17_19 - x12_19 <= 0
tri3_12_17_19: t12_17_19 - x17_19 <= 0
tri4_12_17_19: t12_17_19 - x12_17 - x12_19 - x17_19 >= -2
tri1_12_17_20: t12_17_20 - x12_17 <= 0
tri2_12_17_20: t12_17_20 - x12_20 <= 0
tri3_12_17_20: t12_17_20 - x17_20 <= 0
tri4_12_17_20: t12_17_20 - x12_17 - x12_20 - x17_20 >= -2
tri1_12_17_21: t12_17_21 - x12_17 <= 0
tri2_12_17_21: t12_17_21 - x12_21 <= 0
tri3_12_17_21: t12_17_21 - x17_21 <= 0
tri4_12_17_21: t12_17_21 - x12_17 - x12_21 - x17_21 >= -2
tri1_12_17_22: t12_17_22 - x12_17 <= 0
tri2_12_17_22: t12_17_22 - x12_22 <= 0
tri3_12_17_22: t12_17_22 - x17_22 <= 0
tri4_12_17_22: t12_17_22 - x12_17 - x12_22 - x17_22 >= -2
tri1_12_17_23: t12_17_23 - x12_17 <= 0
tri2_12_17_23: t12_17_23 - x12_23 <= 0
tri3_12_17_23: t12_17_23 - x17_23 <= 0
tri4_12_17_23: t12_17_23 - x12_17 - x12_23 - x17_23 >= -2
tri1_12_18_19: t12_18_19 - x12_18 <= 0
tri2_12_18_19: t12_18_19 - x12_19 <= 0
tri3_12_18_19: t12_18_19 - x18_19 <= 0
tri4_12_18_19: t12_18_19 - x12_18 - x12_19 - x18_19 >= -2
tri1_12_18_20: t12_18_20 - x12_18 <= 0
tri2_12_18_20: t12_18_20 - x12_20 <= 0
tri3_12_18_20: t12_18_20 - x18_20 <= 0
tri4_12_18_20: t12_18_20 - x12_18 - x12_20 - x18_20 >= -2
tri1_12_18_21: t12_18_21 - x12_18 <= 0
tri2_12_18_21: t12_18_21 - x12_21 <= 0
tri3_12_18_21: t12_18_21 - x18_21 <= 0
tri4_12_18_21: t12_18_21 - x12_18 - x12_21 - x18_21 >= -2
tri1_12_18_22: t12_18_22 - x12_18 <= 0
tri2_12_18_22: t12_18_22 - x12_22 <= 0
tri3_12_18_22: t12_18_22 - x18_22 <= 0
tri4_12_18_22: t12_18_22 - x12_18 - x12_22 - x18_22 >= -2
tri1_12_18_23: t12_18_23 - x12_18 <= 0
tri2_12_18_23: t12_18_23 - x12_23 <= 0
tri3_12_18_23: t12_18_23 - x18_23 <= 0
tri4_12_18_23: t12_18_23 - x12_18 - x12_23 - x18_23 >= -2
tri1_12_19_20: t12_19_20 - x12_19 <= 0
tri2_12_19_20: t12_19_20 - x12_20 <= 0
tri3_12_19_20: t12_19_20 - x19_20 <= 0
tri4_12_19_20: t12_19_20 - x12_19 - x12_20 - x19_20 >= -2
tri1_12_19_21: t12_19_21 - x12_19 <= 0
tri2_12_19_21: t12_19_21 - x12_21 <= 0
tri3_12_19_21: t12_19_21 - x19_21 <= 0
tri4_12_19_21: t12_19_21 - x12_19 - x12_21 - x19_21 >= -2
tri1_12_19_22: t12_19_22 - x12_19 <= 0
tri2_12_19_22: t12_19_22 - x12_22 <= 0
tri3_12_19_22: t12_19_22 - x19_22 <= 0
tri4_12_19_22: t12_19_22 - x12_19 - x12_22 - x19_22 >= -2
tri1_12_19_23: t12_19_23 - x12_19 <= 0
tri2_12_19_23: t12_19_23 - x12_23 <= 0
tri3_12_19_23: t12_19_23 - x19_23 <= 0
tri4_12_19_23: t12_19_23 - x12_19 - x12_23 - x19_23 >= -2
tri1_12_20_21: t12_20_21 - x12_20 <= 0
tri2_12_20_21: t12_20_21 - x12_21 <= 0
tri3_12_20_21: t12_20_21 - x20_21 <= 0
tri4_12_20_21: t12_20_21 - x12_20 - x12_21 - x20_21 >= -2
tri1_12_20_22: t12_20_22 - x12_20 <= 0
tri2_12_20_22: t12_20_22 - x12_22 <= 0
tri3_12_20_22: t12_20_22 - x20_22 <= 0
tri4_12_20_22: t12_20_22 - x12_20 - x12_22 - x20_22 >= -2
tri1_12_20_23: t12_20_23 - x12_20 <= 0
tri2_12_20_23: t12_20_23 - x12_23 <= 0
tri3_12_20_23: t12_20_23 - x20_23 <= 0
tri4_12_20_23: t12_20_23 - x12_20 - x12_23 - x20_23 >= -2
tri1_12_21_22: t12_21_22 - x12_21 <= 0
tri2_12_21_22: t12_21_22 - x12_22 <= 0
tri3_12_21_22: t12_21_22 - x21_22 <= 0
tri4_12_21_22: t12_21_22 - x12_21 - x12_22 - x21_22 >= -2
tri1_12_21_23: t12_21_23 - x12_21 <= 0
tri2_12_21_23: t12_21_23 - x12_23 <= 0
tri3_12_21_23: t12_21_23 - x21_23 <= 0
tri4_12_21_23: t12_21_23 - x12_21 - x12_23 - x21_23 >= -2
tri1_12_22_23: t12_22_23 - x12_22 <= 0
tri2_12_22_23: t12_22_23 - x12_23 <= 0
tri3_12_22_23: t12_22_23 - x22_23 <= 0
tri4_12_22_23: t12_22_23 - x12_22 - x12_23 - x22_23 >= -2
tri1_13_14_15: t13_14_15 - x13_14 <= 0
tri2_13_14_15: t13_14_15 - x13_15 <= 0
tri3_13_14_15: t13_14_15 - x14_15 <= 0
tri4_13_14_15: t13_14_15 - x13_14 - x13_15 - x14_15 >= -2
tri1_13_14_16: t13_14_16 - x13_14 <= 0
tri2_13_14_16: t13_14_16 - x13_16 <= 0
tri3_13_14_16: t13_14_16 - x14_16 <= 0
tri4_13_14_16: t13_14_16 - x13_14 - x13_16 - x14_16 >= -2
tri1_13_14_17: t13_14_17 - x13_14 <= 0
tri2_13_14_17: t13_14_17 - x13_17 <= 0
tri3_13_14_17: t13_14_17 - x14_17 <= 0
tri4_13_14_17: t13_14_17 - x13_14 - x13_17 - x14_17 >= -2
tri1_13_14_18: t13_14_18 - x13_14 <= 0
tri2_13_14_18: t13_14_18 - x13_18 <= 0
tri3_13_14_18: t13_14_18 - x14_18 <= 0
tri4_13_14_18: t13_14_18 - x13_14 - x13_18 - x14_18 >= -2
tri1_13_14_19: t13_14_19 - x13_14 <= 0
tri2_13_14_19: t13_14_19 - x13_19 <= 0
tri3_13_14_19: t13_14_19 - x14_19 <= 0
tri4_13_14_19: t13_14_19 - x13_14 - x13_19 - x14_19 >= -2
tri1_13_14_20: t13_14_20 - x13_14 <= 0
tri2_13_14_20: t13_14_20 - x13_20 <= 0
tri3_13_14_20: t13_14_20 - x14_20 <= 0
tri4_13_14_20: t13_14_20 - x13_14 - x13_20 - x14_20 >= -2
tri1_13_14_21: t13_14_21 - x13_14 <= 0
tri2_13_14_21: t13_14_21 - x13_21 <= 0
tri3_13_14_21: t13_14_21 - x14_21 <= 0
tri4_13_14_21: t13_14_21 - x13_14 - x13_21 - x14_21 >= -2
tri1_13_14_22: t13_14_22 - x13_14 <= 0
tri2_13_14_22: t13_14_22 - x13_22 <= 0
tri3_13_14_22: t13_14_22 - x14_22 <= 0
tri4_13_14_22: t13_14_22 - x13_14 - x13_22 - x14_22 >= -2
tri1_13_14_23: t13_14_23 - x13_14 <= 0
tri2_13_14_23: t13_14_23 - x13_23 <= 0
tri3_13_14_23: t13_14_23 - x14_23 <= 0
tri4_13_14_23: t13_14_23 - x13_14 - x13_23 - x14_23 >= -2
tri1_13_15_16: t13_15_16 - x13_15 <= 0
tri2_13_15_16: t13_15_16 - x13_16 <= 0
tri3_13_15_16: t13_15_16 - x15_16 <= 0
tri4_13_15_16: t13_15_16 - x13_15 - x13_16 - x15_16 >= -2
tri1_13_15_17: t13_15_17 - x13_15 <= 0
tri2_13_15_17: t13_15_17 - x13_17 <= 0
tri3_13_15_17: t13_15_17 - x15_17 <= 0
tri4_13_15_17: t13_15_17 - x13_15 - x13_17 - x15_17 >= -2
tri1_13_15_18: t13_15_18 - x13_15 <= 0
tri2_13_15_18: t13_15_18 - x13_18 <= 0
tri3_13_15_18: t13_15_18 - x15_18 <= 0
tri4_13_15_18: t13_15_18 - x13_15 - x13_18 - x15_18 >= -2
tri1_13_15_19: t13_15_19 - x13_15 <= 0
tri2_13_15_19: t13_15_19 - x13_19 <= 0
tri3_13_15_19: t13_15_19 - x15_19 <= 0
tri4_13_15_19: t13_15_19 - x13_15 - x13_19 - x15_19 >= -2
tri1_13_15_20: t13_15_20 - x13_15 <= 0
tri2_13_15_20: t13_15_20 - x13_20 <= 0
tri3_13_15_20: t13_15_20 - x15_20 <= 0
tri4_13_15_20: t13_15_20 - x13_15 - x13_20 - x15_20 >= -2
tri1_13_15_21: t13_15_21 - x13_15 <= 0
tri2_13_15_21: t13_15_21 - x13_21 <= 0
tri3_13_15_21: t13_15_21 - x15_21 <= 0
tri4_13_15_21: t13_15_21 - x13_15 - x13_21 - x15_21 >= -2
tri1_13_15_22: t13_15_22 - x13_15 <= 0
tri2_13_15_22: t13_15_22 - x13_22 <= 0
tri3_13_15_22: t13_15_22 - x15_22 <= 0
tri4_13_15_22: t13_15_22 - x13_15 - x13_22 - x15_22 >= -2
tri1_13_15_23: t13_15_23 - x13_15 <= 0
tri2_13_15_23: t13_15_23 - x13_23 <= 0
tri3_13_15_23: t13_15_23 - x15_23 <= 0
tri4_13_15_23: t13_15_23 - x13_15 - x13_23 - x15_23 >= -2
tri1_13_16_17: t13_16_17 - x13_16 <= 0
tri2_13_16_17: t13_16_17 - x13_17 <= 0
tri3_13_16_17: t13_16_17 - x16_17 <= 0
tri4_13_16_17: t13_16_17 - x13_16 - x13_17 - x16_17 >= -2
tri1_13_16_18: t13_16_18 - x13_16 <= 0
tri2_13_16_18: t13_16_18 - x13_18 <= 0
tri3_13_16_18: t13_16_18 - x16_18 <= 0
tri4_13_16_18: t13_16_18 - x13_16 - x13_18 - x16_18 >= -2
tri1_13_16_19: t13_16_19 - x13_16 <= 0
tri2_13_16_19: t13_16_19 - x13_19 <= 0
tri3_13_16_19: t13_16_19 - x16_19 <= 0
tri4_13_16_19: t13_16_19 - x13_16 - x13_19 - x16_19 >= -2
tri1_13_16_20: t13_16_20 - x13_16 <= 0
tri2_13_16_20: t13_16_20 - x13_20 <= 0
tri3_13_16_20: t13_16_20 - x16_20 <= 0
tri4_13_16_20: t13_16_20 - x13_16 - x13_20 - x16_20 >= -2
tri1_13_16_21: t13_16_21 - x13_16 <= 0
tri2_13_16_21: t13_16_21 - x13_21 <= 0
tri3_13_16_21: t13_16_21 - x16_21 <= 0
tri4_13_16_21: t13_16_21 - x13_16 - x13_21 - x16_21 >= -2
tri1_13_16_22: t13_16_22 - x13_16 <= 0
tri2_13_16_22: t13_16_22 - x13_22 <= 0
tri3_13_16_22: t13_16_22 - x16_22 <= 0
tri4_13_16_22: t13_16_22 - x13_16 - x13_22 - x16_22 >= -2
tri1_13_16_23: t13_16_23 - x13_16 <= 0
tri2_13_16_23: t13_16_23 - x13_23 <= 0
tri3_13_16_23: t13_16_23 - x16_23 <= 0
tri4_13_16_23: t13_16_23 - x13_16 - x13_23 - x16_23 >= -2
tri1_13_17_18: t13_17_18 - x13_17 <= 0
tri2_13_17_18: t13_17_18 - x13_18 <= 0
tri3_13_17_18: t13_17_18 - x17_18 <= 0
tri4_13_17_18: t13_17_18 - x13_17 - x13_18 - x17_18 >= -2
tri1_13_17_19: t13_17_19 - x13_17 <= 0
tri2_13_17_19: t13_17_19 - x13_19 <= 0
tri3_13_17_19: t13_17_19 - x17_19 <= 0
tri4_13_17_19: t13_17_19 - x13_17 - x13_19 - x17_19 >= -2
tri1_13_17_20: t13_17_20 - x13_17 <= 0
tri2_13_17_20: t13_17_20 - x13_20 <= 0
tri3_13_17_20: t13_17_20 - x17_20 <= 0
tri4_13_17_20: t13_17_20 - x13_17 - x13_20 - x17_20 >= -2
tri1_13_17_21: t13_17_21 - x13_17 <= 0
tri2_13_17_21: t13_17_21 - x13_21 <= 0
tri3_13_17_21: t13_17_21 - x17_21 <= 0
tri4_13_17_21: t13_17_21 - x13_17 - x13_21 - x17_21 >= -2
tri1_13_17_22: t13_17_22 - x13_17 <= 0
tri2_13_17_22: t13_17_22 - x13_22 <= 0
tri3_13_17_22: t13_17_22 - x17_22 <= 0
tri4_13_17_22: t13_17_22 - x13_17 - x13_22 - x17_22 >= -2
tri1_13_17_23: t13_17_23 - x13_17 <= 0
tri2_13_17_23: t13_17_23 - x13_23 <= 0
tri3_13_17_23: t13_17_23 - x17_23 <= 0
tri4_13_17_23: t13_17_23 - x13_17 - x13_23 - x17_23 >= -2
tri1_13_18_19: t13_18_19 - x13_18 <= 0
tri2_13_18_19: t13_18_19 - x13_19 <= 0
tri3_13_18_19: t13_18_19 - x18_19 <= 0
tri4_13_18_19: t13_18_19 - x13_18 - x13_19 - x18_19 >= -2
tri1_13_18_20: t13_18_20 - x13_18 <= 0
tri2_13_18_20: t13_18_20 - x13_20 <= 0
tri3_13_18_20: t13_18_20 - x18_20 <= 0
tri4_13_18_20: t13_18_20 - x13_18 - x13_20 - x18_20 >= -2
tri1_13_18_21: t13_18_21 - x13_18 <= 0
tri2_13_18_21: t13_18_21 - x13_21 <= 0
tri3_13_18_21: t13_18_21 - x18_21 <= 0
tri4_13_18_21: t13_18_21 - x13_18 - x13_21 - x18_21 >= -2
tri1_13_18_22: t13_18_22 - x13_18 <= 0
tri2_13_18_22: t13_18_22 - x13_22 <= 0
tri3_13_18_22: t13_18_22 - x18_22 <= 0
tri4_13_18_22: t13_18_22 - x13_18 - x13_22 - x18_22 >= -2
tri1_13_18_23: t13_18_23 - x13_18 <= 0
tri2_13_18_23: t13_18_23 - x13_23 <= 0
tri3_13_18_23: t13_18_23 - x18_23 <= 0
tri4_13_18_23: t13_18_23 - x13_18 - x13_23 - x18_23 >= -2
tri1_13_19_20: t13_19_20 - x13_19 <= 0
tri2_13_19_20: t13_19_20 - x13_20 <= 0
tri3_13_19_20: t13_19_20 - x19_20 <= 0
tri4_13_19_20: t13_19_20 - x13_19 - x13_20 - x19_20 >= -2
tri1_13_19_21: t13_19_21 - x13_19 <= 0
tri2_13_19_21: t13_19_21 - x13_21 <= 0
tri3_13_19_21: t13_19_21 - x19_21 <= 0
tri4_13_19_21: t13_19_21 - x13_19 - x13_21 - x19_21 >= -2
tri1_13_19_22: t13_19_22 - x13_19 <= 0
tri2_13_19_22: t13_19_22 - x13_22 <= 0
tri3_13_19_22: t13_19_22 - x19_22 <= 0
tri4_13_19_22: t13_19_22 - x13_19 - x13_22 - x19_22 >= -2
tri1_13_19_23: t13_19_23 - x13_19 <= 0
tri2_13_19_23: t13_19_23 - x13_23 <= 0
tri3_13_19_23: t13_19_23 - x19_23 <= 0
tri4_13_19_23: t13_19_23 - x13_19 - x13_23 - x19_23 >= -2
tri1_13_20_21: t13_20_21 - x13_20 <= 0
tri2_13_20_21: t13_20_21 - x13_21 <= 0
tri3_13_20_21: t13_20_21 - x20_21 <= 0
tri4_13_20_21: t13_20_21 - x13_20 - x13_21 - x20_21 >= -2
tri1_13_20_22: t13_20_22 - x13_20 <= 0
tri2_13_20_22: t13_20_22 - x13_22 <= 0
tri3_13_20_22: t13_20_22 - x20_22 <= 0
tri4_13_20_22: t13_20_22 - x13_20 - x13_22 - x20_22 >= -2
tri1_13_20_23: t13_20_23 - x13_20 <= 0
tri2_13_20_23: t13_20_23 - x13_23 <= 0
tri3_13_20_23: t13_20_23 - x20_23 <= 0
tri4_13_20_23: t13_20_23 - x13_20 - x13_23 - x20_23 >= -2
tri1_13_21_22: t13_21_22 - x13_21 <= 0
tri2_13_21_22: t13_21_22 - x13_22 <= 0
tri3_13_21_22: t13_21_22 - x21_22 <= 0
tri4_13_21_22: t13_21_22 - x13_21 - x13_22 - x21_22 >= -2
tri1_13_21_23: t13_21_23 - x13_21 <= 0
tri2_13_21_23: t13_21_23 - x13_23 <= 0
tri3_13_21_23: t13_21_23 - x21_23 <= 0
tri4_13_21_23: t13_21_23 - x13_21 - x13_23 - x21_23 >= -2
tri1_13_22_23: t13_22_23 - x13_22 <= 0
tri2_13_22_23: t13_22_23 - x13_23 <= 0
tri3_13_22_23: t13_22_23 - x22_23 <= 0
tri4_13_22_23: t13_22_23 - x13_22 - x13_23 - x22_23 >= -2
tri1_14_15_16: t14_15_16 - x14_15 <= 0
tri2_14_15_16: t14_15_16 - x14_16 <= 0
tri3_14_15_16: t14_15_16 - x15_16 <= 0
tri4_14_15_16: t14_15_16 - x14_15 - x14_16 - x15_16 >= -2
tri1_14_15_17: t14_15_17 - x14_15 <= 0
tri2_14_15_17: t14_15_17 - x14_17 <= 0
tri3_14_15_17: t14_15_17 - x15_17 <= 0
tri4_14_15_17: t14_15_17 - x14_15 - x14_17 - x15_17 >= -2
tri1_14_15_18: t14_15_18 - x14_15 <= 0
tri2_14_15_18: t14_15_18 - x14_18 <= 0
tri3_14_15_18: t14_15_18 - x15_18 <= 0
tri4_14_15_18: t14_15_18 - x14_15 - x14_18 - x15_18 >= -2
tri1_14_15_19: t14_15_19 - x14_15 <= 0
tri2_14_15_19: t14_15_19 - x14_19 <= 0
tri3_14_15_19: t14_15_19 - x15_19 <= 0
tri4_14_15_19: t14_15_19 - x14_15 - x14_19 - x15_19 >= -2
tri1_14_15_20: t14_15_20 - x14_15 <= 0
tri2_14_15_20: t14_15_20 - x14_20 <= 0
tri3_14_15_20: t14_15_20 - x15_20 <= 0
tri4_14_15_20: t14_15_20 - x14_15 - x14_20 - x15_20 >= -2
tri1_14_15_21: t14_15_21 - x14_15 <= 0
tri2_14_15_21: t14_15_21 - x14_21 <= 0
tri3_14_15_21: t14_15_21 - x15_21 <= 0
tri4_14_15_21: t14_15_21 - x14_15 - x14_21 - x15_21 >= -2
tri1_14_15_22: t14_15_22 - x14_15 <= 0
tri2_14_15_22: t14_15_22 - x14_22 <= 0
tri3_14_15_22: t14_15_22 - x15_22 <= 0
tri4_14_15_22: t14_15_22 - x14_15 - x14_22 - x15_22 >= -2
tri1_14_15_23: t14_15_23 - x14_15 <= 0
tri2_14_15_23: t14_15_23 - x14_23 <= 0
tri3_14_15_23: t14_15_23 - x15_23 <= 0
tri4_14_15_23: t14_15_23 - x14_15 - x14_23 - x15_23 >= -2
tri1_14_16_17: t14_16_17 - x14_16 <= 0
tri2_14_16_17: t14_16_17 - x14_17 <= 0
tri3_14_16_17: t14_16_17 - x16_17 <= 0
tri4_14_16_17: t14_16_17 - x14_16 - x14_17 - x16_17 >= -2
tri1_14_16_18: t14_16_18 - x14_16 <= 0
tri2_14_16_18: t14_16_18 - x14_18 <= 0
tri3_14_16_18: t14_16_18 - x16_18 <= 0
tri4_14_16_18: t14_16_18 - x14_16 - x14_18 - x16_18 >= -2
tri1_14_16_19: t14_16_19 - x14_16 <= 0
tri2_14_16_19: t14_16_19 - x14_19 <= 0
tri3_14_16_19: t14_16_19 - x16_19 <= 0
tri4_14_16_19: t14_16_19 - x14_16 - x14_19 - x16_19 >= -2
tri1_14_16_20: t14_16_20 - x14_16 <= 0
tri2_14_16_20: t14_16_20 - x14_20 <= 0
tri3_14_16_20: t14_16_20 - x16_20 <= 0
tri4_14_16_20: t14_16_20 - x14_16 - x14_20 - x16_20 >= -2
tri1_14_16_21: t14_16_21 - x14_16 <= 0
tri2_14_16_21: t14_16_21 - x14_21 <= 0
tri3_14_16_21: t14_16_21 - x16_21 <= 0
tri4_14_16_21: t14_16_21 - x14_16 - x14_21 - x16_21 >= -2
tri1_14_16_22: t14_16_22 - x14_16 <= 0
tri2_14_16_22: t14_16_22 - x14_22 <= 0
tri3_14_16_22: t14_16_22 - x16_22 <= 0
tri4_14_16_22: t14_16_22 - x14_16 - x14_22 - x16_22 >= -2
tri1_14_16_23: t14_16_23 - x14_16 <= 0
tri2_14_16_23: t14_16_23 - x14_23 <= 0
tri3_14_16_23: t14_16_23 - x16_23 <= 0
tri4_14_16_23: t14_16_23 - x14_16 - x14_23 - x16_23 >= -2
tri1_14_17_18: t14_17_18 - x14_17 <= 0
tri2_14_17_18: t14_17_18 - x14_18 <= 0
tri3_14_17_18: t14_17_18 - x17_18 <= 0
tri4_14_17_18: t14_17_18 - x14_17 - x14_18 - x17_18 >= -2
tri1_14_17_19: t14_17_19 - x14_17 <= 0
tri2_14_17_19: t14_17_19 - x14_19 <= 0
tri3_14_17_19: t14_17_19 - x17_19 <= 0
tri4_14_17_19: t14_17_19 - x14_17 - x14_19 - x17_19 >= -2
tri1_14_17_20: t14_17_20 - x14_17 <= 0
tri2_14_17_20: t14_17_20 - x14_20 <= 0
tri3_14_17_20: t14_17_20 - x17_20 <= 0
tri4_14_17_20: t14_17_20 - x14_17 - x14_20 - x17_20 >= -2
tri1_14_17_21: t14_17_21 - x14_17 <= 0
tri2_14_17_21: t14_17_21 - x14_21 <= 0
tri3_14_17_21: t14_17_21 - x17_21 <= 0
tri4_14_17_21: t14_17_21 - x14_17 - x14_21 - x17_21 >= -2
tri1_14_17_22: t14_17_22 - x14_17 <= 0
tri2_14_17_22: t14_17_22 - x14_22 <= 0
tri3_14_17_22: t14_17_22 - x17_22 <= 0
tri4_14_17_22: t14_17_22 - x14_17 - x14_22 - x17_22 >= -2
tri1_14_17_23: t14_17_23 - x14_17 <= 0
tri2_14_17_23: t14_17_23 - x14_23 <= 0
tri3_14_17_23: t14_17_23 - x17_23 <= 0
tri4_14_17_23: t14_17_23 - x14_17 - x14_23 - x17_23 >= -2
tri1_14_18_19: t14_18_19 - x14_18 <= 0
tri2_14_18_19: t14_18_19 - x14_19 <= 0
tri3_14_18_19: t14_18_19 - x18_19 <= 0
tri4_14_18_19: t14_18_19 - x14_18 - x14_19 - x18_19 >= -2
tri1_14_18_20: t14_18_20 - x14_18 <= 0
tri2_14_18_20: t14_18_20 - x14_20 <= 0
tri3_14_18_20: t14_18_20 - x18_20 <= 0
tri4_14_18_20: t14_18_20 - x14_18 - x14_20 - x18_20 >= -2
tri1_14_18_21: t14_18_21 - x14_18 <= 0
tri2_14_18_21: t14_18_21 - x14_21 <= 0
tri3_14_18_21: t14_18_21 - x18_21 <= 0
tri4_14_18_21: t14_18_21 - x14_18 - x14_21 - x18_21 >= -2
tri1_14_18_22: t14_18_22 - x14_18 <= 0
tri2_14_18_22: t14_18_22 - x14_22 <= 0
tri3_14_18_22: t14_18_22 - x18_22 <= 0
tri4_14_18_22: t14_18_22 - x14_18 - x14_22 - x18_22 >= -2
tri1_14_18_23: t14_18_23 - x14_18 <= 0
tri2_14_18_23: t14_18_23 - x14_23 <= 0
tri3_14_18_23: t14_18_23 - x18_23 <= 0
tri4_14_18_23: t14_18_23 - x14_18 - x14_23 - x18_23 >= -2
tri1_14_19_20: t14_19_20 - x14_19 <= 0
tri2_14_19_20: t14_19_20 - x14_20 <= 0
tri3_14_19_20: t14_19_20 - x19_20 <= 0
tri4_14_19_20: t14_19_20 - x14_19 - x14_20 - x19_20 >= -2
tri1_14_19_21: t14_19_21 - x14_19 <= 0
tri2_14_19_21: t14_19_21 - x14_21 <= 0
tri3_14_19_21: t14_19_21 - x19_21 <= 0
tri4_14_19_21: t14_19_21 - x14_19 - x14_21 - x19_21 >= -2
tri1_14_19_22: t14_19_22 - x14_19 <= 0
tri2_14_19_22: t14_19_22 - x14_22 <= 0
tri3_14_19_22: t14_19_22 - x19_22 <= 0
tri4_14_19_22: t14_19_22 - x14_19 - x14_22 - x19_22 >= -2
tri1_14_19_23: t14_19_23 - x14_19 <= 0
tri2_14_19_23: t14_19_23 - x14_23 <= 0
tri3_14_19_23: t14_19_23 - x19_23 <= 0
tri4_14_19_23: t14_19_23 - x14_19 - x14_23 - x19_23 >= -2
tri1_14_20_21: t14_20_21 - x14_20 <= 0
tri2_14_20_21: t14_20_21 - x14_21 <= 0
tri3_14_20_21: t14_20_21 - x20_21 <= 0
tri4_14_20_21: t14_20_21 - x14_20 - x14_21 - x20_21 >= -2
tri1_14_20_22: t14_20_22 - x14_20 <= 0
tri2_14_20_22: t14_20_22 - x14_22 <= 0
tri3_14_20_22: t14_20_22 - x20_22 <= 0
tri4_14_20_22: t14_20_22 - x14_20 - x14_22 - x20_22 >= -2
tri1_14_20_23: t14_20_23 - x14_20 <= 0
tri2_14_20_23: t14_20_23 - x14_23 <= 0
tri3_14_20_23: t14_20_23 - x20_23 <= 0
tri4_14_20_23: t14_20_23 - x14_20 - x14_23 - x20_23 >= -2
tri1_14_21_22: t14_21_22 - x14_21 <= 0
tri2_14_21_22: t14_21_22 - x14_22 <= 0
tri3_14_21_22: t14_21_22 - x21_22 <= 0
tri4_14_21_22: t14_21_22 - x14_21 - x14_22 - x21_22 >= -2
tri1_14_21_23: t14_21_23 - x14_21 <= 0
tri2_14_21_23: t14_21_23 - x14_23 <= 0
tri3_14_21_23: t14_21_23 - x21_23 <= 0
tri4_14_21_23: t14_21_23 - x14_21 - x14_23 - x21_23 >= -2
tri1_14_22_23: t14_22_23 - x14_22 <= 0
tri2_14_22_23: t14_22_23 - x14_23 <= 0
tri3_14_22_23: t14_22_23 - x22_23 <= 0
tri4_14_22_23: t14_22_23 - x14_22 - x14_23 - x22_23 >= -2
tri1_15_16_17: t15_16_17 - x15_16 <= 0
tri2_15_16_17: t15_16_17 - x15_17 <= 0
tri3_15_16_17: t15_16_17 - x16_17 <= 0
tri4_15_16_17: t15_16_17 - x15_16 - x15_17 - x16_17 >= -2
tri1_15_16_18: t15_16_18 - x15_16 <= 0
tri2_15_16_18: t15_16_18 - x15_18 <= 0
tri3_15_16_18: t15_16_18 - x16_18 <= 0
tri4_15_16_18: t15_16_18 - x15_16 - x15_18 - x16_18 >= -2
tri1_15_16_19: t15_16_19 - x15_16 <= 0
tri2_15_16_19: t15_16_19 - x15_19 <= 0
tri3_15_16_19: t15_16_19 - x16_19 <= 0
tri4_15_16_19: t15_16_19 - x15_16 - x15_19 - x16_19 >= -2
tri1_15_16_20: t15_16_20 - x15_16 <= 0
tri2_15_16_20: t15_16_20 - x15_20 <= 0
tri3_15_16_20: t15_16_20 - x16_20 <= 0
tri4_15_16_20: t15_16_20 - x15_16 - x15_20 - x16_20 >= -2
tri1_15_16_21: t15_16_21 - x15_16 <= 0
tri2_15_16_21: t15_16_21 - x15_21 <= 0
tri3_15_16_21: t15_16_21 - x16_21 <= 0
tri4_15_16_21: t15_16_21 - x15_16 - x15_21 - x16_21 >= -2
tri1_15_16_22: t15_16_22 - x15_16 <= 0
tri2_15_16_22: t15_16_22 - x15_22 <= 0
tri3_15_16_22: t15_16_22 - x16_22 <= 0
tri4_15_16_22: t15_16_22 - x15_16 - x15_22 - x16_22 >= -2
tri1_15_16_23: t15_16_23 - x15_16 <= 0
tri2_15_16_23: t15_16_23 - x15_23 <= 0
tri3_15_16_23: t15_16_23 - x16_23 <= 0
tri4_15_16_23: t15_16_23 - x15_16 - x15_23 - x16_23 >= -2
tri1_15_17_18: t15_17_18 - x15_17 <= 0
tri2_15_17_18: t15_17_18 - x15_18 <= 0
tri3_15_17_18: t15_17_18 - x17_18 <= 0
tri4_15_17_18: t15_17_18 - x15_17 - x15_18 - x17_18 >= -2
tri1_15_17_19: t15_17_19 - x15_17 <= 0
tri2_15_17_19: t15_17_19 - x15_19 <= 0
tri3_15_17_19: t15_17_19 - x17_19 <= 0
tri4_15_17_19: t15_17_19 - x15_17 - x15_19 - x17_19 >= -2
tri1_15_17_20: t15_17_20 - x15_17 <= 0
tri2_15_17_20: t15_17_20 - x15_20 <= 0
tri3_15_17_20: t15_17_20 - x17_20 <= 0
tri4_15_17_20: t15_17_20 - x15_17 - x15_20 - x17_20 >= -2
tri1_15_17_21: t15_17_21 - x15_17 <= 0
tri2_15_17_21: t15_17_21 - x15_21 <= 0
tri3_15_17_21: t15_17_21 - x17_21 <= 0
tri4_15_17_21: t15_17_21 - x15_17 - x15_21 - x17_21 >= -2
tri1_15_17_22: t15_17_22 - x15_17 <= 0
tri2_15_17_22: t15_17_22 - x15_22 <= 0
tri3_15_17_22: t15_17_22 - x17_22 <= 0
tri4_15_17_22: t15_17_22 - x15_17 - x15_22 - x17_22 >= -2
tri1_15_17_23: t15_17_23 - x15_17 <= 0
tri2_15_17_23: t15_17_23 - x15_23 <= 0
tri3_15_17_23: t15_17_23 - x17_23 <= 0
tri4_15_17_23: t15_17_23 - x15_17 - x15_23 - x17_23 >= -2
tri1_15_18_19: t15_18_19 - x15_18 <= 0
tri2_15_18_19: t15_18_19 - x15_19 <= 0
tri3_15_18_19: t15_18_19 - x18_19 <= 0
tri4_15_18_19: t15_18_19 - x15_18 - x15_19 - x18_19 >= -2
tri1_15_18_20: t15_18_20 - x15_18 <= 0
tri2_15_18_20: t15_18_20 - x15_20 <= 0
tri3_15_18_20: t15_18_20 - x18_20 <= 0
tri4_15_18_20: t15_18_20 - x15_18 - x15_20 - x18_20 >= -2
tri1_15_18_21: t15_18_21 - x15_18 <= 0
tri2_15_18_21: t15_18_21 - x15_21 <= 0
tri3_15_18_21: t15_18_21 - x18_21 <= 0
tri4_15_18_21: t15_18_21 - x15_18 - x15_21 - x18_21 >= -2
tri1_15_18_22: t15_18_22 - x15_18 <= 0
tri2_15_18_22: t15_18_22 - x15_22 <= 0
tri3_15_18_22: t15_18_22 - x18_22 <= 0
tri4_15_18_22: t15_18_22 - x15_18 - x15_22 - x18_22 >= -2
tri1_15_18_23: t15_18_23 - x15_18 <= 0
tri2_15_18_23: t15_18_23 - x15_23 <= 0
tri3_15_18_23: t15_18_23 - x18_23 <= 0
tri4_15_18_23: t15_18_23 - x15_18 - x15_23 - x18_23 >= -2
tri1_15_19_20: t15_19_20 - x15_19 <= 0
tri2_15_19_20: t15_19_20 - x15_20 <= 0
tri3_15_19_20: t15_19_20 - x19_20 <= 0
tri4_15_19_20: t15_19_20 - x15_19 - x15_20 - x19_20 >= -2
tri1_15_19_21: t15_19_21 - x15_19 <= 0
tri2_15_19_21: t15_19_21 - x15_21 <= 0
tri3_15_19_21: t15_19_21 - x19_21 <= 0
tri4_15_19_21: t15_19_21 - x15_19 - x15_21 - x19_21 >= -2
tri1_15_19_22: t15_19_22 - x15_19 <= 0
tri2_15_19_22: t15_19_22 - x15_22 <= 0
tri3_15_19_22: t15_19_22 - x19_22 <= 0
tri4_15_19_22: t15_19_22 - x15_19 - x15_22 - x19_22 >= -2
tri1_15_19_23: t15_19_23 - x15_19 <= 0
tri2_15_19_23: t15_19_23 - x15_23 <= 0
tri3_15_19_23: t15_19_23 - x19_23 <= 0
tri4_15_19_23: t15_19_23 - x15_19 - x15_23 - x19_23 >= -2
tri1_15_20_21: t15_20_21 - x15_20 <= 0
tri2_15_20_21: t15_20_21 - x15_21 <= 0
tri3_15_20_21: t15_20_21 - x20_21 <= 0
tri4_15_20_21: t15_20_21 - x15_20 - x15_21 - x20_21 >= -2
tri1_15_20_22: t15_20_22 - x15_20 <= 0
tri2_15_20_22: t15_20_22 - x15_22 <= 0
tri3_15_20_22: t15_20_22 - x20_22 <= 0
tri4_15_20_22: t15_20_22 - x15_20 - x15_22 - x20_22 >= -2
tri1_15_20_23: t15_20_23 - x15_20 <= 0
tri2_15_20_23: t15_20_23 - x15_23 <= 0
tri3_15_20_23: t15_20_23 - x20_23 <= 0
tri4_15_20_23: t15_20_23 - x15_20 - x15_23 - x20_23 >= -2
tri1_15_21_22: t15_21_22 - x15_21 <= 0
tri2_15_21_22: t15_21_22 - x15_22 <= 0
tri3_15_21_22: t15_21_22 - x21_22 <= 0
tri4_15_21_22: t15_21_22 - x15_21 - x15_22 - x21_22 >= -2
tri1_15_21_23: t15_21_23 - x15_21 <= 0
tri2_15_21_23: t15_21_23 - x15_23 <= 0
tri3_15_21_23: t15_21_23 - x21_23 <= 0
tri4_15_21_23: t15_21_23 - x15_21 - x15_23 - x21_23 >= -2
tri1_15_22_23: t15_22_23 - x15_22 <= 0
tri2_15_22_23: t15_22_23 - x15_23 <= 0
tri3_15_22_23: t15_22_23 - x22_23 <= 0
tri4_15_22_23: t15_22_23 - x15_22 - x15_23 - x22_23 >= -2
tri1_16_17_18: t16_17_18 - x16_17 <= 0
tri2_16_17_18: t16_17_18 - x16_18 <= 0
tri3_16_17_18: t16_17_18 - x17_18 <= 0
tri4_16_17_18: t16_17_18 - x16_17 - x16_18 - x17_18 >= -2
tri1_16_17_19: t16_17_19 - x16_17 <= 0
tri2_16_17_19: t16_17_19 - x16_19 <= 0
tri3_16_17_19: t16_17_19 - x17_19 <= 0
tri4_16_17_19: t16_17_19 - x16_17 - x16_19 - x17_19 >= -2
tri1_16_17_20: t16_17_20 - x16_17 <= 0
tri2_16_17_20: t16_17_20 - x16_20 <= 0
tri3_16_17_20: t16_17_20 - x17_20 <= 0
tri4_16_17_20: t16_17_20 - x16_17 - x16_20 - x17_20 >= -2
tri1_16_17_21: t16_17_21 - x16_17 <= 0
tri2_16_17_21: t16_17_21 - x16_21 <= 0
tri3_16_17_21: t16_17_21 - x17_21 <= 0
tri4_16_17_21: t16_17_21 - x16_17 - x16_21 - x17_21 >= -2
tri1_16_17_22: t16_17_22 - x16_17 <= 0
tri2_16_17_22: t16_17_22 - x16_22 <= 0
tri3_16_17_22: t16_17_22 - x17_22 <= 0
tri4_16_17_22: t16_17_22 - x16_17 - x16_22 - x17_22 >= -2
tri1_16_17_23: t16_17_23 - x16_17 <= 0
tri2_16_17_23: t16_17_23 - x16_23 <= 0
tri3_16_17_23: t16_17_23 - x17_23 <= 0
tri4_16_17_23: t16_17_23 - x16_17 - x16_23 - x17_23 >= -2
tri1_16_18_19: t16_18_19 - x16_18 <= 0
tri2_16_18_19: t16_18_19 - x16_19 <= 0
tri3_16_18_19: t16_18_19 - x18_19 <= 0
tri4_16_18_19: t16_18_19 - x16_18 - x16_19 - x18_19 >= -2
tri1_16_18_20: t16_18_20 - x16_18 <= 0
tri2_16_18_20: t16_18_20 - x16_20 <= 0
tri3_16_18_20: t16_18_20 - x18_20 <= 0
tri4_16_18_20: t16_18_20 - x16_18 - x16_20 - x18_20 >= -2
tri1_16_18_21: t16_18_21 - x16_18 <= 0
tri2_16_18_21: t16_18_21 - x16_21 <= 0
tri3_16_18_21: t16_18_21 - x18_21 <= 0
tri4_16_18_21: t16_18_21 - x16_18 - x16_21 - x18_21 >= -2
tri1_16_18_22: t16_18_22 - x16_18 <= 0
tri2_16_18_22: t16_18_22 - x16_22 <= 0
tri3_16_18_22: t16_18_22 - x18_22 <= 0
tri4_16_18_22: t16_18_22 - x16_18 - x16_22 - x18_22 >= -2
tri1_16_18_23: t16_18_23 - x16_18 <= 0
tri2_16_18_23: t16_18_23 - x16_23 <= 0
tri3_16_18_23: t16_18_23 - x18_23 <= 0
tri4_16_18_23: t16_18_23 - x16_18 - x16_23 - x18_23 >= -2
tri1_16_19_20: t16_19_20 - x16_19 <= 0
tri2_16_19_20: t16_19_20 - x16_20 <= 0
tri3_16_19_20: t16_19_20 - x19_20 <= 0
tri4_16_19_20: t16_19_20 - x16_19 - x16_20 - x19_20 >= -2
tri1_16_19_21: t16_19_21 - x16_19 <= 0
tri2_16_19_21: t16_19_21 - x16_21 <= 0
tri3_16_19_21: t16_19_21 - x19_21 <= 0
tri4_16_19_21: t16_19_21 - x16_19 - x16_21 - x19_21 >= -2
tri1_16_19_22: t16_19_22 - x16_19 <= 0
tri2_16_19_22: t16_19_22 - x16_22 <= 0
tri3_16_19_22: t16_19_22 - x19_22 <= 0
tri4_16_19_22: t16_19_22 - x16_19 - x16_22 - x19_22 >= -2
tri1_16_19_23: t16_19_23 - x16_19 <= 0
tri2_16_19_23: t16_19_23 - x16_23 <= 0
tri3_16_19_23: t16_19_23 - x19_23 <= 0
tri4_16_19_23: t16_19_23 - x16_19 - x16_23 - x19_23 >= -2
tri1_16_20_21: t16_20_21 - x16_20 <= 0
tri2_16_20_21: t16_20_21 - x16_21 <= 0
tri3_16_20_21: t16_20_21 - x20_21 <= 0
tri4_16_20_21: t16_20_21 - x16_20 - x16_21 - x20_21 >= -2
tri1_16_20_22: t16_20_22 - x16_20 <= 0
tri2_16_20_22: t16_20_22 - x16_22 <= 0
tri3_16_20_22: t16_20_22 - x20_22 <= 0
tri4_16_20_22: t16_20_22 - x16_20 - x16_22 - x20_22 >= -2
tri1_16_20_23: t16_20_23 - x16_20 <= 0
tri2_16_20_23: t16_20_23 - x16_23 <= 0
tri3_16_20_23: t16_20_23 - x20_23 <= 0
tri4_16_20_23: t16_20_23 - x16_20 - x16_23 - x20_23 >= -2
tri1_16_21_22: t16_21_22 - x16_21 <= 0
tri2_16_21_22: t16_21_22 - x16_22 <= 0
tri3_16_21_22: t16_21_22 - x21_22 <= 0
tri4_16_21_22: t16_21_22 - x16_21 - x16_22 - x21_22 >= -2
tri1_16_21_23: t16_21_23 - x16_21 <= 0
tri2_16_21_23: t16_21_23 - x16_23 <= 0
tri3_16_21_23: t16_21_23 - x21_23 <= 0
tri4_16_21_23: t16_21_23 - x16_21 - x16_23 - x21_23 >= -2
tri1_16_22_23: t16_22_23 - x16_22 <= 0
tri2_16_22_23: t16_22_23 - x16_23 <= 0
tri3_16_22_23: t16_22_23 - x22_23 <= 0
tri4_16_22_23: t16_22_23 - x16_22 - x16_23 - x22_23 >= -2
tri1_17_18_19: t17_18_19 - x17_18 <= 0
tri2_17_18_19: t17_18_19 - x17_19 <= 0
tri3_17_18_19: t17_18_19 - x18_19 <= 0
tri4_17_18_19: t17_18_19 - x17_18 - x17_19 - x18_19 >= -2
tri1_17_18_20: t17_18_20 - x17_18 <= 0
tri2_17_18_20: t17_18_20 - x17_20 <= 0
tri3_17_18_20: t17_18_20 - x18_20 <= 0
tri4_17_18_20: t17_18_20 - x17_18 - x17_20 - x18_20 >= -2
tri1_17_18_21: t17_18_21 - x17_18 <= 0
tri2_17_18_21: t17_18_21 - x17_21 <= 0
tri3_17_18_21: t17_18_21 - x18_21 <= 0
tri4_17_18_21: t17_18_21 - x17_18 - x17_21 - x18_21 >= -2
tri1_17_18_22: t17_18_22 - x17_18 <= 0
tri2_17_18_22: t17_18_22 - x17_22 <= 0
tri3_17_18_22: t17_18_22 - x18_22 <= 0
tri4_17_18_22: t17_18_22 - x17_18 - x17_22 - x18_22 >= -2
tri1_17_18_23: t17_18_23 - x17_18 <= 0
tri2_17_18_23: t17_18_23 - x17_23 <= 0
tri3_17_18_23: t17_18_23 - x18_23 <= 0
tri4_17_18_23: t17_18_23 - x17_18 - x17_23 - x18_23 >= -2
tri1_17_19_20: t17_19_20 - x17_19 <= 0
tri2_17_19_20: t17_19_20 - x17_20 <= 0
tri3_17_19_20: t17_19_20 - x19_20 <= 0
tri4_17_19_20: t17_19_20 - x17_19 - x17_20 - x19_20 >= -2
tri1_17_19_21: t17_19_21 - x17_19 <= 0
tri2_17_19_21: t17_19_21 - x17_21 <= 0
tri3_17_19_21: t17_19_21 - x19_21 <= 0
tri4_17_19_21: t17_19_21 - x17_19 - x17_21 - x19_21 >= -2
tri1_17_19_22: t17_19_22 - x17_19 <= 0
tri2_17_19_22: t17_19_22 - x17_22 <= 0
tri3_17_19_22: t17_19_22 - x19_22 <= 0
tri4_17_19_22: t17_19_22 - x17_19 - x17_22 - x19_22 >= -2
tri1_17_19_23: t17_19_23 - x17_19 <= 0
tri2_17_19_23: t17_19_23 - x17_23 <= 0
tri3_17_19_23: t17_19_23 - x19_23 <= 0
tri4_17_19_23: t17_19_23 - x17_19 - x17_23 - x19_23 >= -2
tri1_17_20_21: t17_20_21 - x17_20 <= 0
tri2_17_20_21: t17_20_21 - x17_21 <= 0
tri3_17_20_21: t17_20_21 - x20_21 <= 0
tri4_17_20_21: t17_20_21 - x17_20 - x17_21 - x20_21 >= -2
tri1_17_20_22: t17_20_22 - x17_20 <= 0
tri2_17_20_22: t17_20_22 - x17_22 <= 0
tri3_17_20_22: t17_20_22 - x20_22 <= 0
tri4_17_20_22: t17_20_22 - x17_20 - x17_22 - x20_22 >= -2
tri1_17_20_23: t17_20_23 - x17_20 <= 0
tri2_17_20_23: t17_20_23 - x17_23 <= 0
tri3_17_20_23: t17_20_23 - x20_23 <= 0
tri4_17_20_23: t17_20_23 - x17_20 - x17_23 - x20_23 >= -2
tri1_17_21_22: t17_21_22 - x17_21 <= 0
tri2_17_21_22: t17_21_22 - x17_22 <= 0
tri3_17_21_22: t17_21_22 - x21_22 <= 0
tri4_17_21_22: t17_21_22 - x17_21 - x17_22 - x21_22 >= -2
tri1_17_21_23: t17_21_23 - x17_21 <= 0
tri2_17_21_23: t17_21_23 - x17_23 <= 0
tri3_17_21_23: t17_21_23 - x21_23 <= 0
tri4_17_21_23: t17_21_23 - x17_21 - x17_23 - x21_23 >= -2
tri1_17_22_23: t17_22_23 - x17_22 <= 0
tri2_17_22_23: t17_22_23 - x17_23 <= 0
tri3_17_22_23: t17_22_23 - x22_23 <= 0
tri4_17_22_23: t17_22_23 - x17_22 - x17_23 - x22_23 >= -2
tri1_18_19_20: t18_19_20 - x18_19 <= 0
tri2_18_19_20: t18_19_20 - x18_20 <= 0
tri3_18_19_20: t18_19_20 - x19_20 <= 0
tri4_18_19_20: t18_19_20 - x18_19 - x18_20 - x19_20 >= -2
tri1_18_19_21: t18_19_21 - x18_19 <= 0
tri2_18_19_21: t18_19_21 - x18_21 <= 0
tri3_18_19_21: t18_19_21 - x19_21 <= 0
tri4_18_19_21: t18_19_21 - x18_19 - x18_21 - x19_21 >= -2
tri1_18_19_22: t18_19_22 - x18_19 <= 0
tri2_18_19_22: t18_19_22 - x18_22 <= 0
tri3_18_19_22: t18_19_22 - x19_22 <= 0
tri4_18_19_22: t18_19_22 - x18_19 - x18_22 - x19_22 >= -2
tri1_18_19_23: t18_19_23 - x18_19 <= 0
tri2_18_19_23: t18_19_23 - x18_23 <= 0
tri3_18_19_23: t18_19_23 - x19_23 <= 0
tri4_18_19_23: t18_19_23 - x18_19 - x18_23 - x19_23 >= -2
tri1_18_20_21: t18_20_21 - x18_20 <= 0
tri2_18_20_21: t18_20_21 - x18_21 <= 0
tri3_18_20_21: t18_20_21 - x20_21 <= 0
tri4_18_20_21: t18_20_21 - x18_20 - x18_21 - x20_21 >= -2
tri1_18_20_22: t18_20_22 - x18_20 <= 0
tri2_18_20_22: t18_20_22 - x18_22 <= 0
tri3_18_20_22: t18_20_22 - x20_22 <= 0
tri4_18_20_22: t18_20_22 - x18_20 - x18_22 - x20_22 >= -2
tri1_18_20_23: t18_20_23 - x18_20 <= 0
tri2_18_20_23: t18_20_23 - x18_23 <= 0
tri3_18_20_23: t18_20_23 - x20_23 <= 0
tri4_18_20_23: t18_20_23 - x18_20 - x18_23 - x20_23 >= -2
tri1_18_21_22: t18_21_22 - x18_21 <= 0
tri2_18_21_22: t18_21_22 - x18_22 <= 0
tri3_18_21_22: t18_21_22 - x21_22 <= 0
tri4_18_21_22: t18_21_22 - x18_21 - x18_22 - x21_22 >= -2
tri1_18_21_23: t18_21_23 - x18_21 <= 0
tri2_18_21_23: t18_21_23 - x18_23 <= 0
tri3_18_21_23: t18_21_23 - x21_23 <= 0
tri4_18_21_23: t18_21_23 - x18_21 - x18_23 - x21_23 >= -2
tri1_18_22_23: t18_22_23 - x18_22 <= 0
tri2_18_22_23: t18_22_23 - x18_23 <= 0
tri3_18_22_23: t18_22_23 - x22_23 <= 0
tri4_18_22_23: t18_22_23 - x18_22 - x18_23 - x22_23 >= -2
tri1_19_20_21: t19_20_21 - x19_20 <= 0
tri2_19_20_21: t19_20_21 - x19_21 <= 0
tri3_19_20_21: t19_20_21 - x20_21 <= 0
tri4_19_20_21: t19_20_21 - x19_20 - x19_21 - x20_21 >= -2
tri1_19_20_22: t19_20_22 - x19_20 <= 0
tri2_19_20_22: t19_20_22 - x19_22 <= 0
tri3_19_20_22: t19_20_22 - x20_22 <= 0
tri4_19_20_22: t19_20_22 - x19_20 - x19_22 - x20_22 >= -2
tri1_19_20_23: t19_20_23 - x19_20 <= 0
tri2_19_20_23: t19_20_23 - x19_23 <= 0
tri3_19_20_23: t19_20_23 - x20_23 <= 0
tri4_19_20_23: t19_20_23 - x19_20 - x19_23 - x20_23 >= -2
tri1_19_21_22: t19_21_22 - x19_21 <= 0
tri2_19_21_22: t19_21_22 - x19_22 <= 0
tri3_19_21_22: t19_21_22 - x21_22 <= 0
tri4_19_21_22: t19_21_22 - x19_21 - x19_22 - x21_22 >= -2
tri1_19_21_23: t19_21_23 - x19_21 <= 0
tri2_19_21_23: t19_21_23 - x19_23 <= 0
tri3_19_21_23: t19_21_23 - x21_23 <= 0
tri4_19_21_23: t19_21_23 - x19_21 - x19_23 - x21_23 >= -2
tri1_19_22_23: t19_22_23 - x19_22 <= 0
tri2_19_22_23: t19_22_23 - x19_23 <= 0
tri3_19_22_23: t19_22_23 - x22_23 <= 0
tri4_19_22_23: t19_22_23 - x19_22 - x19_23 - x22_23 >= -2
tri1_20_21_22: t20_21_22 - x20_21 <= 0
tri2_20_21_22: t20_21_22 - x20_22 <= 0
tri3_20_21_22: t20_21_22 - x21_22 <= 0
tri4_20_21_22: t20_21_22 - x20_21 - x20_22 - x21_22 >= -2
tri1_20_21_23: t20_21_23 - x20_21 <= 0
tri2_20_21_23: t20_21_23 - x20_23 <= 0
tri3_20_21_23: t20_21_23 - x21_23 <= 0
tri4_20_21_23: t20_21_23 - x20_21 - x20_23 - x21_23 >= -2
tri1_20_22_23: t20_22_23 - x20_22 <= 0
tri2_20_22_23: t20_22_23 - x20_23 <= 0
tri3_20_22_23: t20_22_23 - x22_23 <= 0
tri4_20_22_23: t20_22_23 - x20_22 - x20_23 - x22_23 >= -2
tri1_21_22_23: t21_22_23 - x21_22 <= 0
tri2_21_22_23: t21_22_23 - x21_23 <= 0
tri3_21_22_23: t21_22_23 - x22_23 <= 0
tri4_21_22_23: t21_22_23 - x21_22 - x21_23 - x22_23 >= -2

k3deg0: d0 - t0_1_2 - t0_1_3 - t0_1_4 - t0_1_5 - t0_1_6 - t0_1_7 - t0_1_8 - t0_1_9 - t0_1_10 - t0_1_11 - t0_1_12 - t0_1_13 - t0_1_14 - t0_1_15 - t0_1_16 - t0_1_17 - t0_1_18 - t0_1_19 - t0_1_20 - t0_1_21 - t0_1_22 - t0_1_23 - t0_2_3 - t0_2_4 - t0_2_5 - t0_2_6 - t0_2_7 - t0_2_8 - t0_2_9 - t0_2_10 - t0_2_11 - t0_2_12 - t0_2_13 - t0_2_14 - t0_2_15 - t0_2_16 - t0_2_17 - t0_2_18 - t0_2_19 - t0_2_20 - t0_2_21 - t0_2_22 - t0_2_23 - t0_3_4 - t0_3_5 - t0_3_6 - t0_3_7 - t0_3_8 - t0_3_9 - t0_3_10 - t0_3_11 - t0_3_12 - t0_3_13 - t0_3_14 - t0_3_15 - t0_3_16 - t0_3_17 - t0_3_18 - t0_3_19 - t0_3_20 - t0_3_21 - t0_3_22 - t0_3_23 - t0_4_5 - t0_4_6 - t0_4_7 - t0_4_8 - t0_4_9 - t0_4_10 - t0_4_11 - t0_4_12 - t0_4_13 - t0_4_14 - t0_4_15 - t0_4_16 - t0_4_17 - t0_4_18 - t0_4_19 - t0_4_20 - t0_4_21 - t0_4_22 - t0_4_23 - t0_5_6 - t0_5_7 - t0_5_8 - t0_5_9 - t0_5_10 - t0_5_11 - t0_5_12 - t0_5_13 - t0_5_14 - t0_5_15 - t0_5_16 - t0_5_17 - t0_5_18 - t0_5_19 - t0_5_20 - t0_5_21 - t0_5_22 - t0_5_23 - t0_6_7 - t0_6_8 - t0_6_9 - t0_6_10 - t0_6_11 - t0_6_12 - t0_6_13 - t0_6_14 - t0_6_15 - t0_6_16 - t0_6_17 - t0_6_18 - t0_6_19 - t0_6_20 - t0_6_21 - t0_6_22 - t0_6_23 - t0_7_8 - t0_7_9 - t0_7_10 - t0_7_11 - t0_7_12 - t0_7_13 - t0_7_14 - t0_7_15 - t0_7_16 - t0_7_17 - t0_7_18 - t0_7_19 - t0_7_20 - t0_7_21 - t0_7_22 - t0_7_23 - t0_8_9 - t0_8_10 - t0_8_11 - t0_8_12 - t0_8_13 - t0_8_14 - t0_8_15 - t0_8_16 - t0_8_17 - t0_8_18 - t0_8_19 - t0_8_20 - t0_8_21 - t0_8_22 - t0_8_23 - t0_9_10 - t0_9_11 - t0_9_12 - t0_9_13 - t0_9_14 - t0_9_15 - t0_9_16 - t0_9_17 - t0_9_18 - t0_9_19 - t0_9_20 - t0_9_21 - t0_9_22 - t0_9_23 - t0_10_11 - t0_10_12 - t0_10_13 - t0_10_14 - t0_10_15 - t0_10_16 - t0_10_17 - t0_10_18 - t0_10_19 - t0_10_20 - t0_10_21 - t0_10_22 - t0_10_23 - t0_11_12 - t0_11_13 - t0_11_14 - t0_11_15 - t0_11_16 - t0_11_17 - t0_11_18 - t0_11_19 - t0_11_20 - t0_11_21 - t0_11_22 - t0_11_23 - t0_12_13 - t0_12_14 - t0_12_15 - t0_12_16 - t0_12_17 - t0_12_18 - t0_12_19 - t0_12_20 - t0_12_21 - t0_12_22 - t0_12_23 - t0_13_14 - t0_13_15 - t0_13_16 - t0_13_17 - t0_13_18 - t0_13_19 - t0_13_20 - t0_13_21 - t0_13_22 - t0_13_23 - t0_14_15 - t0_14_16 - t0_14_17 - t0_14_18 - t0_14_19 - t0_14_20 - t0_14_21 - t0_14_22 - t0_14_23 - t0_15_16 - t0_15_17 - t0_15_18 - t0_15_19 - t0_15_20 - t0_15_21 - t0_15_22 - t0_15_23 - t0_16_17 - t0_16_18 - t0_16_19 - t0_16_20 - t0_16_21 - t0_16_22 - t0_16_23 - t0_17_18 - t0_17_19 - t0_17_20 - t0_17_21 - t0_17_22 - t0_17_23 - t0_18_19 - t0_18_20 - t0_18_21 - t0_18_22 - t0_18_23 - t0_19_20 - t0_19_21 - t0_19_22 - t0_19_23 - t0_20_21 - t0_20_22 - t0_20_23 - t0_21_22 - t0_21_23 - t0_22_23 = 0

k3deg1: d1 - t0_1_2 - t0_1_3 - t0_1_4 - t0_1_5 - t0_1_6 - t0_1_7 - t0_1_8 - t0_1_9 - t0_1_10 - t0_1_11 - t0_1_12 - t0_1_13 - t0_1_14 - t0_1_15 - t0_1_16 - t0_1_17 - t0_1_18 - t0_1_19 - t0_1_20 - t0_1_21 - t0_1_22 - t0_1_23 - t1_2_3 - t1_2_4 - t1_2_5 - t1_2_6 - t1_2_7 - t1_2_8 - t1_2_9 - t1_2_10 - t1_2_11 - t1_2_12 - t1_2_13 - t1_2_14 - t1_2_15 - t1_2_16 - t1_2_17 - t1_2_18 - t1_2_19 - t1_2_20 - t1_2_21 - t1_2_22 - t1_2_23 - t1_3_4 - t1_3_5 - t1_3_6 - t1_3_7 - t1_3_8 - t1_3_9 - t1_3_10 - t1_3_11 - t1_3_12 - t1_3_13 - t1_3_14 - t1_3_15 - t1_3_16 - t1_3_17 - t1_3_18 - t1_3_19 - t1_3_20 - t1_3_21 - t1_3_22 - t1_3_23 - t1_4_5 - t1_4_6 - t1_4_7 - t1_4_8 - t1_4_9 - t1_4_10 - t1_4_11 - t1_4_12 - t1_4_13 - t1_4_14 - t1_4_15 - t1_4_16 - t1_4_17 - t1_4_18 - t1_4_19 - t1_4_20 - t1_4_21 - t1_4_22 - t1_4_23 - t1_5_6 - t1_5_7 - t1_5_8 - t1_5_9 - t1_5_10 - t1_5_11 - t1_5_12 - t1_5_13 - t1_5_14 - t1_5_15 - t1_5_16 - t1_5_17 - t1_5_18 - t1_5_19 - t1_5_20 - t1_5_21 - t1_5_22 - t1_5_23 - t1_6_7 - t1_6_8 - t1_6_9 - t1_6_10 - t1_6_11 - t1_6_12 - t1_6_13 - t1_6_14 - t1_6_15 - t1_6_16 - t1_6_17 - t1_6_18 - t1_6_19 - t1_6_20 - t1_6_21 - t1_6_22 - t1_6_23 - t1_7_8 - t1_7_9 - t1_7_10 - t1_7_11 - t1_7_12 - t1_7_13 - t1_7_14 - t1_7_15 - t1_7_16 - t1_7_17 - t1_7_18 - t1_7_19 - t1_7_20 - t1_7_21 - t1_7_22 - t1_7_23 - t1_8_9 - t1_8_10 - t1_8_11 - t1_8_12 - t1_8_13 - t1_8_14 - t1_8_15 - t1_8_16 - t1_8_17 - t1_8_18 - t1_8_19 - t1_8_20 - t1_8_21 - t1_8_22 - t1_8_23 - t1_9_10 - t1_9_11 - t1_9_12 - t1_9_13 - t1_9_14 - t1_9_15 - t1_9_16 - t1_9_17 - t1_9_18 - t1_9_19 - t1_9_20 - t1_9_21 - t1_9_22 - t1_9_23 - t1_10_11 - t1_10_12 - t1_10_13 - t1_10_14 - t1_10_15 - t1_10_16 - t1_10_17 - t1_10_18 - t1_10_19 - t1_10_20 - t1_10_21 - t1_10_22 - t1_10_23 - t1_11_12 - t1_11_13 - t1_11_14 - t1_11_15 - t1_11_16 - t1_11_17 - t1_11_18 - t1_11_19 - t1_11_20 - t1_11_21 - t1_11_22 - t1_11_23 - t1_12_13 - t1_12_14 - t1_12_15 - t1_12_16 - t1_12_17 - t1_12_18 - t1_12_19 - t1_12_20 - t1_12_21 - t1_12_22 - t1_12_23 - t1_13_14 - t1_13_15 - t1_13_16 - t1_13_17 - t1_13_18 - t1_13_19 - t1_13_20 - t1_13_21 - t1_13_22 - t1_13_23 - t1_14_15 - t1_14_16 - t1_14_17 - t1_14_18 - t1_14_19 - t1_14_20 - t1_14_21 - t1_14_22 - t1_14_23 - t1_15_16 - t1_15_17 - t1_15_18 - t1_15_19 - t1_15_20 - t1_15_21 - t1_15_22 - t1_15_23 - t1_16_17 - t1_16_18 - t1_16_19 - t1_16_20 - t1_16_21 - t1_16_22 - t1_16_23 - t1_17_18 - t1_17_19 - t1_17_20 - t1_17_21 - t1_17_22 - t1_17_23 - t1_18_19 - t1_18_20 - t1_18_21 - t1_18_22 - t1_18_23 - t1_19_20 - t1_19_21 - t1_19_22 - t1_19_23 - t1_20_21 - t1_20_22 - t1_20_23 - t1_21_22 - t1_21_23 - t1_22_23 = 0

k3deg2: d2 - t0_1_2 - t0_2_3 - t0_2_4 - t0_2_5 - t0_2_6 - t0_2_7 - t0_2_8 - t0_2_9 - t0_2_10 - t0_2_11 - t0_2_12 - t0_2_13 - t0_2_14 - t0_2_15 - t0_2_16 - t0_2_17 - t0_2_18 - t0_2_19 - t0_2_20 - t0_2_21 - t0_2_22 - t0_2_23 - t1_2_3 - t1_2_4 - t1_2_5 - t1_2_6 - t1_2_7 - t1_2_8 - t1_2_9 - t1_2_10 - t1_2_11 - t1_2_12 - t1_2_13 - t1_2_14 - t1_2_15 - t1_2_16 - t1_2_17 - t1_2_18 - t1_2_19 - t1_2_20 - t1_2_21 - t1_2_22 - t1_2_23 - t2_3_4 - t2_3_5 - t2_3_6 - t2_3_7 - t2_3_8 - t2_3_9 - t2_3_10 - t2_3_11 - t2_3_12 - t2_3_13 - t2_3_14 - t2_3_15 - t2_3_16 - t2_3_17 - t2_3_18 - t2_3_19 - t2_3_20 - t2_3_21 - t2_3_22 - t2_3_23 - t2_4_5 - t2_4_6 - t2_4_7 - t2_4_8 - t2_4_9 - t2_4_10 - t2_4_11 - t2_4_12 - t2_4_13 - t2_4_14 - t2_4_15 - t2_4_16 - t2_4_17 - t2_4_18 - t2_4_19 - t2_4_20 - t2_4_21 - t2_4_22 - t2_4_23 - t2_5_6 - t2_5_7 - t2_5_8 - t2_5_9 - t2_5_10 - t2_5_11 - t2_5_12 - t2_5_13 - t2_5_14 - t2_5_15 - t2_5_16 - t2_5_17 - t2_5_18 - t2_5_19 - t2_5_20 - t2_5_21 - t2_5_22 - t2_5_23 - t2_6_7 - t2_6_8 - t2_6_9 - t2_6_10 - t2_6_11 - t2_6_12 - t2_6_13 - t2_6_14 - t2_6_15 - t2_6_16 - t2_6_17 - t2_6_18 - t2_6_19 - t2_6_20 - t2_6_21 - t2_6_22 - t2_6_23 - t2_7_8 - t2_7_9 - t2_7_10 - t2_7_11 - t2_7_12 - t2_7_13 - t2_7_14 - t2_7_15 - t2_7_16 - t2_7_17 - t2_7_18 - t2_7_19 - t2_7_20 - t2_7_21 - t2_7_22 - t2_7_23 - t2_8_9 - t2_8_10 - t2_8_11 - t2_8_12 - t2_8_13 - t2_8_14 - t2_8_15 - t2_8_16 - t2_8_17 - t2_8_18 - t2_8_19 - t2_8_20 - t2_8_21 - t2_8_22 - t2_8_23 - t2_9_10 - t2_9_11 - t2_9_12 - t2_9_13 - t2_9_14 - t2_9_15 - t2_9_16 - t2_9_17 - t2_9_18 - t2_9_19 - t2_9_20 - t2_9_21 - t2_9_22 - t2_9_23 - t2_10_11 - t2_10_12 - t2_10_13 - t2_10_14 - t2_10_15 - t2_10_16 - t2_10_17 - t2_10_18 - t2_10_19 - t2_10_20 - t2_10_21 - t2_10_22 - t2_10_23 - t2_11_12 - t2_11_13 - t2_11_14 - t2_11_15 - t2_11_16 - t2_11_17 - t2_11_18 - t2_11_19 - t2_11_20 - t2_11_21 - t2_11_22 - t2_11_23 - t2_12_13 - t2_12_14 - t2_12_15 - t2_12_16 - t2_12_17 - t2_12_18 - t2_12_19 - t2_12_20 - t2_12_21 - t2_12_22 - t2_12_23 - t2_13_14 - t2_13_15 - t2_13_16 - t2_13_17 - t2_13_18 - t2_13_19 - t2_13_20 - t2_13_21 - t2_13_22 - t2_13_23 - t2_14_15 - t2_14_16 - t2_14_17 - t2_14_18 - t2_14_19 - t2_14_20 - t2_14_21 - t2_14_22 - t2_14_23 - t2_15_16 - t2_15_17 - t2_15_18 - t2_15_19 - t2_15_20 - t2_15_21 - t2_15_22 - t2_15_23 - t2_16_17 - t2_16_18 - t2_16_19 - t2_16_20 - t2_16_21 - t2_16_22 - t2_16_23 - t2_17_18 - t2_17_19 - t2_17_20 - t2_17_21 - t2_17_22 - t2_17_23 - t2_18_19 - t2_18_20 - t2_18_21 - t2_18_22 - t2_18_23 - t2_19_20 - t2_19_21 - t2_19_22 - t2_19_23 - t2_20_21 - t2_20_22 - t2_20_23 - t2_21_22 - t2_21_23 - t2_22_23 = 0

k3deg3: d3 - t0_1_3 - t0_2_3 - t0_3_4 - t0_3_5 - t0_3_6 - t0_3_7 - t0_3_8 - t0_3_9 - t0_3_10 - t0_3_11 - t0_3_12 - t0_3_13 - t0_3_14 - t0_3_15 - t0_3_16 - t0_3_17 - t0_3_18 - t0_3_19 - t0_3_20 - t0_3_21 - t0_3_22 - t0_3_23 - t1_2_3 - t1_3_4 - t1_3_5 - t1_3_6 - t1_3_7 - t1_3_8 - t1_3_9 - t1_3_10 - t1_3_11 - t1_3_12 - t1_3_13 - t1_3_14 - t1_3_15 - t1_3_16 - t1_3_17 - t1_3_18 - t1_3_19 - t1_3_20 - t1_3_21 - t1_3_22 - t1_3_23 - t2_3_4 - t2_3_5 - t2_3_6 - t2_3_7 - t2_3_8 - t2_3_9 - t2_3_10 - t2_3_11 - t2_3_12 - t2_3_13 - t2_3_14 - t2_3_15 - t2_3_16 - t2_3_17 - t2_3_18 - t2_3_19 - t2_3_20 - t2_3_21 - t2_3_22 - t2_3_23 - t3_4_5 - t3_4_6 - t3_4_7 - t3_4_8 - t3_4_9 - t3_4_10 - t3_4_11 - t3_4_12 - t3_4_13 - t3_4_14 - t3_4_15 - t3_4_16 - t3_4_17 - t3_4_18 - t3_4_19 - t3_4_20 - t3_4_21 - t3_4_22 - t3_4_23 - t3_5_6 - t3_5_7 - t3_5_8 - t3_5_9 - t3_5_10 - t3_5_11 - t3_5_12 - t3_5_13 - t3_5_14 - t3_5_15 - t3_5_16 - t3_5_17 - t3_5_18 - t3_5_19 - t3_5_20 - t3_5_21 - t3_5_22 - t3_5_23 - t3_6_7 - t3_6_8 - t3_6_9 - t3_6_10 - t3_6_11 - t3_6_12 - t3_6_13 - t3_6_14 - t3_6_15 - t3_6_16 - t3_6_17 - t3_6_18 - t3_6_19 - t3_6_20 - t3_6_21 - t3_6_22 - t3_6_23 - t3_7_8 - t3_7_9 - t3_7_10 - t3_7_11 - t3_7_12 - t3_7_13 - t3_7_14 - t3_7_15 - t3_7_16 - t3_7_17 - t3_7_18 - t3_7_19 - t3_7_20 - t3_7_21 - t3_7_22 - t3_7_23 - t3_8_9 - t3_8_10 - t3_8_11 - t3_8_12 - t3_8_13 - t3_8_14 - t3_8_15 - t3_8_16 - t3_8_17 - t3_8_18 - t3_8_19 - t3_8_20 - t3_8_21 - t3_8_22 - t3_8_23 - t3_9_10 - t3_9_11 - t3_9_12 - t3_9_13 - t3_9_14 - t3_9_15 - t3_9_16 - t3_9_17 - t3_9_18 - t3_9_19 - t3_9_20 - t3_9_21 - t3_9_22 - t3_9_23 - t3_10_11 - t3_10_12 - t3_10_13 - t3_10_14 - t3_10_15 - t3_10_16 - t3_10_17 - t3_10_18 - t3_10_19 - t3_10_20 - t3_10_21 - t3_10_22 - t3_10_23 - t3_11_12 - t3_11_13 - t3_11_14 - t3_11_15 - t3_11_16 - t3_11_17 - t3_11_18 - t3_11_19 - t3_11_20 - t3_11_21 - t3_11_22 - t3_11_23 - t3_12_13 - t3_12_14 - t3_12_15 - t3_12_16 - t3_12_17 - t3_12_18 - t3_12_19 - t3_12_20 - t3_12_21 - t3_12_22 - t3_12_23 - t3_13_14 - t3_13_15 - t3_13_16 - t3_13_17 - t3_13_18 - t3_13_19 - t3_13_20 - t3_13_21 - t3_13_22 - t3_13_23 - t3_14_15 - t3_14_16 - t3_14_17 - t3_14_18 - t3_14_19 - t3_14_20 - t3_14_21 - t3_14_22 - t3_14_23 - t3_15_16 - t3_15_17 - t3_15_18 - t3_15_19 - t3_15_20 - t3_15_21 - t3_15_22 - t3_15_23 - t3_16_17 - t3_16_18 - t3_16_19 - t3_16_20 - t3_16_21 - t3_16_22 - t3_16_23 - t3_17_18 - t3_17_19 - t3_17_20 - t3_17_21 - t3_17_22 - t3_17_23 - t3_18_19 - t3_18_20 - t3_18_21 - t3_18_22 - t3_18_23 - t3_19_20 - t3_19_21 - t3_19_22 - t3_19_23 - t3_20_21 - t3_20_22 - t3_20_23 - t3_21_22 - t3_21_23 - t3_22_23 = 0

k3deg4: d4 - t0_1_4 - t0_2_4 - t0_3_4 - t0_4_5 - t0_4_6 - t0_4_7 - t0_4_8 - t0_4_9 - t0_4_10 - t0_4_11 - t0_4_12 - t0_4_13 - t0_4_14 - t0_4_15 - t0_4_16 - t0_4_17 - t0_4_18 - t0_4_19 - t0_4_20 - t0_4_21 - t0_4_22 - t0_4_23 - t1_2_4 - t1_3_4 - t1_4_5 - t1_4_6 - t1_4_7 - t1_4_8 - t1_4_9 - t1_4_10 - t1_4_11 - t1_4_12 - t1_4_13 - t1_4_14 - t1_4_15 - t1_4_16 - t1_4_17 - t1_4_18 - t1_4_19 - t1_4_20 - t1_4_21 - t1_4_22 - t1_4_23 - t2_3_4 - t2_4_5 - t2_4_6 - t2_4_7 - t2_4_8 - t2_4_9 - t2_4_10 - t2_4_11 - t2_4_12 - t2_4_13 - t2_4_14 - t2_4_15 - t2_4_16 - t2_4_17 - t2_4_18 - t2_4_19 - t2_4_20 - t2_4_21 - t2_4_22 - t2_4_23 - t3_4_5 - t3_4_6 - t3_4_7 - t3_4_8 - t3_4_9 - t3_4_10 - t3_4_11 - t3_4_12 - t3_4_13 - t3_4_14 - t3_4_15 - t3_4_16 - t3_4_17 - t3_4_18 - t3_4_19 - t3_4_20 - t3_4_21 - t3_4_22 - t3_4_23 - t4_5_6 - t4_5_7 - t4_5_8 - t4_5_9 - t4_5_10 - t4_5_11 - t4_5_12 - t4_5_13 - t4_5_14 - t4_5_15 - t4_5_16 - t4_5_17 - t4_5_18 - t4_5_19 - t4_5_20 - t4_5_21 - t4_5_22 - t4_5_23 - t4_6_7 - t4_6_8 - t4_6_9 - t4_6_10 - t4_6_11 - t4_6_12 - t4_6_13 - t4_6_14 - t4_6_15 - t4_6_16 - t4_6_17 - t4_6_18 - t4_6_19 - t4_6_20 - t4_6_21 - t4_6_22 - t4_6_23 - t4_7_8 - t4_7_9 - t4_7_10 - t4_7_11 - t4_7_12 - t4_7_13 - t4_7_14 - t4_7_15 - t4_7_16 - t4_7_17 - t4_7_18 - t4_7_19 - t4_7_20 - t4_7_21 - t4_7_22 - t4_7_23 - t4_8_9 - t4_8_10 - t4_8_11 - t4_8_12 - t4_8_13 - t4_8_14 - t4_8_15 - t4_8_16 - t4_8_17 - t4_8_18 - t4_8_19 - t4_8_20 - t4_8_21 - t4_8_22 - t4_8_23 - t4_9_10 - t4_9_11 - t4_9_12 - t4_9_13 - t4_9_14 - t4_9_15 - t4_9_16 - t4_9_17 - t4_9_18 - t4_9_19 - t4_9_20 - t4_9_21 - t4_9_22 - t4_9_23 - t4_10_11 - t4_10_12 - t4_10_13 - t4_10_14 - t4_10_15 - t4_10_16 - t4_10_17 - t4_10_18 - t4_10_19 - t4_10_20 - t4_10_21 - t4_10_22 - t4_10_23 - t4_11_12 - t4_11_13 - t4_11_14 - t4_11_15 - t4_11_16 - t4_11_17 - t4_11_18 - t4_11_19 - t4_11_20 - t4_11_21 - t4_11_22 - t4_11_23 - t4_12_13 - t4_12_14 - t4_12_15 - t4_12_16 - t4_12_17 - t4_12_18 - t4_12_19 - t4_12_20 - t4_12_21 - t4_12_22 - t4_12_23 - t4_13_14 - t4_13_15 - t4_13_16 - t4_13_17 - t4_13_18 - t4_13_19 - t4_13_20 - t4_13_21 - t4_13_22 - t4_13_23 - t4_14_15 - t4_14_16 - t4_14_17 - t4_14_18 - t4_14_19 - t4_14_20 - t4_14_21 - t4_14_22 - t4_14_23 - t4_15_16 - t4_15_17 - t4_15_18 - t4_15_19 - t4_15_20 - t4_15_21 - t4_15_22 - t4_15_23 - t4_16_17 - t4_16_18 - t4_16_19 - t4_16_20 - t4_16_21 - t4_16_22 - t4_16_23 - t4_17_18 - t4_17_19 - t4_17_20 - t4_17_21 - t4_17_22 - t4_17_23 - t4_18_19 - t4_18_20 - t4_18_21 - t4_18_22 - t4_18_23 - t4_19_20 - t4_19_21 - t4_19_22 - t4_19_23 - t4_20_21 - t4_20_22 - t4_20_23 - t4_21_22 - t4_21_23 - t4_22_23 = 0

k3deg5: d5 - t0_1_5 - t0_2_5 - t0_3_5 - t0_4_5 - t0_5_6 - t0_5_7 - t0_5_8 - t0_5_9 - t0_5_10 - t0_5_11 - t0_5_12 - t0_5_13 - t0_5_14 - t0_5_15 - t0_5_16 - t0_5_17 - t0_5_18 - t0_5_19 - t0_5_20 - t0_5_21 - t0_5_22 - t0_5_23 - t1_2_5 - t1_3_5 - t1_4_5 - t1_5_6 - t1_5_7 - t1_5_8 - t1_5_9 - t1_5_10 - t1_5_11 - t1_5_12 - t1_5_13 - t1_5_14 - t1_5_15 - t1_5_16 - t1_5_17 - t1_5_18 - t1_5_19 - t1_5_20 - t1_5_21 - t1_5_22 - t1_5_23 - t2_3_5 - t2_4_5 - t2_5_6 - t2_5_7 - t2_5_8 - t2_5_9 - t2_5_10 - t2_5_11 - t2_5_12 - t2_5_13 - t2_5_14 - t2_5_15 - t2_5_16 - t2_5_17 - t2_5_18 - t2_5_19 - t2_5_20 - t2_5_21 - t2_5_22 - t2_5_23 - t3_4_5 - t3_5_6 - t3_5_7 - t3_5_8 - t3_5_9 - t3_5_10 - t3_5_11 - t3_5_12 - t3_5_13 - t3_5_14 - t3_5_15 - t3_5_16 - t3_5_17 - t3_5_18 - t3_5_19 - t3_5_20 - t3_5_21 - t3_5_22 - t3_5_23 - t4_5_6 - t4_5_7 - t4_5_8 - t4_5_9 - t4_5_10 - t4_5_11 - t4_5_12 - t4_5_13 - t4_5_14 - t4_5_15 - t4_5_16 - t4_5_17 - t4_5_18 - t4_5_19 - t4_5_20 - t4_5_21 - t4_5_22 - t4_5_23 - t5_6_7 - t5_6_8 - t5_6_9 - t5_6_10 - t5_6_11 - t5_6_12 - t5_6_13 - t5_6_14 - t5_6_15 - t5_6_16 - t5_6_17 - t5_6_18 - t5_6_19 - t5_6_20 - t5_6_21 - t5_6_22 - t5_6_23 - t5_7_8 - t5_7_9 - t5_7_10 - t5_7_11 - t5_7_12 - t5_7_13 - t5_7_14 - t5_7_15 - t5_7_16 - t5_7_17 - t5_7_18 - t5_7_19 - t5_7_20 - t5_7_21 - t5_7_22 - t5_7_23 - t5_8_9 - t5_8_10 - t5_8_11 - t5_8_12 - t5_8_13 - t5_8_14 - t5_8_15 - t5_8_16 - t5_8_17 - t5_8_18 - t5_8_19 - t5_8_20 - t5_8_21 - t5_8_22 - t5_8_23 - t5_9_10 - t5_9_11 - t5_9_12 - t5_9_13 - t5_9_14 - t5_9_15 - t5_9_16 - t5_9_17 - t5_9_18 - t5_9_19 - t5_9_20 - t5_9_21 - t5_9_22 - t5_9_23 - t5_10_11 - t5_10_12 - t5_10_13 - t5_10_14 - t5_10_15 - t5_10_16 - t5_10_17 - t5_10_18 - t5_10_19 - t5_10_20 - t5_10_21 - t5_10_22 - t5_10_23 - t5_11_12 - t5_11_13 - t5_11_14 - t5_11_15 - t5_11_16 - t5_11_17 - t5_11_18 - t5_11_19 - t5_11_20 - t5_11_21 - t5_11_22 - t5_11_23 - t5_12_13 - t5_12_14 - t5_12_15 - t5_12_16 - t5_12_17 - t5_12_18 - t5_12_19 - t5_12_20 - t5_12_21 - t5_12_22 - t5_12_23 - t5_13_14 - t5_13_15 - t5_13_16 - t5_13_17 - t5_13_18 - t5_13_19 - t5_13_20 - t5_13_21 - t5_13_22 - t5_13_23 - t5_14_15 - t5_14_16 - t5_14_17 - t5_14_18 - t5_14_19 - t5_14_20 - t5_14_21 - t5_14_22 - t5_14_23 - t5_15_16 - t5_15_17 - t5_15_18 - t5_15_19 - t5_15_20 - t5_15_21 - t5_15_22 - t5_15_23 - t5_16_17 - t5_16_18 - t5_16_19 - t5_16_20 - t5_16_21 - t5_16_22 - t5_16_23 - t5_17_18 - t5_17_19 - t5_17_20 - t5_17_21 - t5_17_22 - t5_17_23 - t5_18_19 - t5_18_20 - t5_18_21 - t5_18_22 - t5_18_23 - t5_19_20 - t5_19_21 - t5_19_22 - t5_19_23 - t5_20_21 - t5_20_22 - t5_20_23 - t5_21_22 - t5_21_23 - t5_22_23 = 0

k3deg6: d6 - t0_1_6 - t0_2_6 - t0_3_6 - t0_4_6 - t0_5_6 - t0_6_7 - t0_6_8 - t0_6_9 - t0_6_10 - t0_6_11 - t0_6_12 - t0_6_13 - t0_6_14 - t0_6_15 - t0_6_16 - t0_6_17 - t0_6_18 - t0_6_19 - t0_6_20 - t0_6_21 - t0_6_22 - t0_6_23 - t1_2_6 - t1_3_6 - t1_4_6 - t1_5_6 - t1_6_7 - t1_6_8 - t1_6_9 - t1_6_10 - t1_6_11 - t1_6_12 - t1_6_13 - t1_6_14 - t1_6_15 - t1_6_16 - t1_6_17 - t1_6_18 - t1_6_19 - t1_6_20 - t1_6_21 - t1_6_22 - t1_6_23 - t2_3_6 - t2_4_6 - t2_5_6 - t2_6_7 - t2_6_8 - t2_6_9 - t2_6_10 - t2_6_11 - t2_6_12 - t2_6_13 - t2_6_14 - t2_6_15 - t2_6_16 - t2_6_17 - t2_6_18 - t2_6_19 - t2_6_20 - t2_6_21 - t2_6_22 - t2_6_23 - t3_4_6 - t3_5_6 - t3_6_7 - t3_6_8 - t3_6_9 - t3_6_10 - t3_6_11 - t3_6_12 - t3_6_13 - t3_6_14 - t3_6_15 - t3_6_16 - t3_6_17 - t3_6_18 - t3_6_19 - t3_6_20 - t3_6_21 - t3_6_22 - t3_6_23 - t4_5_6 - t4_6_7 - t4_6_8 - t4_6_9 - t4_6_10 - t4_6_11 - t4_6_12 - t4_6_13 - t4_6_14 - t4_6_15 - t4_6_16 - t4_6_17 - t4_6_18 - t4_6_19 - t4_6_20 - t4_6_21 - t4_6_22 - t4_6_23 - t5_6_7 - t5_6_8 - t5_6_9 - t5_6_10 - t5_6_11 - t5_6_12 - t5_6_13 - t5_6_14 - t5_6_15 - t5_6_16 - t5_6_17 - t5_6_18 - t5_6_19 - t5_6_20 - t5_6_21 - t5_6_22 - t5_6_23 - t6_7_8 - t6_7_9 - t6_7_10 - t6_7_11 - t6_7_12 - t6_7_13 - t6_7_14 - t6_7_15 - t6_7_16 - t6_7_17 - t6_7_18 - t6_7_19 - t6_7_20 - t6_7_21 - t6_7_22 - t6_7_23 - t6_8_9 - t6_8_10 - t6_8_11 - t6_8_12 - t6_8_13 - t6_8_14 - t6_8_15 - t6_8_16 - t6_8_17 - t6_8_18 - t6_8_19 - t6_8_20 - t6_8_21 - t6_8_22 - t6_8_23 - t6_9_10 - t6_9_11 - t6_9_12 - t6_9_13 - t6_9_14 - t6_9_15 - t6_9_16 - t6_9_17 - t6_9_18 - t6_9_19 - t6_9_20 - t6_9_21 - t6_9_22 - t6_9_23 - t6_10_11 - t6_10_12 - t6_10_13 - t6_10_14 - t6_10_15 - t6_10_16 - t6_10_17 - t6_10_18 - t6_10_19 - t6_10_20 - t6_10_21 - t6_10_22 - t6_10_23 - t6_11_12 - t6_11_13 - t6_11_14 - t6_11_15 - t6_11_16 - t6_11_17 - t6_11_18 - t6_11_19 - t6_11_20 - t6_11_21 - t6_11_22 - t6_11_23 - t6_12_13 - t6_12_14 - t6_12_15 - t6_12_16 - t6_12_17 - t6_12_18 - t6_12_19 - t6_12_20 - t6_12_21 - t6_12_22 - t6_12_23 - t6_13_14 - t6_13_15 - t6_13_16 - t6_13_17 - t6_13_18 - t6_13_19 - t6_13_20 - t6_13_21 - t6_13_22 - t6_13_23 - t6_14_15 - t6_14_16 - t6_14_17 - t6_14_18 - t6_14_19 - t6_14_20 - t6_14_21 - t6_14_22 - t6_14_23 - t6_15_16 - t6_15_17 - t6_15_18 - t6_15_19 - t6_15_20 - t6_15_21 - t6_15_22 - t6_15_23 - t6_16_17 - t6_16_18 - t6_16_19 - t6_16_20 - t6_16_21 - t6_16_22 - t6_16_23 - t6_17_18 - t6_17_19 - t6_17_20 - t6_17_21 - t6_17_22 - t6_17_23 - t6_18_19 - t6_18_20 - t6_18_21 - t6_18_22 - t6_18_23 - t6_19_20 - t6_19_21 - t6_19_22 - t6_19_23 - t6_20_21 - t6_20_22 - t6_20_23 - t6_21_22 - t6_21_23 - t6_22_23 = 0

k3deg7: d7 - t0_1_7 - t0_2_7 - t0_3_7 - t0_4_7 - t0_5_7 - t0_6_7 - t0_7_8 - t0_7_9 - t0_7_10 - t0_7_11 - t0_7_12 - t0_7_13 - t0_7_14 - t0_7_15 - t0_7_16 - t0_7_17 - t0_7_18 - t0_7_19 - t0_7_20 - t0_7_21 - t0_7_22 - t0_7_23 - t1_2_7 - t1_3_7 - t1_4_7 - t1_5_7 - t1_6_7 - t1_7_8 - t1_7_9 - t1_7_10 - t1_7_11 - t1_7_12 - t1_7_13 - t1_7_14 - t1_7_15 - t1_7_16 - t1_7_17 - t1_7_18 - t1_7_19 - t1_7_20 - t1_7_21 - t1_7_22 - t1_7_23 - t2_3_7 - t2_4_7 - t2_5_7 - t2_6_7 - t2_7_8 - t2_7_9 - t2_7_10 - t2_7_11 - t2_7_12 - t2_7_13 - t2_7_14 - t2_7_15 - t2_7_16 - t2_7_17 - t2_7_18 - t2_7_19 - t2_7_20 - t2_7_21 - t2_7_22 - t2_7_23 - t3_4_7 - t3_5_7 - t3_6_7 - t3_7_8 - t3_7_9 - t3_7_10 - t3_7_11 - t3_7_12 - t3_7_13 - t3_7_14 - t3_7_15 - t3_7_16 - t3_7_17 - t3_7_18 - t3_7_19 - t3_7_20 - t3_7_21 - t3_7_22 - t3_7_23 - t4_5_7 - t4_6_7 - t4_7_8 - t4_7_9 - t4_7_10 - t4_7_11 - t4_7_12 - t4_7_13 - t4_7_14 - t4_7_15 - t4_7_16 - t4_7_17 - t4_7_18 - t4_7_19 - t4_7_20 - t4_7_21 - t4_7_22 - t4_7_23 - t5_6_7 - t5_7_8 - t5_7_9 - t5_7_10 - t5_7_11 - t5_7_12 - t5_7_13 - t5_7_14 - t5_7_15 - t5_7_16 - t5_7_17 - t5_7_18 - t5_7_19 - t5_7_20 - t5_7_21 - t5_7_22 - t5_7_23 - t6_7_8 - t6_7_9 - t6_7_10 - t6_7_11 - t6_7_12 - t6_7_13 - t6_7_14 - t6_7_15 - t6_7_16 - t6_7_17 - t6_7_18 - t6_7_19 - t6_7_20 - t6_7_21 - t6_7_22 - t6_7_23 - t7_8_9 - t7_8_10 - t7_8_11 - t7_8_12 - t7_8_13 - t7_8_14 - t7_8_15 - t7_8_16 - t7_8_17 - t7_8_18 - t7_8_19 - t7_8_20 - t7_8_21 - t7_8_22 - t7_8_23 - t7_9_10 - t7_9_11 - t7_9_12 - t7_9_13 - t7_9_14 - t7_9_15 - t7_9_16 - t7_9_17 - t7_9_18 - t7_9_19 - t7_9_20 - t7_9_21 - t7_9_22 - t7_9_23 - t7_10_11 - t7_10_12 - t7_10_13 - t7_10_14 - t7_10_15 - t7_10_16 - t7_10_17 - t7_10_18 - t7_10_19 - t7_10_20 - t7_10_21 - t7_10_22 - t7_10_23 - t7_11_12 - t7_11_13 - t7_11_14 - t7_11_15 - t7_11_16 - t7_11_17 - t7_11_18 - t7_11_19 - t7_11_20 - t7_11_21 - t7_11_22 - t7_11_23 - t7_12_13 - t7_12_14 - t7_12_15 - t7_12_16 - t7_12_17 - t7_12_18 - t7_12_19 - t7_12_20 - t7_12_21 - t7_12_22 - t7_12_23 - t7_13_14 - t7_13_15 - t7_13_16 - t7_13_17 - t7_13_18 - t7_13_19 - t7_13_20 - t7_13_21 - t7_13_22 - t7_13_23 - t7_14_15 - t7_14_16 - t7_14_17 - t7_14_18 - t7_14_19 - t7_14_20 - t7_14_21 - t7_14_22 - t7_14_23 - t7_15_16 - t7_15_17 - t7_15_18 - t7_15_19 - t7_15_20 - t7_15_21 - t7_15_22 - t7_15_23 - t7_16_17 - t7_16_18 - t7_16_19 - t7_16_20 - t7_16_21 - t7_16_22 - t7_16_23 - t7_17_18 - t7_17_19 - t7_17_20 - t7_17_21 - t7_17_22 - t7_17_23 - t7_18_19 - t7_18_20 - t7_18_21 - t7_18_22 - t7_18_23 - t7_19_20 - t7_19_21 - t7_19_22 - t7_19_23 - t7_20_21 - t7_20_22 - t7_20_23 - t7_21_22 - t7_21_23 - t7_22_23 = 0

k3deg8: d8 - t0_1_8 - t0_2_8 - t0_3_8 - t0_4_8 - t0_5_8 - t0_6_8 - t0_7_8 - t0_8_9 - t0_8_10 - t0_8_11 - t0_8_12 - t0_8_13 - t0_8_14 - t0_8_15 - t0_8_16 - t0_8_17 - t0_8_18 - t0_8_19 - t0_8_20 - t0_8_21 - t0_8_22 - t0_8_23 - t1_2_8 - t1_3_8 - t1_4_8 - t1_5_8 - t1_6_8 - t1_7_8 - t1_8_9 - t1_8_10 - t1_8_11 - t1_8_12 - t1_8_13 - t1_8_14 - t1_8_15 - t1_8_16 - t1_8_17 - t1_8_18 - t1_8_19 - t1_8_20 - t1_8_21 - t1_8_22 - t1_8_23 - t2_3_8 - t2_4_8 - t2_5_8 - t2_6_8 - t2_7_8 - t2_8_9 - t2_8_10 - t2_8_11 - t2_8_12 - t2_8_13 - t2_8_14 - t2_8_15 - t2_8_16 - t2_8_17 - t2_8_18 - t2_8_19 - t2_8_20 - t2_8_21 - t2_8_22 - t2_8_23 - t3_4_8 - t3_5_8 - t3_6_8 - t3_7_8 - t3_8_9 - t3_8_10 - t3_8_11 - t3_8_12 - t3_8_13 - t3_8_14 - t3_8_15 - t3_8_16 - t3_8_17 - t3_8_18 - t3_8_19 - t3_8_20 - t3_8_21 - t3_8_22 - t3_8_23 - t4_5_8 - t4_6_8 - t4_7_8 - t4_8_9 - t4_8_10 - t4_8_11 - t4_8_12 - t4_8_13 - t4_8_14 - t4_8_15 - t4_8_16 - t4_8_17 - t4_8_18 - t4_8_19 - t4_8_20 - t4_8_21 - t4_8_22 - t4_8_23 - t5_6_8 - t5_7_8 - t5_8_9 - t5_8_10 - t5_8_11 - t5_8_12 - t5_8_13 - t5_8_14 - t5_8_15 - t5_8_16 - t5_8_17 - t5_8_18 - t5_8_19 - t5_8_20 - t5_8_21 - t5_8_22 - t5_8_23 - t6_7_8 - t6_8_9 - t6_8_10 - t6_8_11 - t6_8_12 - t6_8_13 - t6_8_14 - t6_8_15 - t6_8_16 - t6_8_17 - t6_8_18 - t6_8_19 - t6_8_20 - t6_8_21 - t6_8_22 - t6_8_23 - t7_8_9 - t7_8_10 - t7_8_11 - t7_8_12 - t7_8_13 - t7_8_14 - t7_8_15 - t7_8_16 - t7_8_17 - t7_8_18 - t7_8_19 - t7_8_20 - t7_8_21 - t7_8_22 - t7_8_23 - t8_9_10 - t8_9_11 - t8_9_12 - t8_9_13 - t8_9_14 - t8_9_15 - t8_9_16 - t8_9_17 - t8_9_18 - t8_9_19 - t8_9_20 - t8_9_21 - t8_9_22 - t8_9_23 - t8_10_11 - t8_10_12 - t8_10_13 - t8_10_14 - t8_10_15 - t8_10_16 - t8_10_17 - t8_10_18 - t8_10_19 - t8_10_20 - t8_10_21 - t8_10_22 - t8_10_23 - t8_11_12 - t8_11_13 - t8_11_14 - t8_11_15 - t8_11_16 - t8_11_17 - t8_11_18 - t8_11_19 - t8_11_20 - t8_11_21 - t8_11_22 - t8_11_23 - t8_12_13 - t8_12_14 - t8_12_15 - t8_12_16 - t8_12_17 - t8_12_18 - t8_12_19 - t8_12_20 - t8_12_21 - t8_12_22 - t8_12_23 - t8_13_14 - t8_13_15 - t8_13_16 - t8_13_17 - t8_13_18 - t8_13_19 - t8_13_20 - t8_13_21 - t8_13_22 - t8_13_23 - t8_14_15 - t8_14_16 - t8_14_17 - t8_14_18 - t8_14_19 - t8_14_20 - t8_14_21 - t8_14_22 - t8_14_23 - t8_15_16 - t8_15_17 - t8_15_18 - t8_15_19 - t8_15_20 - t8_15_21 - t8_15_22 - t8_15_23 - t8_16_17 - t8_16_18 - t8_16_19 - t8_16_20 - t8_16_21 - t8_16_22 - t8_16_23 - t8_17_18 - t8_17_19 - t8_17_20 - t8_17_21 - t8_17_22 - t8_17_23 - t8_18_19 - t8_18_20 - t8_18_21 - t8_18_22 - t8_18_23 - t8_19_20 - t8_19_21 - t8_19_22 - t8_19_23 - t8_20_21 - t8_20_22 - t8_20_23 - t8_21_22 - t8_21_23 - t8_22_23 = 0

k3deg9: d9 - t0_1_9 - t0_2_9 - t0_3_9 - t0_4_9 - t0_5_9 - t0_6_9 - t0_7_9 - t0_8_9 - t0_9_10 - t0_9_11 - t0_9_12 - t0_9_13 - t0_9_14 - t0_9_15 - t0_9_16 - t0_9_17 - t0_9_18 - t0_9_19 - t0_9_20 - t0_9_21 - t0_9_22 - t0_9_23 - t1_2_9 - t1_3_9 - t1_4_9 - t1_5_9 - t1_6_9 - t1_7_9 - t1_8_9 - t1_9_10 - t1_9_11 - t1_9_12 - t1_9_13 - t1_9_14 - t1_9_15 - t1_9_16 - t1_9_17 - t1_9_18 - t1_9_19 - t1_9_20 - t1_9_21 - t1_9_22 - t1_9_23 - t2_3_9 - t2_4_9 - t2_5_9 - t2_6_9 - t2_7_9 - t2_8_9 - t2_9_10 - t2_9_11 - t2_9_12 - t2_9_13 - t2_9_14 - t2_9_15 - t2_9_16 - t2_9_17 - t2_9_18 - t2_9_19 - t2_9_20 - t2_9_21 - t2_9_22 - t2_9_23 - t3_4_9 - t3_5_9 - t3_6_9 - t3_7_9 - t3_8_9 - t3_9_10 - t3_9_11 - t3_9_12 - t3_9_13 - t3_9_14 - t3_9_15 - t3_9_16 - t3_9_17 - t3_9_18 - t3_9_19 - t3_9_20 - t3_9_21 - t3_9_22 - t3_9_23 - t4_5_9 - t4_6_9 - t4_7_9 - t4_8_9 - t4_9_10 - t4_9_11 - t4_9_12 - t4_9_13 - t4_9_14 - t4_9_15 - t4_9_16 - t4_9_17 - t4_9_18 - t4_9_19 - t4_9_20 - t4_9_21 - t4_9_22 - t4_9_23 - t5_6_9 - t5_7_9 - t5_8_9 - t5_9_10 - t5_9_11 - t5_9_12 - t5_9_13 - t5_9_14 - t5_9_15 - t5_9_16 - t5_9_17 - t5_9_18 - t5_9_19 - t5_9_20 - t5_9_21 - t5_9_22 - t5_9_23 - t6_7_9 - t6_8_9 - t6_9_10 - t6_9_11 - t6_9_12 - t6_9_13 - t6_9_14 - t6_9_15 - t6_9_16 - t6_9_17 - t6_9_18 - t6_9_19 - t6_9_20 - t6_9_21 - t6_9_22 - t6_9_23 - t7_8_9 - t7_9_10 - t7_9_11 - t7_9_12 - t7_9_13 - t7_9_14 - t7_9_15 - t7_9_16 - t7_9_17 - t7_9_18 - t7_9_19 - t7_9_20 - t7_9_21 - t7_9_22 - t7_9_23 - t8_9_10 - t8_9_11 - t8_9_12 - t8_9_13 - t8_9_14 - t8_9_15 - t8_9_16 - t8_9_17 - t8_9_18 - t8_9_19 - t8_9_20 - t8_9_21 - t8_9_22 - t8_9_23 - t9_10_11 - t9_10_12 - t9_10_13 - t9_10_14 - t9_10_15 - t9_10_16 - t9_10_17 - t9_10_18 - t9_10_19 - t9_10_20 - t9_10_21 - t9_10_22 - t9_10_23 - t9_11_12 - t9_11_13 - t9_11_14 - t9_11_15 - t9_11_16 - t9_11_17 - t9_11_18 - t9_11_19 - t9_11_20 - t9_11_21 - t9_11_22 - t9_11_23 - t9_12_13 - t9_12_14 - t9_12_15 - t9_12_16 - t9_12_17 - t9_12_18 - t9_12_19 - t9_12_20 - t9_12_21 - t9_12_22 - t9_12_23 - t9_13_14 - t9_13_15 - t9_13_16 - t9_13_17 - t9_13_18 - t9_13_19 - t9_13_20 - t9_13_21 - t9_13_22 - t9_13_23 - t9_14_15 - t9_14_16 - t9_14_17 - t9_14_18 - t9_14_19 - t9_14_20 - t9_14_21 - t9_14_22 - t9_14_23 - t9_15_16 - t9_15_17 - t9_15_18 - t9_15_19 - t9_15_20 - t9_15_21 - t9_15_22 - t9_15_23 - t9_16_17 - t9_16_18 - t9_16_19 - t9_16_20 - t9_16_21 - t9_16_22 - t9_16_23 - t9_17_18 - t9_17_19 - t9_17_20 - t9_17_21 - t9_17_22 - t9_17_23 - t9_18_19 - t9_18_20 - t9_18_21 - t9_18_22 - t9_18_23 - t9_19_20 - t9_19_21 - t9_19_22 - t9_19_23 - t9_20_21 - t9_20_22 - t9_20_23 - t9_21_22 - t9_21_23 - t9_22_23 = 0

k3deg10: d10 - t0_1_10 - t0_2_10 - t0_3_10 - t0_4_10 - t0_5_10 - t0_6_10 - t0_7_10 - t0_8_10 - t0_9_10 - t0_10_11 - t0_10_12 - t0_10_13 - t0_10_14 - t0_10_15 - t0_10_16 - t0_10_17 - t0_10_18 - t0_10_19 - t0_10_20 - t0_10_21 - t0_10_22 - t0_10_23 - t1_2_10 - t1_3_10 - t1_4_10 - t1_5_10 - t1_6_10 - t1_7_10 - t1_8_10 - t1_9_10 - t1_10_11 - t1_10_12 - t1_10_13 - t1_10_14 - t1_10_15 - t1_10_16 - t1_10_17 - t1_10_18 - t1_10_19 - t1_10_20 - t1_10_21 - t1_10_22 - t1_10_23 - t2_3_10 - t2_4_10 - t2_5_10 - t2_6_10 - t2_7_10 - t2_8_10 - t2_9_10 - t2_10_11 - t2_10_12 - t2_10_13 - t2_10_14 - t2_10_15 - t2_10_16 - t2_10_17 - t2_10_18 - t2_10_19 - t2_10_20 - t2_10_21 - t2_10_22 - t2_10_23 - t3_4_10 - t3_5_10 - t3_6_10 - t3_7_10 - t3_8_10 - t3_9_10 - t3_10_11 - t3_10_12 - t3_10_13 - t3_10_14 - t3_10_15 - t3_10_16 - t3_10_17 - t3_10_18 - t3_10_19 - t3_10_20 - t3_10_21 - t3_10_22 - t3_10_23 - t4_5_10 - t4_6_10 - t4_7_10 - t4_8_10 - t4_9_10 - t4_10_11 - t4_10_12 - t4_10_13 - t4_10_14 - t4_10_15 - t4_10_16 - t4_10_17 - t4_10_18 - t4_10_19 - t4_10_20 - t4_10_21 - t4_10_22 - t4_10_23 - t5_6_10 - t5_7_10 - t5_8_10 - t5_9_10 - t5_10_11 - t5_10_12 - t5_10_13 - t5_10_14 - t5_10_15 - t5_10_16 - t5_10_17 - t5_10_18 - t5_10_19 - t5_10_20 - t5_10_21 - t5_10_22 - t5_10_23 - t6_7_10 - t6_8_10 - t6_9_10 - t6_10_11 - t6_10_12 - t6_10_13 - t6_10_14 - t6_10_15 - t6_10_16 - t6_10_17 - t6_10_18 - t6_10_19 - t6_10_20 - t6_10_21 - t6_10_22 - t6_10_23 - t7_8_10 - t7_9_10 - t7_10_11 - t7_10_12 - t7_10_13 - t7_10_14 - t7_10_15 - t7_10_16 - t7_10_17 - t7_10_18 - t7_10_19 - t7_10_20 - t7_10_21 - t7_10_22 - t7_10_23 - t8_9_10 - t8_10_11 - t8_10_12 - t8_10_13 - t8_10_14 - t8_10_15 - t8_10_16 - t8_10_17 - t8_10_18 - t8_10_19 - t8_10_20 - t8_10_21 - t8_10_22 - t8_10_23 - t9_10_11 - t9_10_12 - t9_10_13 - t9_10_14 - t9_10_15 - t9_10_16 - t9_10_17 - t9_10_18 - t9_10_19 - t9_10_20 - t9_10_21 - t9_10_22 - t9_10_23 - t10_11_12 - t10_11_13 - t10_11_14 - t10_11_15 - t10_11_16 - t10_11_17 - t10_11_18 - t10_11_19 - t10_11_20 - t10_11_21 - t10_11_22 - t10_11_23 - t10_12_13 - t10_12_14 - t10_12_15 - t10_12_16 - t10_12_17 - t10_12_18 - t10_12_19 - t10_12_20 - t10_12_21 - t10_12_22 - t10_12_23 - t10_13_14 - t10_13_15 - t10_13_16 - t10_13_17 - t10_13_18 - t10_13_19 - t10_13_20 - t10_13_21 - t10_13_22 - t10_13_23 - t10_14_15 - t10_14_16 - t10_14_17 - t10_14_18 - t10_14_19 - t10_14_20 - t10_14_21 - t10_14_22 - t10_14_23 - t10_15_16 - t10_15_17 - t10_15_18 - t10_15_19 - t10_15_20 - t10_15_21 - t10_15_22 - t10_15_23 - t10_16_17 - t10_16_18 - t10_16_19 - t10_16_20 - t10_16_21 - t10_16_22 - t10_16_23 - t10_17_18 - t10_17_19 - t10_17_20 - t10_17_21 - t10_17_22 - t10_17_23 - t10_18_19 - t10_18_20 - t10_18_21 - t10_18_22 - t10_18_23 - t10_19_20 - t10_19_21 - t10_19_22 - t10_19_23 - t10_20_21 - t10_20_22 - t10_20_23 - t10_21_22 - t10_21_23 - t10_22_23 = 0

k3deg11: d11 - t0_1_11 - t0_2_11 - t0_3_11 - t0_4_11 - t0_5_11 - t0_6_11 - t0_7_11 - t0_8_11 - t0_9_11 - t0_10_11 - t0_11_12 - t0_11_13 - t0_11_14 - t0_11_15 - t0_11_16 - t0_11_17 - t0_11_18 - t0_11_19 - t0_11_20 - t0_11_21 - t0_11_22 - t0_11_23 - t1_2_11 - t1_3_11 - t1_4_11 - t1_5_11 - t1_6_11 - t1_7_11 - t1_8_11 - t1_9_11 - t1_10_11 - t1_11_12 - t1_11_13 - t1_11_14 - t1_11_15 - t1_11_16 - t1_11_17 - t1_11_18 - t1_11_19 - t1_11_20 - t1_11_21 - t1_11_22 - t1_11_23 - t2_3_11 - t2_4_11 - t2_5_11 - t2_6_11 - t2_7_11 - t2_8_11 - t2_9_11 - t2_10_11 - t2_11_12 - t2_11_13 - t2_11_14 - t2_11_15 - t2_11_16 - t2_11_17 - t2_11_18 - t2_11_19 - t2_11_20 - t2_11_21 - t2_11_22 - t2_11_23 - t3_4_11 - t3_5_11 - t3_6_11 - t3_7_11 - t3_8_11 - t3_9_11 - t3_10_11 - t3_11_12 - t3_11_13 - t3_11_14 - t3_11_15 - t3_11_16 - t3_11_17 - t3_11_18 - t3_11_19 - t3_11_20 - t3_11_21 - t3_11_22 - t3_11_23 - t4_5_11 - t4_6_11 - t4_7_11 - t4_8_11 - t4_9_11 - t4_10_11 - t4_11_12 - t4_11_13 - t4_11_14 - t4_11_15 - t4_11_16 - t4_11_17 - t4_11_18 - t4_11_19 - t4_11_20 - t4_11_21 - t4_11_22 - t4_11_23 - t5_6_11 - t5_7_11 - t5_8_11 - t5_9_11 - t5_10_11 - t5_11_12 - t5_11_13 - t5_11_14 - t5_11_15 - t5_11_16 - t5_11_17 - t5_11_18 - t5_11_19 - t5_11_20 - t5_11_21 - t5_11_22 - t5_11_23 - t6_7_11 - t6_8_11 - t6_9_11 - t6_10_11 - t6_11_12 - t6_11_13 - t6_11_14 - t6_11_15 - t6_11_16 - t6_11_17 - t6_11_18 - t6_11_19 - t6_11_20 - t6_11_21 - t6_11_22 - t6_11_23 - t7_8_11 - t7_9_11 - t7_10_11 - t7_11_12 - t7_11_13 - t7_11_14 - t7_11_15 - t7_11_16 - t7_11_17 - t7_11_18 - t7_11_19 - t7_11_20 - t7_11_21 - t7_11_22 - t7_11_23 - t8_9_11 - t8_10_11 - t8_11_12 - t8_11_13 - t8_11_14 - t8_11_15 - t8_11_16 - t8_11_17 - t8_11_18 - t8_11_19 - t8_11_20 - t8_11_21 - t8_11_22 - t8_11_23 - t9_10_11 - t9_11_12 - t9_11_13 - t9_11_14 - t9_11_15 - t9_11_16 - t9_11_17 - t9_11_18 - t9_11_19 - t9_11_20 - t9_11_21 - t9_11_22 - t9_11_23 - t10_11_12 - t10_11_13 - t10_11_14 - t10_11_15 - t10_11_16 - t10_11_17 - t10_11_18 - t10_11_19 - t10_11_20 - t10_11_21 - t10_11_22 - t10_11_23 - t11_12_13 - t11_12_14 - t11_12_15 - t11_12_16 - t11_12_17 - t11_12_18 - t11_12_19 - t11_12_20 - t11_12_21 - t11_12_22 - t11_12_23 - t11_13_14 - t11_13_15 - t11_13_16 - t11_13_17 - t11_13_18 - t11_13_19 - t11_13_20 - t11_13_21 - t11_13_22 - t11_13_23 - t11_14_15 - t11_14_16 - t11_14_17 - t11_14_18 - t11_14_19 - t11_14_20 - t11_14_21 - t11_14_22 - t11_14_23 - t11_15_16 - t11_15_17 - t11_15_18 - t11_15_19 - t11_15_20 - t11_15_21 - t11_15_22 - t11_15_23 - t11_16_17 - t11_16_18 - t11_16_19 - t11_16_20 - t11_16_21 - t11_16_22 - t11_16_23 - t11_17_18 - t11_17_19 - t11_17_20 - t11_17_21 - t11_17_22 - t11_17_23 - t11_18_19 - t11_18_20 - t11_18_21 - t11_18_22 - t11_18_23 - t11_19_20 - t11_19_21 - t11_19_22 - t11_19_23 - t11_20_21 - t11_20_22 - t11_20_23 - t11_21_22 - t11_21_23 - t11_22_23 = 0

k3deg12: d12 - t0_1_12 - t0_2_12 - t0_3_12 - t0_4_12 - t0_5_12 - t0_6_12 - t0_7_12 - t0_8_12 - t0_9_12 - t0_10_12 - t0_11_12 - t0_12_13 - t0_12_14 - t0_12_15 - t0_12_16 - t0_12_17 - t0_12_18 - t0_12_19 - t0_12_20 - t0_12_21 - t0_12_22 - t0_12_23 - t1_2_12 - t1_3_12 - t1_4_12 - t1_5_12 - t1_6_12 - t1_7_12 - t1_8_12 - t1_9_12 - t1_10_12 - t1_11_12 - t1_12_13 - t1_12_14 - t1_12_15 - t1_12_16 - t1_12_17 - t1_12_18 - t1_12_19 - t1_12_20 - t1_12_21 - t1_12_22 - t1_12_23 - t2_3_12 - t2_4_12 - t2_5_12 - t2_6_12 - t2_7_12 - t2_8_12 - t2_9_12 - t2_10_12 - t2_11_12 - t2_12_13 - t2_12_14 - t2_12_15 - t2_12_16 - t2_12_17 - t2_12_18 - t2_12_19 - t2_12_20 - t2_12_21 - t2_12_22 - t2_12_23 - t3_4_12 - t3_5_12 - t3_6_12 - t3_7_12 - t3_8_12 - t3_9_12 - t3_10_12 - t3_11_12 - t3_12_13 - t3_12_14 - t3_12_15 - t3_12_16 - t3_12_17 - t3_12_18 - t3_12_19 - t3_12_20 - t3_12_21 - t3_12_22 - t3_12_23 - t4_5_12 - t4_6_12 - t4_7_12 - t4_8_12 - t4_9_12 - t4_10_12 - t4_11_12 - t4_12_13 - t4_12_14 - t4_12_15 - t4_12_16 - t4_12_17 - t4_12_18 - t4_12_19 - t4_12_20 - t4_12_21 - t4_12_22 - t4_12_23 - t5_6_12 - t5_7_12 - t5_8_12 - t5_9_12 - t5_10_12 - t5_11_12 - t5_12_13 - t5_12_14 - t5_12_15 - t5_12_16 - t5_12_17 - t5_12_18 - t5_12_19 - t5_12_20 - t5_12_21 - t5_12_22 - t5_12_23 - t6_7_12 - t6_8_12 - t6_9_12 - t6_10_12 - t6_11_12 - t6_12_13 - t6_12_14 - t6_12_15 - t6_12_16 - t6_12_17 - t6_12_18 - t6_12_19 - t6_12_20 - t6_12_21 - t6_12_22 - t6_12_23 - t7_8_12 - t7_9_12 - t7_10_12 - t7_11_12 - t7_12_13 - t7_12_14 - t7_12_15 - t7_12_16 - t7_12_17 - t7_12_18 - t7_12_19 - t7_12_20 - t7_12_21 - t7_12_22 - t7_12_23 - t8_9_12 - t8_10_12 - t8_11_12 - t8_12_13 - t8_12_14 - t8_12_15 - t8_12_16 - t8_12_17 - t8_12_18 - t8_12_19 - t8_12_20 - t8_12_21 - t8_12_22 - t8_12_23 - t9_10_12 - t9_11_12 - t9_12_13 - t9_12_14 - t9_12_15 - t9_12_16 - t9_12_17 - t9_12_18 - t9_12_19 - t9_12_20 - t9_12_21 - t9_12_22 - t9_12_23 - t10_11_12 - t10_12_13 - t10_12_14 - t10_12_15 - t10_12_16 - t10_12_17 - t10_12_18 - t10_12_19 - t10_12_20 - t10_12_21 - t10_12_22 - t10_12_23 - t11_12_13 - t11_12_14 - t11_12_15 - t11_12_16 - t11_12_17 - t11_12_18 - t11_12_19 - t11_12_20 - t11_12_21 - t11_12_22 - t11_12_23 - t12_13_14 - t12_13_15 - t12_13_16 - t12_13_17 - t12_13_18 - t12_13_19 - t12_13_20 - t12_13_21 - t12_13_22 - t12_13_23 - t12_14_15 - t12_14_16 - t12_14_17 - t12_14_18 - t12_14_19 - t12_14_20 - t12_14_21 - t12_14_22 - t12_14_23 - t12_15_16 - t12_15_17 - t12_15_18 - t12_15_19 - t12_15_20 - t12_15_21 - t12_15_22 - t12_15_23 - t12_16_17 - t12_16_18 - t12_16_19 - t12_16_20 - t12_16_21 - t12_16_22 - t12_16_23 - t12_17_18 - t12_17_19 - t12_17_20 - t12_17_21 - t12_17_22 - t12_17_23 - t12_18_19 - t12_18_20 - t12_18_21 - t12_18_22 - t12_18_23 - t12_19_20 - t12_19_21 - t12_19_22 - t12_19_23 - t12_20_21 - t12_20_22 - t12_20_23 - t12_21_22 - t12_21_23 - t12_22_23 = 0

k3deg13: d13 - t0_1_13 - t0_2_13 - t0_3_13 - t0_4_13 - t0_5_13 - t0_6_13 - t0_7_13 - t0_8_13 - t0_9_13 - t0_10_13 - t0_11_13 - t0_12_13 - t0_13_14 - t0_13_15 - t0_13_16 - t0_13_17 - t0_13_18 - t0_13_19 - t0_13_20 - t0_13_21 - t0_13_22 - t0_13_23 - t1_2_13 - t1_3_13 - t1_4_13 - t1_5_13 - t1_6_13 - t1_7_13 - t1_8_13 - t1_9_13 - t1_10_13 - t1_11_13 - t1_12_13 - t1_13_14 - t1_13_15 - t1_13_16 - t1_13_17 - t1_13_18 - t1_13_19 - t1_13_20 - t1_13_21 - t1_13_22 - t1_13_23 - t2_3_13 - t2_4_13 - t2_5_13 - t2_6_13 - t2_7_13 - t2_8_13 - t2_9_13 - t2_10_13 - t2_11_13 - t2_12_13 - t2_13_14 - t2_13_15 - t2_13_16 - t2_13_17 - t2_13_18 - t2_13_19 - t2_13_20 - t2_13_21 - t2_13_22 - t2_13_23 - t3_4_13 - t3_5_13 - t3_6_13 - t3_7_13 - t3_8_13 - t3_9_13 - t3_10_13 - t3_11_13 - t3_12_13 - t3_13_14 - t3_13_15 - t3_13_16 - t3_13_17 - t3_13_18 - t3_13_19 - t3_13_20 - t3_13_21 - t3_13_22 - t3_13_23 - t4_5_13 - t4_6_13 - t4_7_13 - t4_8_13 - t4_9_13 - t4_10_13 - t4_11_13 - t4_12_13 - t4_13_14 - t4_13_15 - t4_13_16 - t4_13_17 - t4_13_18 - t4_13_19 - t4_13_20 - t4_13_21 - t4_13_22 - t4_13_23 - t5_6_13 - t5_7_13 - t5_8_13 - t5_9_13 - t5_10_13 - t5_11_13 - t5_12_13 - t5_13_14 - t5_13_15 - t5_13_16 - t5_13_17 - t5_13_18 - t5_13_19 - t5_13_20 - t5_13_21 - t5_13_22 - t5_13_23 - t6_7_13 - t6_8_13 - t6_9_13 - t6_10_13 - t6_11_13 - t6_12_13 - t6_13_14 - t6_13_15 - t6_13_16 - t6_13_17 - t6_13_18 - t6_13_19 - t6_13_20 - t6_13_21 - t6_13_22 - t6_13_23 - t7_8_13 - t7_9_13 - t7_10_13 - t7_11_13 - t7_12_13 - t7_13_14 - t7_13_15 - t7_13_16 - t7_13_17 - t7_13_18 - t7_13_19 - t7_13_20 - t7_13_21 - t7_13_22 - t7_13_23 - t8_9_13 - t8_10_13 - t8_11_13 - t8_12_13 - t8_13_14 - t8_13_15 - t8_13_16 - t8_13_17 - t8_13_18 - t8_13_19 - t8_13_20 - t8_13_21 - t8_13_22 - t8_13_23 - t9_10_13 - t9_11_13 - t9_12_13 - t9_13_14 - t9_13_15 - t9_13_16 - t9_13_17 - t9_13_18 - t9_13_19 - t9_13_20 - t9_13_21 - t9_13_22 - t9_13_23 - t10_11_13 - t10_12_13 - t10_13_14 - t10_13_15 - t10_13_16 - t10_13_17 - t10_13_18 - t10_13_19 - t10_13_20 - t10_13_21 - t10_13_22 - t10_13_23 - t11_12_13 - t11_13_14 - t11_13_15 - t11_13_16 - t11_13_17 - t11_13_18 - t11_13_19 - t11_13_20 - t11_13_21 - t11_13_22 - t11_13_23 - t12_13_14 - t12_13_15 - t12_13_16 - t12_13_17 - t12_13_18 - t12_13_19 - t12_13_20 - t12_13_21 - t12_13_22 - t12_13_23 - t13_14_15 - t13_14_16 - t13_14_17 - t13_14_18 - t13_14_19 - t13_14_20 - t13_14_21 - t13_14_22 - t13_14_23 - t13_15_16 - t13_15_17 - t13_15_18 - t13_15_19 - t13_15_20 - t13_15_21 - t13_15_22 - t13_15_23 - t13_16_17 - t13_16_18 - t13_16_19 - t13_16_20 - t13_16_21 - t13_16_22 - t13_16_23 - t13_17_18 - t13_17_19 - t13_17_20 - t13_17_21 - t13_17_22 - t13_17_23 - t13_18_19 - t13_18_20 - t13_18_21 - t13_18_22 - t13_18_23 - t13_19_20 - t13_19_21 - t13_19_22 - t13_19_23 - t13_20_21 - t13_20_22 - t13_20_23 - t13_21_22 - t13_21_23 - t13_22_23 = 0

k3deg14: d14 - t0_1_14 - t0_2_14 - t0_3_14 - t0_4_14 - t0_5_14 - t0_6_14 - t0_7_14 - t0_8_14 - t0_9_14 - t0_10_14 - t0_11_14 - t0_12_14 - t0_13_14 - t0_14_15 - t0_14_16 - t0_14_17 - t0_14_18 - t0_14_19 - t0_14_20 - t0_14_21 - t0_14_22 - t0_14_23 - t1_2_14 - t1_3_14 - t1_4_14 - t1_5_14 - t1_6_14 - t1_7_14 - t1_8_14 - t1_9_14 - t1_10_14 - t1_11_14 - t1_12_14 - t1_13_14 - t1_14_15 - t1_14_16 - t1_14_17 - t1_14_18 - t1_14_19 - t1_14_20 - t1_14_21 - t1_14_22 - t1_14_23 - t2_3_14 - t2_4_14 - t2_5_14 - t2_6_14 - t2_7_14 - t2_8_14 - t2_9_14 - t2_10_14 - t2_11_14 - t2_12_14 - t2_13_14 - t2_14_15 - t2_14_16 - t2_14_17 - t2_14_18 - t2_14_19 - t2_14_20 - t2_14_21 - t2_14_22 - t2_14_23 - t3_4_14 - t3_5_14 - t3_6_14 - t3_7_14 - t3_8_14 - t3_9_14 - t3_10_14 - t3_11_14 - t3_12_14 - t3_13_14 - t3_14_15 - t3_14_16 - t3_14_17 - t3_14_18 - t3_14_19 - t3_14_20 - t3_14_21 - t3_14_22 - t3_14_23 - t4_5_14 - t4_6_14 - t4_7_14 - t4_8_14 - t4_9_14 - t4_10_14 - t4_11_14 - t4_12_14 - t4_13_14 - t4_14_15 - t4_14_16 - t4_14_17 - t4_14_18 - t4_14_19 - t4_14_20 - t4_14_21 - t4_14_22 - t4_14_23 - t5_6_14 - t5_7_14 - t5_8_14 - t5_9_14 - t5_10_14 - t5_11_14 - t5_12_14 - t5_13_14 - t5_14_15 - t5_14_16 - t5_14_17 - t5_14_18 - t5_14_19 - t5_14_20 - t5_14_21 - t5_14_22 - t5_14_23 - t6_7_14 - t6_8_14 - t6_9_14 - t6_10_14 - t6_11_14 - t6_12_14 - t6_13_14 - t6_14_15 - t6_14_16 - t6_14_17 - t6_14_18 - t6_14_19 - t6_14_20 - t6_14_21 - t6_14_22 - t6_14_23 - t7_8_14 - t7_9_14 - t7_10_14 - t7_11_14 - t7_12_14 - t7_13_14 - t7_14_15 - t7_14_16 - t7_14_17 - t7_14_18 - t7_14_19 - t7_14_20 - t7_14_21 - t7_14_22 - t7_14_23 - t8_9_14 - t8_10_14 - t8_11_14 - t8_12_14 - t8_13_14 - t8_14_15 - t8_14_16 - t8_14_17 - t8_14_18 - t8_14_19 - t8_14_20 - t8_14_21 - t8_14_22 - t8_14_23 - t9_10_14 - t9_11_14 - t9_12_14 - t9_13_14 - t9_14_15 - t9_14_16 - t9_14_17 - t9_14_18 - t9_14_19 - t9_14_20 - t9_14_21 - t9_14_22 - t9_14_23 - t10_11_14 - t10_12_14 - t10_13_14 - t10_14_15 - t10_14_16 - t10_14_17 - t10_14_18 - t10_14_19 - t10_14_20 - t10_14_21 - t10_14_22 - t10_14_23 - t11_12_14 - t11_13_14 - t11_14_15 - t11_14_16 - t11_14_17 - t11_14_18 - t11_14_19 - t11_14_20 - t11_14_21 - t11_14_22 - t11_14_23 - t12_13_14 - t12_14_15 - t12_14_16 - t12_14_17 - t12_14_18 - t12_14_19 - t12_14_20 - t12_14_21 - t12_14_22 - t12_14_23 - t13_14_15 - t13_14_16 - t13_14_17 - t13_14_18 - t13_14_19 - t13_14_20 - t13_14_21 - t13_14_22 - t13_14_23 - t14_15_16 - t14_15_17 - t14_15_18 - t14_15_19 - t14_15_20 - t14_15_21 - t14_15_22 - t14_15_23 - t14_16_17 - t14_16_18 - t14_16_19 - t14_16_20 - t14_16_21 - t14_16_22 - t14_16_23 - t14_17_18 - t14_17_19 - t14_17_20 - t14_17_21 - t14_17_22 - t14_17_23 - t14_18_19 - t14_18_20 - t14_18_21 - t14_18_22 - t14_18_23 - t14_19_20 - t14_19_21 - t14_19_22 - t14_19_23 - t14_20_21 - t14_20_22 - t14_20_23 - t14_21_22 - t14_21_23 - t14_22_23 = 0

k3deg15: d15 - t0_1_15 - t0_2_15 - t0_3_15 - t0_4_15 - t0_5_15 - t0_6_15 - t0_7_15 - t0_8_15 - t0_9_15 - t0_10_15 - t0_11_15 - t0_12_15 - t0_13_15 - t0_14_15 - t0_15_16 - t0_15_17 - t0_15_18 - t0_15_19 - t0_15_20 - t0_15_21 - t0_15_22 - t0_15_23 - t1_2_15 - t1_3_15 - t1_4_15 - t1_5_15 - t1_6_15 - t1_7_15 - t1_8_15 - t1_9_15 - t1_10_15 - t1_11_15 - t1_12_15 - t1_13_15 - t1_14_15 - t1_15_16 - t1_15_17 - t1_15_18 - t1_15_19 - t1_15_20 - t1_15_21 - t1_15_22 - t1_15_23 - t2_3_15 - t2_4_15 - t2_5_15 - t2_6_15 - t2_7_15 - t2_8_15 - t2_9_15 - t2_10_15 - t2_11_15 - t2_12_15 - t2_13_15 - t2_14_15 - t2_15_16 - t2_15_17 - t2_15_18 - t2_15_19 - t2_15_20 - t2_15_21 - t2_15_22 - t2_15_23 - t3_4_15 - t3_5_15 - t3_6_15 - t3_7_15 - t3_8_15 - t3_9_15 - t3_10_15 - t3_11_15 - t3_12_15 - t3_13_15 - t3_14_15 - t3_15_16 - t3_15_17 - t3_15_18 - t3_15_19 - t3_15_20 - t3_15_21 - t3_15_22 - t3_15_23 - t4_5_15 - t4_6_15 - t4_7_15 - t4_8_15 - t4_9_15 - t4_10_15 - t4_11_15 - t4_12_15 - t4_13_15 - t4_14_15 - t4_15_16 - t4_15_17 - t4_15_18 - t4_15_19 - t4_15_20 - t4_15_21 - t4_15_22 - t4_15_23 - t5_6_15 - t5_7_15 - t5_8_15 - t5_9_15 - t5_10_15 - t5_11_15 - t5_12_15 - t5_13_15 - t5_14_15 - t5_15_16 - t5_15_17 - t5_15_18 - t5_15_19 - t5_15_20 - t5_15_21 - t5_15_22 - t5_15_23 - t6_7_15 - t6_8_15 - t6_9_15 - t6_10_15 - t6_11_15 - t6_12_15 - t6_13_15 - t6_14_15 - t6_15_16 - t6_15_17 - t6_15_18 - t6_15_19 - t6_15_20 - t6_15_21 - t6_15_22 - t6_15_23 - t7_8_15 - t7_9_15 - t7_10_15 - t7_11_15 - t7_12_15 - t7_13_15 - t7_14_15 - t7_15_16 - t7_15_17 - t7_15_18 - t7_15_19 - t7_15_20 - t7_15_21 - t7_15_22 - t7_15_23 - t8_9_15 - t8_10_15 - t8_11_15 - t8_12_15 - t8_13_15 - t8_14_15 - t8_15_16 - t8_15_17 - t8_15_18 - t8_15_19 - t8_15_20 - t8_15_21 - t8_15_22 - t8_15_23 - t9_10_15 - t9_11_15 - t9_12_15 - t9_13_15 - t9_14_15 - t9_15_16 - t9_15_17 - t9_15_18 - t9_15_19 - t9_15_20 - t9_15_21 - t9_15_22 - t9_15_23 - t10_11_15 - t10_12_15 - t10_13_15 - t10_14_15 - t10_15_16 - t10_15_17 - t10_15_18 - t10_15_19 - t10_15_20 - t10_15_21 - t10_15_22 - t10_15_23 - t11_12_15 - t11_13_15 - t11_14_15 - t11_15_16 - t11_15_17 - t11_15_18 - t11_15_19 - t11_15_20 - t11_15_21 - t11_15_22 - t11_15_23 - t12_13_15 - t12_14_15 - t12_15_16 - t12_15_17 - t12_15_18 - t12_15_19 - t12_15_20 - t12_15_21 - t12_15_22 - t12_15_23 - t13_14_15 - t13_15_16 - t13_15_17 - t13_15_18 - t13_15_19 - t13_15_20 - t13_15_21 - t13_15_22 - t13_15_23 - t14_15_16 - t14_15_17 - t14_15_18 - t14_15_19 - t14_15_20 - t14_15_21 - t14_15_22 - t14_15_23 - t15_16_17 - t15_16_18 - t15_16_19 - t15_16_20 - t15_16_21 - t15_16_22 - t15_16_23 - t15_17_18 - t15_17_19 - t15_17_20 - t15_17_21 - t15_17_22 - t15_17_23 - t15_18_19 - t15_18_20 - t15_18_21 - t15_18_22 - t15_18_23 - t15_19_20 - t15_19_21 - t15_19_22 - t15_19_23 - t15_20_21 - t15_20_22 - t15_20_23 - t15_21_22 - t15_21_23 - t15_22_23 = 0

k3deg16: d16 - t0_1_16 - t0_2_16 - t0_3_16 - t0_4_16 - t0_5_16 - t0_6_16 - t0_7_16 - t0_8_16 - t0_9_16 - t0_10_16 - t0_11_16 - t0_12_16 - t0_13_16 - t0_14_16 - t0_15_16 - t0_16_17 - t0_16_18 - t0_16_19 - t0_16_20 - t0_16_21 - t0_16_22 - t0_16_23 - t1_2_16 - t1_3_16 - t1_4_16 - t1_5_16 - t1_6_16 - t1_7_16 - t1_8_16 - t1_9_16 - t1_10_16 - t1_11_16 - t1_12_16 - t1_13_16 - t1_14_16 - t1_15_16 - t1_16_17 - t1_16_18 - t1_16_19 - t1_16_20 - t1_16_21 - t1_16_22 - t1_16_23 - t2_3_16 - t2_4_16 - t2_5_16 - t2_6_16 - t2_7_16 - t2_8_16 - t2_9_16 - t2_10_16 - t2_11_16 - t2_12_16 - t2_13_16 - t2_14_16 - t2_15_16 - t2_16_17 - t2_16_18 - t2_16_19 - t2_16_20 - t2_16_21 - t2_16_22 - t2_16_23 - t3_4_16 - t3_5_16 - t3_6_16 - t3_7_16 - t3_8_16 - t3_9_16 - t3_10_16 - t3_11_16 - t3_12_16 - t3_13_16 - t3_14_16 - t3_15_16 - t3_16_17 - t3_16_18 - t3_16_19 - t3_16_20 - t3_16_21 - t3_16_22 - t3_16_23 - t4_5_16 - t4_6_16 - t4_7_16 - t4_8_16 - t4_9_16 - t4_10_16 - t4_11_16 - t4_12_16 - t4_13_16 - t4_14_16 - t4_15_16 - t4_16_17 - t4_16_18 - t4_16_19 - t4_16_20 - t4_16_21 - t4_16_22 - t4_16_23 - t5_6_16 - t5_7_16 - t5_8_16 - t5_9_16 - t5_10_16 - t5_11_16 - t5_12_16 - t5_13_16 - t5_14_16 - t5_15_16 - t5_16_17 - t5_16_18 - t5_16_19 - t5_16_20 - t5_16_21 - t5_16_22 - t5_16_23 - t6_7_16 - t6_8_16 - t6_9_16 - t6_10_16 - t6_11_16 - t6_12_16 - t6_13_16 - t6_14_16 - t6_15_16 - t6_16_17 - t6_16_18 - t6_16_19 - t6_16_20 - t6_16_21 - t6_16_22 - t6_16_23 - t7_8_16 - t7_9_16 - t7_10_16 - t7_11_16 - t7_12_16 - t7_13_16 - t7_14_16 - t7_15_16 - t7_16_17 - t7_16_18 - t7_16_19 - t7_16_20 - t7_16_21 - t7_16_22 - t7_16_23 - t8_9_16 - t8_10_16 - t8_11_16 - t8_12_16 - t8_13_16 - t8_14_16 - t8_15_16 - t8_16_17 - t8_16_18 - t8_16_19 - t8_16_20 - t8_16_21 - t8_16_22 - t8_16_23 - t9_10_16 - t9_11_16 - t9_12_16 - t9_13_16 - t9_14_16 - t9_15_16 - t9_16_17 - t9_16_18 - t9_16_19 - t9_16_20 - t9_16_21 - t9_16_22 - t9_16_23 - t10_11_16 - t10_12_16 - t10_13_16 - t10_14_16 - t10_15_16 - t10_16_17 - t10_16_18 - t10_16_19 - t10_16_20 - t10_16_21 - t10_16_22 - t10_16_23 - t11_12_16 - t11_13_16 - t11_14_16 - t11_15_16 - t11_16_17 - t11_16_18 - t11_16_19 - t11_16_20 - t11_16_21 - t11_16_22 - t11_16_23 - t12_13_16 - t12_14_16 - t12_15_16 - t12_16_17 - t12_16_18 - t12_16_19 - t12_16_20 - t12_16_21 - t12_16_22 - t12_16_23 - t13_14_16 - t13_15_16 - t13_16_17 - t13_16_18 - t13_16_19 - t13_16_20 - t13_16_21 - t13_16_22 - t13_16_23 - t14_15_16 - t14_16_17 - t14_16_18 - t14_16_19 - t14_16_20 - t14_16_21 - t14_16_22 - t14_16_23 - t15_16_17 - t15_16_18 - t15_16_19 - t15_16_20 - t15_16_21 - t15_16_22 - t15_16_23 - t16_17_18 - t16_17_19 - t16_17_20 - t16_17_21 - t16_17_22 - t16_17_23 - t16_18_19 - t16_18_20 - t16_18_21 - t16_18_22 - t16_18_23 - t16_19_20 - t16_19_21 - t16_19_22 - t16_19_23 - t16_20_21 - t16_20_22 - t16_20_23 - t16_21_22 - t16_21_23 - t16_22_23 = 0

k3deg17: d17 - t0_1_17 - t0_2_17 - t0_3_17 - t0_4_17 - t0_5_17 - t0_6_17 - t0_7_17 - t0_8_17 - t0_9_17 - t0_10_17 - t0_11_17 - t0_12_17 - t0_13_17 - t0_14_17 - t0_15_17 - t0_16_17 - t0_17_18 - t0_17_19 - t0_17_20 - t0_17_21 - t0_17_22 - t0_17_23 - t1_2_17 - t1_3_17 - t1_4_17 - t1_5_17 - t1_6_17 - t1_7_17 - t1_8_17 - t1_9_17 - t1_10_17 - t1_11_17 - t1_12_17 - t1_13_17 - t1_14_17 - t1_15_17 - t1_16_17 - t1_17_18 - t1_17_19 - t1_17_20 - t1_17_21 - t1_17_22 - t1_17_23 - t2_3_17 - t2_4_17 - t2_5_17 - t2_6_17 - t2_7_17 - t2_8_17 - t2_9_17 - t2_10_17 - t2_11_17 - t2_12_17 - t2_13_17 - t2_14_17 - t2_15_17 - t2_16_17 - t2_17_18 - t2_17_19 - t2_17_20 - t2_17_21 - t2_17_22 - t2_17_23 - t3_4_17 - t3_5_17 - t3_6_17 - t3_7_17 - t3_8_17 - t3_9_17 - t3_10_17 - t3_11_17 - t3_12_17 - t3_13_17 - t3_14_17 - t3_15_17 - t3_16_17 - t3_17_18 - t3_17_19 - t3_17_20 - t3_17_21 - t3_17_22 - t3_17_23 - t4_5_17 - t4_6_17 - t4_7_17 - t4_8_17 - t4_9_17 - t4_10_17 - t4_11_17 - t4_12_17 - t4_13_17 - t4_14_17 - t4_15_17 - t4_16_17 - t4_17_18 - t4_17_19 - t4_17_20 - t4_17_21 - t4_17_22 - t4_17_23 - t5_6_17 - t5_7_17 - t5_8_17 - t5_9_17 - t5_10_17 - t5_11_17 - t5_12_17 - t5_13_17 - t5_14_17 - t5_15_17 - t5_16_17 - t5_17_18 - t5_17_19 - t5_17_20 - t5_17_21 - t5_17_22 - t5_17_23 - t6_7_17 - t6_8_17 - t6_9_17 - t6_10_17 - t6_11_17 - t6_12_17 - t6_13_17 - t6_14_17 - t6_15_17 - t6_16_17 - t6_17_18 - t6_17_19 - t6_17_20 - t6_17_21 - t6_17_22 - t6_17_23 - t7_8_17 - t7_9_17 - t7_10_17 - t7_11_17 - t7_12_17 - t7_13_17 - t7_14_17 - t7_15_17 - t7_16_17 - t7_17_18 - t7_17_19 - t7_17_20 - t7_17_21 - t7_17_22 - t7_17_23 - t8_9_17 - t8_10_17 - t8_11_17 - t8_12_17 - t8_13_17 - t8_14_17 - t8_15_17 - t8_16_17 - t8_17_18 - t8_17_19 - t8_17_20 - t8_17_21 - t8_17_22 - t8_17_23 - t9_10_17 - t9_11_17 - t9_12_17 - t9_13_17 - t9_14_17 - t9_15_17 - t9_16_17 - t9_17_18 - t9_17_19 - t9_17_20 - t9_17_21 - t9_17_22 - t9_17_23 - t10_11_17 - t10_12_17 - t10_13_17 - t10_14_17 - t10_15_17 - t10_16_17 - t10_17_18 - t10_17_19 - t10_17_20 - t10_17_21 - t10_17_22 - t10_17_23 - t11_12_17 - t11_13_17 - t11_14_17 - t11_15_17 - t11_16_17 - t11_17_18 - t11_17_19 - t11_17_20 - t11_17_21 - t11_17_22 - t11_17_23 - t12_13_17 - t12_14_17 - t12_15_17 - t12_16_17 - t12_17_18 - t12_17_19 - t12_17_20 - t12_17_21 - t12_17_22 - t12_17_23 - t13_14_17 - t13_15_17 - t13_16_17 - t13_17_18 - t13_17_19 - t13_17_20 - t13_17_21 - t13_17_22 - t13_17_23 - t14_15_17 - t14_16_17 - t14_17_18 - t14_17_19 - t14_17_20 - t14_17_21 - t14_17_22 - t14_17_23 - t15_16_17 - t15_17_18 - t15_17_19 - t15_17_20 - t15_17_21 - t15_17_22 - t15_17_23 - t16_17_18 - t16_17_19 - t16_17_20 - t16_17_21 - t16_17_22 - t16_17_23 - t17_18_19 - t17_18_20 - t17_18_21 - t17_18_22 - t17_18_23 - t17_19_20 - t17_19_21 - t17_19_22 - t17_19_23 - t17_20_21 - t17_20_22 - t17_20_23 - t17_21_22 - t17_21_23 - t17_22_23 = 0

k3deg18: d18 - t0_1_18 - t0_2_18 - t0_3_18 - t0_4_18 - t0_5_18 - t0_6_18 - t0_7_18 - t0_8_18 - t0_9_18 - t0_10_18 - t0_11_18 - t0_12_18 - t0_13_18 - t0_14_18 - t0_15_18 - t0_16_18 - t0_17_18 - t0_18_19 - t0_18_20 - t0_18_21 - t0_18_22 - t0_18_23 - t1_2_18 - t1_3_18 - t1_4_18 - t1_5_18 - t1_6_18 - t1_7_18 - t1_8_18 - t1_9_18 - t1_10_18 - t1_11_18 - t1_12_18 - t1_13_18 - t1_14_18 - t1_15_18 - t1_16_18 - t1_17_18 - t1_18_19 - t1_18_20 - t1_18_21 - t1_18_22 - t1_18_23 - t2_3_18 - t2_4_18 - t2_5_18 - t2_6_18 - t2_7_18 - t2_8_18 - t2_9_18 - t2_10_18 - t2_11_18 - t2_12_18 - t2_13_18 - t2_14_18 - t2_15_18 - t2_16_18 - t2_17_18 - t2_18_19 - t2_18_20 - t2_18_21 - t2_18_22 - t2_18_23 - t3_4_18 - t3_5_18 - t3_6_18 - t3_7_18 - t3_8_18 - t3_9_18 - t3_10_18 - t3_11_18 - t3_12_18 - t3_13_18 - t3_14_18 - t3_15_18 - t3_16_18 - t3_17_18 - t3_18_19 - t3_18_20 - t3_18_21 - t3_18_22 - t3_18_23 - t4_5_18 - t4_6_18 - t4_7_18 - t4_8_18 - t4_9_18 - t4_10_18 - t4_11_18 - t4_12_18 - t4_13_18 - t4_14_18 - t4_15_18 - t4_16_18 - t4_17_18 - t4_18_19 - t4_18_20 - t4_18_21 - t4_18_22 - t4_18_23 - t5_6_18 - t5_7_18 - t5_8_18 - t5_9_18 - t5_10_18 - t5_11_18 - t5_12_18 - t5_13_18 - t5_14_18 - t5_15_18 - t5_16_18 - t5_17_18 - t5_18_19 - t5_18_20 - t5_18_21 - t5_18_22 - t5_18_23 - t6_7_18 - t6_8_18 - t6_9_18 - t6_10_18 - t6_11_18 - t6_12_18 - t6_13_18 - t6_14_18 - t6_15_18 - t6_16_18 - t6_17_18 - t6_18_19 - t6_18_20 - t6_18_21 - t6_18_22 - t6_18_23 - t7_8_18 - t7_9_18 - t7_10_18 - t7_11_18 - t7_12_18 - t7_13_18 - t7_14_18 - t7_15_18 - t7_16_18 - t7_17_18 - t7_18_19 - t7_18_20 - t7_18_21 - t7_18_22 - t7_18_23 - t8_9_18 - t8_10_18 - t8_11_18 - t8_12_18 - t8_13_18 - t8_14_18 - t8_15_18 - t8_16_18 - t8_17_18 - t8_18_19 - t8_18_20 - t8_18_21 - t8_18_22 - t8_18_23 - t9_10_18 - t9_11_18 - t9_12_18 - t9_13_18 - t9_14_18 - t9_15_18 - t9_16_18 - t9_17_18 - t9_18_19 - t9_18_20 - t9_18_21 - t9_18_22 - t9_18_23 - t10_11_18 - t10_12_18 - t10_13_18 - t10_14_18 - t10_15_18 - t10_16_18 - t10_17_18 - t10_18_19 - t10_18_20 - t10_18_21 - t10_18_22 - t10_18_23 - t11_12_18 - t11_13_18 - t11_14_18 - t11_15_18 - t11_16_18 - t11_17_18 - t11_18_19 - t11_18_20 - t11_18_21 - t11_18_22 - t11_18_23 - t12_13_18 - t12_14_18 - t12_15_18 - t12_16_18 - t12_17_18 - t12_18_19 - t12_18_20 - t12_18_21 - t12_18_22 - t12_18_23 - t13_14_18 - t13_15_18 - t13_16_18 - t13_17_18 - t13_18_19 - t13_18_20 - t13_18_21 - t13_18_22 - t13_18_23 - t14_15_18 - t14_16_18 - t14_17_18 - t14_18_19 - t14_18_20 - t14_18_21 - t14_18_22 - t14_18_23 - t15_16_18 - t15_17_18 - t15_18_19 - t15_18_20 - t15_18_21 - t15_18_22 - t15_18_23 - t16_17_18 - t16_18_19 - t16_18_20 - t16_18_21 - t16_18_22 - t16_18_23 - t17_18_19 - t17_18_20 - t17_18_21 - t17_18_22 - t17_18_23 - t18_19_20 - t18_19_21 - t18_19_22 - t18_19_23 - t18_20_21 - t18_20_22 - t18_20_23 - t18_21_22 - t18_21_23 - t18_22_23 = 0

k3deg19: d19 - t0_1_19 - t0_2_19 - t0_3_19 - t0_4_19 - t0_5_19 - t0_6_19 - t0_7_19 - t0_8_19 - t0_9_19 - t0_10_19 - t0_11_19 - t0_12_19 - t0_13_19 - t0_14_19 - t0_15_19 - t0_16_19 - t0_17_19 - t0_18_19 - t0_19_20 - t0_19_21 - t0_19_22 - t0_19_23 - t1_2_19 - t1_3_19 - t1_4_19 - t1_5_19 - t1_6_19 - t1_7_19 - t1_8_19 - t1_9_19 - t1_10_19 - t1_11_19 - t1_12_19 - t1_13_19 - t1_14_19 - t1_15_19 - t1_16_19 - t1_17_19 - t1_18_19 - t1_19_20 - t1_19_21 - t1_19_22 - t1_19_23 - t2_3_19 - t2_4_19 - t2_5_19 - t2_6_19 - t2_7_19 - t2_8_19 - t2_9_19 - t2_10_19 - t2_11_19 - t2_12_19 - t2_13_19 - t2_14_19 - t2_15_19 - t2_16_19 - t2_17_19 - t2_18_19 - t2_19_20 - t2_19_21 - t2_19_22 - t2_19_23 - t3_4_19 - t3_5_19 - t3_6_19 - t3_7_19 - t3_8_19 - t3_9_19 - t3_10_19 - t3_11_19 - t3_12_19 - t3_13_19 - t3_14_19 - t3_15_19 - t3_16_19 - t3_17_19 - t3_18_19 - t3_19_20 - t3_19_21 - t3_19_22 - t3_19_23 - t4_5_19 - t4_6_19 - t4_7_19 - t4_8_19 - t4_9_19 - t4_10_19 - t4_11_19 - t4_12_19 - t4_13_19 - t4_14_19 - t4_15_19 - t4_16_19 - t4_17_19 - t4_18_19 - t4_19_20 - t4_19_21 - t4_19_22 - t4_19_23 - t5_6_19 - t5_7_19 - t5_8_19 - t5_9_19 - t5_10_19 - t5_11_19 - t5_12_19 - t5_13_19 - t5_14_19 - t5_15_19 - t5_16_19 - t5_17_19 - t5_18_19 - t5_19_20 - t5_19_21 - t5_19_22 - t5_19_23 - t6_7_19 - t6_8_19 - t6_9_19 - t6_10_19 - t6_11_19 - t6_12_19 - t6_13_19 - t6_14_19 - t6_15_19 - t6_16_19 - t6_17_19 - t6_18_19 - t6_19_20 - t6_19_21 - t6_19_22 - t6_19_23 - t7_8_19 - t7_9_19 - t7_10_19 - t7_11_19 - t7_12_19 - t7_13_19 - t7_14_19 - t7_15_19 - t7_16_19 - t7_17_19 - t7_18_19 - t7_19_20 - t7_19_21 - t7_19_22 - t7_19_23 - t8_9_19 - t8_10_19 - t8_11_19 - t8_12_19 - t8_13_19 - t8_14_19 - t8_15_19 - t8_16_19 - t8_17_19 - t8_18_19 - t8_19_20 - t8_19_21 - t8_19_22 - t8_19_23 - t9_10_19 - t9_11_19 - t9_12_19 - t9_13_19 - t9_14_19 - t9_15_19 - t9_16_19 - t9_17_19 - t9_18_19 - t9_19_20 - t9_19_21 - t9_19_22 - t9_19_23 - t10_11_19 - t10_12_19 - t10_13_19 - t10_14_19 - t10_15_19 - t10_16_19 - t10_17_19 - t10_18_19 - t10_19_20 - t10_19_21 - t10_19_22 - t10_19_23 - t11_12_19 - t11_13_19 - t11_14_19 - t11_15_19 - t11_16_19 - t11_17_19 - t11_18_19 - t11_19_20 - t11_19_21 - t11_19_22 - t11_19_23 - t12_13_19 - t12_14_19 - t12_15_19 - t12_16_19 - t12_17_19 - t12_18_19 - t12_19_20 - t12_19_21 - t12_19_22 - t12_19_23 - t13_14_19 - t13_15_19 - t13_16_19 - t13_17_19 - t13_18_19 - t13_19_20 - t13_19_21 - t13_19_22 - t13_19_23 - t14_15_19 - t14_16_19 - t14_17_19 - t14_18_19 - t14_19_20 - t14_19_21 - t14_19_22 - t14_19_23 - t15_16_19 - t15_17_19 - t15_18_19 - t15_19_20 - t15_19_21 - t15_19_22 - t15_19_23 - t16_17_19 - t16_18_19 - t16_19_20 - t16_19_21 - t16_19_22 - t16_19_23 - t17_18_19 - t17_19_20 - t17_19_21 - t17_19_22 - t17_19_23 - t18_19_20 - t18_19_21 - t18_19_22 - t18_19_23 - t19_20_21 - t19_20_22 - t19_20_23 - t19_21_22 - t19_21_23 - t19_22_23 = 0

k3deg20: d20 - t0_1_20 - t0_2_20 - t0_3_20 - t0_4_20 - t0_5_20 - t0_6_20 - t0_7_20 - t0_8_20 - t0_9_20 - t0_10_20 - t0_11_20 - t0_12_20 - t0_13_20 - t0_14_20 - t0_15_20 - t0_16_20 - t0_17_20 - t0_18_20 - t0_19_20 - t0_20_21 - t0_20_22 - t0_20_23 - t1_2_20 - t1_3_20 - t1_4_20 - t1_5_20 - t1_6_20 - t1_7_20 - t1_8_20 - t1_9_20 - t1_10_20 - t1_11_20 - t1_12_20 - t1_13_20 - t1_14_20 - t1_15_20 - t1_16_20 - t1_17_20 - t1_18_20 - t1_19_20 - t1_20_21 - t1_20_22 - t1_20_23 - t2_3_20 - t2_4_20 - t2_5_20 - t2_6_20 - t2_7_20 - t2_8_20 - t2_9_20 - t2_10_20 - t2_11_20 - t2_12_20 - t2_13_20 - t2_14_20 - t2_15_20 - t2_16_20 - t2_17_20 - t2_18_20 - t2_19_20 - t2_20_21 - t2_20_22 - t2_20_23 - t3_4_20 - t3_5_20 - t3_6_20 - t3_7_20 - t3_8_20 - t3_9_20 - t3_10_20 - t3_11_20 - t3_12_20 - t3_13_20 - t3_14_20 - t3_15_20 - t3_16_20 - t3_17_20 - t3_18_20 - t3_19_20 - t3_20_21 - t3_20_22 - t3_20_23 - t4_5_20 - t4_6_20 - t4_7_20 - t4_8_20 - t4_9_20 - t4_10_20 - t4_11_20 - t4_12_20 - t4_13_20 - t4_14_20 - t4_15_20 - t4_16_20 - t4_17_20 - t4_18_20 - t4_19_20 - t4_20_21 - t4_20_22 - t4_20_23 - t5_6_20 - t5_7_20 - t5_8_20 - t5_9_20 - t5_10_20 - t5_11_20 - t5_12_20 - t5_13_20 - t5_14_20 - t5_15_20 - t5_16_20 - t5_17_20 - t5_18_20 - t5_19_20 - t5_20_21 - t5_20_22 - t5_20_23 - t6_7_20 - t6_8_20 - t6_9_20 - t6_10_20 - t6_11_20 - t6_12_20 - t6_13_20 - t6_14_20 - t6_15_20 - t6_16_20 - t6_17_20 - t6_18_20 - t6_19_20 - t6_20_21 - t6_20_22 - t6_20_23 - t7_8_20 - t7_9_20 - t7_10_20 - t7_11_20 - t7_12_20 - t7_13_20 - t7_14_20 - t7_15_20 - t7_16_20 - t7_17_20 - t7_18_20 - t7_19_20 - t7_20_21 - t7_20_22 - t7_20_23 - t8_9_20 - t8_10_20 - t8_11_20 - t8_12_20 - t8_13_20 - t8_14_20 - t8_15_20 - t8_16_20 - t8_17_20 - t8_18_20 - t8_19_20 - t8_20_21 - t8_20_22 - t8_20_23 - t9_10_20 - t9_11_20 - t9_12_20 - t9_13_20 - t9_14_20 - t9_15_20 - t9_16_20 - t9_17_20 - t9_18_20 - t9_19_20 - t9_20_21 - t9_20_22 - t9_20_23 - t10_11_20 - t10_12_20 - t10_13_20 - t10_14_20 - t10_15_20 - t10_16_20 - t10_17_20 - t10_18_20 - t10_19_20 - t10_20_21 - t10_20_22 - t10_20_23 - t11_12_20 - t11_13_20 - t11_14_20 - t11_15_20 - t11_16_20 - t11_17_20 - t11_18_20 - t11_19_20 - t11_20_21 - t11_20_22 - t11_20_23 - t12_13_20 - t12_14_20 - t12_15_20 - t12_16_20 - t12_17_20 - t12_18_20 - t12_19_20 - t12_20_21 - t12_20_22 - t12_20_23 - t13_14_20 - t13_15_20 - t13_16_20 - t13_17_20 - t13_18_20 - t13_19_20 - t13_20_21 - t13_20_22 - t13_20_23 - t14_15_20 - t14_16_20 - t14_17_20 - t14_18_20 - t14_19_20 - t14_20_21 - t14_20_22 - t14_20_23 - t15_16_20 - t15_17_20 - t15_18_20 - t15_19_20 - t15_20_21 - t15_20_22 - t15_20_23 - t16_17_20 - t16_18_20 - t16_19_20 - t16_20_21 - t16_20_22 - t16_20_23 - t17_18_20 - t17_19_20 - t17_20_21 - t17_20_22 - t17_20_23 - t18_19_20 - t18_20_21 - t18_20_22 - t18_20_23 - t19_20_21 - t19_20_22 - t19_20_23 - t20_21_22 - t20_21_23 - t20_22_23 = 0

k3deg21: d21 - t0_1_21 - t0_2_21 - t0_3_21 - t0_4_21 - t0_5_21 - t0_6_21 - t0_7_21 - t0_8_21 - t0_9_21 - t0_10_21 - t0_11_21 - t0_12_21 - t0_13_21 - t0_14_21 - t0_15_21 - t0_16_21 - t0_17_21 - t0_18_21 - t0_19_21 - t0_20_21 - t0_21_22 - t0_21_23 - t1_2_21 - t1_3_21 - t1_4_21 - t1_5_21 - t1_6_21 - t1_7_21 - t1_8_21 - t1_9_21 - t1_10_21 - t1_11_21 - t1_12_21 - t1_13_21 - t1_14_21 - t1_15_21 - t1_16_21 - t1_17_21 - t1_18_21 - t1_19_21 - t1_20_21 - t1_21_22 - t1_21_23 - t2_3_21 - t2_4_21 - t2_5_21 - t2_6_21 - t2_7_21 - t2_8_21 - t2_9_21 - t2_10_21 - t2_11_21 - t2_12_21 - t2_13_21 - t2_14_21 - t2_15_21 - t2_16_21 - t2_17_21 - t2_18_21 - t2_19_21 - t2_20_21 - t2_21_22 - t2_21_23 - t3_4_21 - t3_5_21 - t3_6_21 - t3_7_21 - t3_8_21 - t3_9_21 - t3_10_21 - t3_11_21 - t3_12_21 - t3_13_21 - t3_14_21 - t3_15_21 - t3_16_21 - t3_17_21 - t3_18_21 - t3_19_21 - t3_20_21 - t3_21_22 - t3_21_23 - t4_5_21 - t4_6_21 - t4_7_21 - t4_8_21 - t4_9_21 - t4_10_21 - t4_11_21 - t4_12_21 - t4_13_21 - t4_14_21 - t4_15_21 - t4_16_21 - t4_17_21 - t4_18_21 - t4_19_21 - t4_20_21 - t4_21_22 - t4_21_23 - t5_6_21 - t5_7_21 - t5_8_21 - t5_9_21 - t5_10_21 - t5_11_21 - t5_12_21 - t5_13_21 - t5_14_21 - t5_15_21 - t5_16_21 - t5_17_21 - t5_18_21 - t5_19_21 - t5_20_21 - t5_21_22 - t5_21_23 - t6_7_21 - t6_8_21 - t6_9_21 - t6_10_21 - t6_11_21 - t6_12_21 - t6_13_21 - t6_14_21 - t6_15_21 - t6_16_21 - t6_17_21 - t6_18_21 - t6_19_21 - t6_20_21 - t6_21_22 - t6_21_23 - t7_8_21 - t7_9_21 - t7_10_21 - t7_11_21 - t7_12_21 - t7_13_21 - t7_14_21 - t7_15_21 - t7_16_21 - t7_17_21 - t7_18_21 - t7_19_21 - t7_20_21 - t7_21_22 - t7_21_23 - t8_9_21 - t8_10_21 - t8_11_21 - t8_12_21 - t8_13_21 - t8_14_21 - t8_15_21 - t8_16_21 - t8_17_21 - t8_18_21 - t8_19_21 - t8_20_21 - t8_21_22 - t8_21_23 - t9_10_21 - t9_11_21 - t9_12_21 - t9_13_21 - t9_14_21 - t9_15_21 - t9_16_21 - t9_17_21 - t9_18_21 - t9_19_21 - t9_20_21 - t9_21_22 - t9_21_23 - t10_11_21 - t10_12_21 - t10_13_21 - t10_14_21 - t10_15_21 - t10_16_21 - t10_17_21 - t10_18_21 - t10_19_21 - t10_20_21 - t10_21_22 - t10_21_23 - t11_12_21 - t11_13_21 - t11_14_21 - t11_15_21 - t11_16_21 - t11_17_21 - t11_18_21 - t11_19_21 - t11_20_21 - t11_21_22 - t11_21_23 - t12_13_21 - t12_14_21 - t12_15_21 - t12_16_21 - t12_17_21 - t12_18_21 - t12_19_21 - t12_20_21 - t12_21_22 - t12_21_23 - t13_14_21 - t13_15_21 - t13_16_21 - t13_17_21 - t13_18_21 - t13_19_21 - t13_20_21 - t13_21_22 - t13_21_23 - t14_15_21 - t14_16_21 - t14_17_21 - t14_18_21 - t14_19_21 - t14_20_21 - t14_21_22 - t14_21_23 - t15_16_21 - t15_17_21 - t15_18_21 - t15_19_21 - t15_20_21 - t15_21_22 - t15_21_23 - t16_17_21 - t16_18_21 - t16_19_21 - t16_20_21 - t16_21_22 - t16_21_23 - t17_18_21 - t17_19_21 - t17_20_21 - t17_21_22 - t17_21_23 - t18_19_21 - t18_20_21 - t18_21_22 - t18_21_23 - t19_20_21 - t19_21_22 - t19_21_23 - t20_21_22 - t20_21_23 - t21_22_23 = 0

k3deg22: d22 - t0_1_22 - t0_2_22 - t0_3_22 - t0_4_22 - t0_5_22 - t0_6_22 - t0_7_22 - t0_8_22 - t0_9_22 - t0_10_22 - t0_11_22 - t0_12_22 - t0_13_22 - t0_14_22 - t0_15_22 - t0_16_22 - t0_17_22 - t0_18_22 - t0_19_22 - t0_20_22 - t0_21_22 - t0_22_23 - t1_2_22 - t1_3_22 - t1_4_22 - t1_5_22 - t1_6_22 - t1_7_22 - t1_8_22 - t1_9_22 - t1_10_22 - t1_11_22 - t1_12_22 - t1_13_22 - t1_14_22 - t1_15_22 - t1_16_22 - t1_17_22 - t1_18_22 - t1_19_22 - t1_20_22 - t1_21_22 - t1_22_23 - t2_3_22 - t2_4_22 - t2_5_22 - t2_6_22 - t2_7_22 - t2_8_22 - t2_9_22 - t2_10_22 - t2_11_22 - t2_12_22 - t2_13_22 - t2_14_22 - t2_15_22 - t2_16_22 - t2_17_22 - t2_18_22 - t2_19_22 - t2_20_22 - t2_21_22 - t2_22_23 - t3_4_22 - t3_5_22 - t3_6_22 - t3_7_22 - t3_8_22 - t3_9_22 - t3_10_22 - t3_11_22 - t3_12_22 - t3_13_22 - t3_14_22 - t3_15_22 - t3_16_22 - t3_17_22 - t3_18_22 - t3_19_22 - t3_20_22 - t3_21_22 - t3_22_23 - t4_5_22 - t4_6_22 - t4_7_22 - t4_8_22 - t4_9_22 - t4_10_22 - t4_11_22 - t4_12_22 - t4_13_22 - t4_14_22 - t4_15_22 - t4_16_22 - t4_17_22 - t4_18_22 - t4_19_22 - t4_20_22 - t4_21_22 - t4_22_23 - t5_6_22 - t5_7_22 - t5_8_22 - t5_9_22 - t5_10_22 - t5_11_22 - t5_12_22 - t5_13_22 - t5_14_22 - t5_15_22 - t5_16_22 - t5_17_22 - t5_18_22 - t5_19_22 - t5_20_22 - t5_21_22 - t5_22_23 - t6_7_22 - t6_8_22 - t6_9_22 - t6_10_22 - t6_11_22 - t6_12_22 - t6_13_22 - t6_14_22 - t6_15_22 - t6_16_22 - t6_17_22 - t6_18_22 - t6_19_22 - t6_20_22 - t6_21_22 - t6_22_23 - t7_8_22 - t7_9_22 - t7_10_22 - t7_11_22 - t7_12_22 - t7_13_22 - t7_14_22 - t7_15_22 - t7_16_22 - t7_17_22 - t7_18_22 - t7_19_22 - t7_20_22 - t7_21_22 - t7_22_23 - t8_9_22 - t8_10_22 - t8_11_22 - t8_12_22 - t8_13_22 - t8_14_22 - t8_15_22 - t8_16_22 - t8_17_22 - t8_18_22 - t8_19_22 - t8_20_22 - t8_21_22 - t8_22_23 - t9_10_22 - t9_11_22 - t9_12_22 - t9_13_22 - t9_14_22 - t9_15_22 - t9_16_22 - t9_17_22 - t9_18_22 - t9_19_22 - t9_20_22 - t9_21_22 - t9_22_23 - t10_11_22 - t10_12_22 - t10_13_22 - t10_14_22 - t10_15_22 - t10_16_22 - t10_17_22 - t10_18_22 - t10_19_22 - t10_20_22 - t10_21_22 - t10_22_23 - t11_12_22 - t11_13_22 - t11_14_22 - t11_15_22 - t11_16_22 - t11_17_22 - t11_18_22 - t11_19_22 - t11_20_22 - t11_21_22 - t11_22_23 - t12_13_22 - t12_14_22 - t12_15_22 - t12_16_22 - t12_17_22 - t12_18_22 - t12_19_22 - t12_20_22 - t12_21_22 - t12_22_23 - t13_14_22 - t13_15_22 - t13_16_22 - t13_17_22 - t13_18_22 - t13_19_22 - t13_20_22 - t13_21_22 - t13_22_23 - t14_15_22 - t14_16_22 - t14_17_22 - t14_18_22 - t14_19_22 - t14_20_22 - t14_21_22 - t14_22_23 - t15_16_22 - t15_17_22 - t15_18_22 - t15_19_22 - t15_20_22 - t15_21_22 - t15_22_23 - t16_17_22 - t16_18_22 - t16_19_22 - t16_20_22 - t16_21_22 - t16_22_23 - t17_18_22 - t17_19_22 - t17_20_22 - t17_21_22 - t17_22_23 - t18_19_22 - t18_20_22 - t18_21_22 - t18_22_23 - t19_20_22 - t19_21_22 - t19_22_23 - t20_21_22 - t20_22_23 - t21_22_23 = 0

k3deg23: d23 - t0_1_23 - t0_2_23 - t0_3_23 - t0_4_23 - t0_5_23 - t0_6_23 - t0_7_23 - t0_8_23 - t0_9_23 - t0_10_23 - t0_11_23 - t0_12_23 - t0_13_23 - t0_14_23 - t0_15_23 - t0_16_23 - t0_17_23 - t0_18_23 - t0_19_23 - t0_20_23 - t0_21_23 - t0_22_23 - t1_2_23 - t1_3_23 - t1_4_23 - t1_5_23 - t1_6_23 - t1_7_23 - t1_8_23 - t1_9_23 - t1_10_23 - t1_11_23 - t1_12_23 - t1_13_23 - t1_14_23 - t1_15_23 - t1_16_23 - t1_17_23 - t1_18_23 - t1_19_23 - t1_20_23 - t1_21_23 - t1_22_23 - t2_3_23 - t2_4_23 - t2_5_23 - t2_6_23 - t2_7_23 - t2_8_23 - t2_9_23 - t2_10_23 - t2_11_23 - t2_12_23 - t2_13_23 - t2_14_23 - t2_15_23 - t2_16_23 - t2_17_23 - t2_18_23 - t2_19_23 - t2_20_23 - t2_21_23 - t2_22_23 - t3_4_23 - t3_5_23 - t3_6_23 - t3_7_23 - t3_8_23 - t3_9_23 - t3_10_23 - t3_11_23 - t3_12_23 - t3_13_23 - t3_14_23 - t3_15_23 - t3_16_23 - t3_17_23 - t3_18_23 - t3_19_23 - t3_20_23 - t3_21_23 - t3_22_23 - t4_5_23 - t4_6_23 - t4_7_23 - t4_8_23 - t4_9_23 - t4_10_23 - t4_11_23 - t4_12_23 - t4_13_23 - t4_14_23 - t4_15_23 - t4_16_23 - t4_17_23 - t4_18_23 - t4_19_23 - t4_20_23 - t4_21_23 - t4_22_23 - t5_6_23 - t5_7_23 - t5_8_23 - t5_9_23 - t5_10_23 - t5_11_23 - t5_12_23 - t5_13_23 - t5_14_23 - t5_15_23 - t5_16_23 - t5_17_23 - t5_18_23 - t5_19_23 - t5_20_23 - t5_21_23 - t5_22_23 - t6_7_23 - t6_8_23 - t6_9_23 - t6_10_23 - t6_11_23 - t6_12_23 - t6_13_23 - t6_14_23 - t6_15_23 - t6_16_23 - t6_17_23 - t6_18_23 - t6_19_23 - t6_20_23 - t6_21_23 - t6_22_23 - t7_8_23 - t7_9_23 - t7_10_23 - t7_11_23 - t7_12_23 - t7_13_23 - t7_14_23 - t7_15_23 - t7_16_23 - t7_17_23 - t7_18_23 - t7_19_23 - t7_20_23 - t7_21_23 - t7_22_23 - t8_9_23 - t8_10_23 - t8_11_23 - t8_12_23 - t8_13_23 - t8_14_23 - t8_15_23 - t8_16_23 - t8_17_23 - t8_18_23 - t8_19_23 - t8_20_23 - t8_21_23 - t8_22_23 - t9_10_23 - t9_11_23 - t9_12_23 - t9_13_23 - t9_14_23 - t9_15_23 - t9_16_23 - t9_17_23 - t9_18_23 - t9_19_23 - t9_20_23 - t9_21_23 - t9_22_23 - t10_11_23 - t10_12_23 - t10_13_23 - t10_14_23 - t10_15_23 - t10_16_23 - t10_17_23 - t10_18_23 - t10_19_23 - t10_20_23 - t10_21_23 - t10_22_23 - t11_12_23 - t11_13_23 - t11_14_23 - t11_15_23 - t11_16_23 - t11_17_23 - t11_18_23 - t11_19_23 - t11_20_23 - t11_21_23 - t11_22_23 - t12_13_23 - t12_14_23 - t12_15_23 - t12_16_23 - t12_17_23 - t12_18_23 - t12_19_23 - t12_20_23 - t12_21_23 - t12_22_23 - t13_14_23 - t13_15_23 - t13_16_23 - t13_17_23 - t13_18_23 - t13_19_23 - t13_20_23 - t13_21_23 - t13_22_23 - t14_15_23 - t14_16_23 - t14_17_23 - t14_18_23 - t14_19_23 - t14_20_23 - t14_21_23 - t14_22_23 - t15_16_23 - t15_17_23 - t15_18_23 - t15_19_23 - t15_20_23 - t15_21_23 - t15_22_23 - t16_17_23 - t16_18_23 - t16_19_23 - t16_20_23 - t16_21_23 - t16_22_23 - t17_18_23 - t17_19_23 - t17_20_23 - t17_21_23 - t17_22_23 - t18_19_23 - t18_20_23 - t18_21_23 - t18_22_23 - t19_20_23 - t19_21_23 - t19_22_23 - t20_21_23 - t20_22_23 - t21_22_23 = 0


sum_k3: d0 + d1 + d2 + d3 + d4 + d5 + d6 + d7 + d8 + d9 + d10 + d11 + d12 + d13 + d14 + d15 + d16 + d17 + d18 + d19 + d20 + d21 + d22 + d23 - 3 T = 0
bin_1_4: b_1_4 <= 1
neq1_1_4: d1 - d4 - 82 b_1_4 - 82 dup_1_4 <= -1
neq2_1_4: d4 - d1 + 82 b_1_4 - 82 dup_1_4 <= 81
bin_1_5: b_1_5 <= 1
neq1_1_5: d1 - d5 - 82 b_1_5 - 82 dup_1_5 <= -1
neq2_1_5: d5 - d1 + 82 b_1_5 - 82 dup_1_5 <= 81
bin_1_6: b_1_6 <= 1
neq1_1_6: d1 - d6 - 82 b_1_6 - 82 dup_1_6 <= -1
neq2_1_6: d6 - d1 + 82 b_1_6 - 82 dup_1_6 <= 81
bin_1_7: b_1_7 <= 1
neq1_1_7: d1 - d7 - 82 b_1_7 - 82 dup_1_7 <= -1
neq2_1_7: d7 - d1 + 82 b_1_7 - 82 dup_1_7 <= 81
bin_1_8: b_1_8 <= 1
neq1_1_8: d1 - d8 - 82 b_1_8 - 82 dup_1_8 <= -1
neq2_1_8: d8 - d1 + 82 b_1_8 - 82 dup_1_8 <= 81
bin_1_9: b_1_9 <= 1
neq1_1_9: d1 - d9 - 82 b_1_9 - 82 dup_1_9 <= -1
neq2_1_9: d9 - d1 + 82 b_1_9 - 82 dup_1_9 <= 81
bin_2_4: b_2_4 <= 1
neq1_2_4: d2 - d4 - 82 b_2_4 - 82 dup_2_4 <= -1
neq2_2_4: d4 - d2 + 82 b_2_4 - 82 dup_2_4 <= 81
bin_2_5: b_2_5 <= 1
neq1_2_5: d2 - d5 - 82 b_2_5 - 82 dup_2_5 <= -1
neq2_2_5: d5 - d2 + 82 b_2_5 - 82 dup_2_5 <= 81
bin_2_6: b_2_6 <= 1
neq1_2_6: d2 - d6 - 82 b_2_6 - 82 dup_2_6 <= -1
neq2_2_6: d6 - d2 + 82 b_2_6 - 82 dup_2_6 <= 81
bin_2_7: b_2_7 <= 1
neq1_2_7: d2 - d7 - 82 b_2_7 - 82 dup_2_7 <= -1
neq2_2_7: d7 - d2 + 82 b_2_7 - 82 dup_2_7 <= 81
bin_2_8: b_2_8 <= 1
neq1_2_8: d2 - d8 - 82 b_2_8 - 82 dup_2_8 <= -1
neq2_2_8: d8 - d2 + 82 b_2_8 - 82 dup_2_8 <= 81
bin_2_9: b_2_9 <= 1
neq1_2_9: d2 - d9 - 82 b_2_9 - 82 dup_2_9 <= -1
neq2_2_9: d9 - d2 + 82 b_2_9 - 82 dup_2_9 <= 81
bin_3_4: b_3_4 <= 1
neq1_3_4: d3 - d4 - 82 b_3_4 - 82 dup_3_4 <= -1
neq2_3_4: d4 - d3 + 82 b_3_4 - 82 dup_3_4 <= 81
bin_3_5: b_3_5 <= 1
neq1_3_5: d3 - d5 - 82 b_3_5 - 82 dup_3_5 <= -1
neq2_3_5: d5 - d3 + 82 b_3_5 - 82 dup_3_5 <= 81
bin_3_6: b_3_6 <= 1
neq1_3_6: d3 - d6 - 82 b_3_6 - 82 dup_3_6 <= -1
neq2_3_6: d6 - d3 + 82 b_3_6 - 82 dup_3_6 <= 81
bin_3_7: b_3_7 <= 1
neq1_3_7: d3 - d7 - 82 b_3_7 - 82 dup_3_7 <= -1
neq2_3_7: d7 - d3 + 82 b_3_7 - 82 dup_3_7 <= 81
bin_3_8: b_3_8 <= 1
neq1_3_8: d3 - d8 - 82 b_3_8 - 82 dup_3_8 <= -1
neq2_3_8: d8 - d3 + 82 b_3_8 - 82 dup_3_8 <= 81
bin_3_9: b_3_9 <= 1
neq1_3_9: d3 - d9 - 82 b_3_9 - 82 dup_3_9 <= -1
neq2_3_9: d9 - d3 + 82 b_3_9 - 82 dup_3_9 <= 81

bin_11_17: b_11_17 <= 1
neq1_11_17: d11 - d17 - 82 b_11_17 - 82 dup_11_17 <= -1
neq2_11_17: d17 - d11 + 82 b_11_17 - 82 dup_11_17 <= 81
bin_11_18: b_11_18 <= 1
neq1_11_18: d11 - d18 - 82 b_11_18 - 82 dup_11_18 <= -1
neq2_11_18: d18 - d11 + 82 b_11_18 - 82 dup_11_18 <= 81
bin_11_19: b_11_19 <= 1
neq1_11_19: d11 - d19 - 82 b_11_19 - 82 dup_11_19 <= -1
neq2_11_19: d19 - d11 + 82 b_11_19 - 82 dup_11_19 <= 81
bin_11_20: b_11_20 <= 1
neq1_11_20: d11 - d20 - 82 b_11_20 - 82 dup_11_20 <= -1
neq2_11_20: d20 - d11 + 82 b_11_20 - 82 dup_11_20 <= 81
bin_11_21: b_11_21 <= 1
neq1_11_21: d11 - d21 - 82 b_11_21 - 82 dup_11_21 <= -1
neq2_11_21: d21 - d11 + 82 b_11_21 - 82 dup_11_21 <= 81
bin_11_22: b_11_22 <= 1
neq1_11_22: d11 - d22 - 82 b_11_22 - 82 dup_11_22 <= -1
neq2_11_22: d22 - d11 + 82 b_11_22 - 82 dup_11_22 <= 81
bin_11_23: b_11_23 <= 1
neq1_11_23: d11 - d23 - 82 b_11_23 - 82 dup_11_23 <= -1
neq2_11_23: d23 - d11 + 82 b_11_23 - 82 dup_11_23 <= 81
bin_12_17: b_12_17 <= 1
neq1_12_17: d12 - d17 - 82 b_12_17 - 82 dup_12_17 <= -1
neq2_12_17: d17 - d12 + 82 b_12_17 - 82 dup_12_17 <= 81
bin_12_18: b_12_18 <= 1
neq1_12_18: d12 - d18 - 82 b_12_18 - 82 dup_12_18 <= -1
neq2_12_18: d18 - d12 + 82 b_12_18 - 82 dup_12_18 <= 81
bin_12_19: b_12_19 <= 1
neq1_12_19: d12 - d19 - 82 b_12_19 - 82 dup_12_19 <= -1
neq2_12_19: d19 - d12 + 82 b_12_19 - 82 dup_12_19 <= 81
bin_12_20: b_12_20 <= 1
neq1_12_20: d12 - d20 - 82 b_12_20 - 82 dup_12_20 <= -1
neq2_12_20: d20 - d12 + 82 b_12_20 - 82 dup_12_20 <= 81
bin_12_21: b_12_21 <= 1
neq1_12_21: d12 - d21 - 82 b_12_21 - 82 dup_12_21 <= -1
neq2_12_21: d21 - d12 + 82 b_12_21 - 82 dup_12_21 <= 81
bin_12_22: b_12_22 <= 1
neq1_12_22: d12 - d22 - 82 b_12_22 - 82 dup_12_22 <= -1
neq2_12_22: d22 - d12 + 82 b_12_22 - 82 dup_12_22 <= 81
bin_12_23: b_12_23 <= 1
neq1_12_23: d12 - d23 - 82 b_12_23 - 82 dup_12_23 <= -1
neq2_12_23: d23 - d12 + 82 b_12_23 - 82 dup_12_23 <= 81
bin_13_17: b_13_17 <= 1
neq1_13_17: d13 - d17 - 82 b_13_17 - 82 dup_13_17 <= -1
neq2_13_17: d17 - d13 + 82 b_13_17 - 82 dup_13_17 <= 81
bin_13_18: b_13_18 <= 1
neq1_13_18: d13 - d18 - 82 b_13_18 - 82 dup_13_18 <= -1
neq2_13_18: d18 - d13 + 82 b_13_18 - 82 dup_13_18 <= 81
bin_13_19: b_13_19 <= 1
neq1_13_19: d13 - d19 - 82 b_13_19 - 82 dup_13_19 <= -1
neq2_13_19: d19 - d13 + 82 b_13_19 - 82 dup_13_19 <= 81
bin_13_20: b_13_20 <= 1
neq1_13_20: d13 - d20 - 82 b_13_20 - 82 dup_13_20 <= -1
neq2_13_20: d20 - d13 + 82 b_13_20 - 82 dup_13_20 <= 81
bin_13_21: b_13_21 <= 1
neq1_13_21: d13 - d21 - 82 b_13_21 - 82 dup_13_21 <= -1
neq2_13_21: d21 - d13 + 82 b_13_21 - 82 dup_13_21 <= 81
bin_13_22: b_13_22 <= 1
neq1_13_22: d13 - d22 - 82 b_13_22 - 82 dup_13_22 <= -1
neq2_13_22: d22 - d13 + 82 b_13_22 - 82 dup_13_22 <= 81
bin_13_23: b_13_23 <= 1
neq1_13_23: d13 - d23 - 82 b_13_23 - 82 dup_13_23 <= -1
neq2_13_23: d23 - d13 + 82 b_13_23 - 82 dup_13_23 <= 81
bin_14_17: b_14_17 <= 1
neq1_14_17: d14 - d17 - 82 b_14_17 - 82 dup_14_17 <= -1
neq2_14_17: d17 - d14 + 82 b_14_17 - 82 dup_14_17 <= 81
bin_14_18: b_14_18 <= 1
neq1_14_18: d14 - d18 - 82 b_14_18 - 82 dup_14_18 <= -1
neq2_14_18: d18 - d14 + 82 b_14_18 - 82 dup_14_18 <= 81
bin_14_19: b_14_19 <= 1
neq1_14_19: d14 - d19 - 82 b_14_19 - 82 dup_14_19 <= -1
neq2_14_19: d19 - d14 + 82 b_14_19 - 82 dup_14_19 <= 81
bin_14_20: b_14_20 <= 1
neq1_14_20: d14 - d20 - 82 b_14_20 - 82 dup_14_20 <= -1
neq2_14_20: d20 - d14 + 82 b_14_20 - 82 dup_14_20 <= 81
bin_14_21: b_14_21 <= 1
neq1_14_21: d14 - d21 - 82 b_14_21 - 82 dup_14_21 <= -1
neq2_14_21: d21 - d14 + 82 b_14_21 - 82 dup_14_21 <= 81
bin_14_22: b_14_22 <= 1
neq1_14_22: d14 - d22 - 82 b_14_22 - 82 dup_14_22 <= -1
neq2_14_22: d22 - d14 + 82 b_14_22 - 82 dup_14_22 <= 81
bin_14_23: b_14_23 <= 1
neq1_14_23: d14 - d23 - 82 b_14_23 - 82 dup_14_23 <= -1
neq2_14_23: d23 - d14 + 82 b_14_23 - 82 dup_14_23 <= 81
bin_15_17: b_15_17 <= 1
neq1_15_17: d15 - d17 - 82 b_15_17 - 82 dup_15_17 <= -1
neq2_15_17: d17 - d15 + 82 b_15_17 - 82 dup_15_17 <= 81
bin_15_18: b_15_18 <= 1
neq1_15_18: d15 - d18 - 82 b_15_18 - 82 dup_15_18 <= -1
neq2_15_18: d18 - d15 + 82 b_15_18 - 82 dup_15_18 <= 81
bin_15_19: b_15_19 <= 1
neq1_15_19: d15 - d19 - 82 b_15_19 - 82 dup_15_19 <= -1
neq2_15_19: d19 - d15 + 82 b_15_19 - 82 dup_15_19 <= 81
bin_15_20: b_15_20 <= 1
neq1_15_20: d15 - d20 - 82 b_15_20 - 82 dup_15_20 <= -1
neq2_15_20: d20 - d15 + 82 b_15_20 - 82 dup_15_20 <= 81
bin_15_21: b_15_21 <= 1
neq1_15_21: d15 - d21 - 82 b_15_21 - 82 dup_15_21 <= -1
neq2_15_21: d21 - d15 + 82 b_15_21 - 82 dup_15_21 <= 81
bin_15_22: b_15_22 <= 1
neq1_15_22: d15 - d22 - 82 b_15_22 - 82 dup_15_22 <= -1
neq2_15_22: d22 - d15 + 82 b_15_22 - 82 dup_15_22 <= 81
bin_15_23: b_15_23 <= 1
neq1_15_23: d15 - d23 - 82 b_15_23 - 82 dup_15_23 <= -1
neq2_15_23: d23 - d15 + 82 b_15_23 - 82 dup_15_23 <= 81
bin_16_17: b_16_17 <= 1
neq1_16_17: d16 - d17 - 82 b_16_17 - 82 dup_16_17 <= -1
neq2_16_17: d17 - d16 + 82 b_16_17 - 82 dup_16_17 <= 81
bin_16_18: b_16_18 <= 1
neq1_16_18: d16 - d18 - 82 b_16_18 - 82 dup_16_18 <= -1
neq2_16_18: d18 - d16 + 82 b_16_18 - 82 dup_16_18 <= 81
bin_16_19: b_16_19 <= 1
neq1_16_19: d16 - d19 - 82 b_16_19 - 82 dup_16_19 <= -1
neq2_16_19: d19 - d16 + 82 b_16_19 - 82 dup_16_19 <= 81
bin_16_20: b_16_20 <= 1
neq1_16_20: d16 - d20 - 82 b_16_20 - 82 dup_16_20 <= -1
neq2_16_20: d20 - d16 + 82 b_16_20 - 82 dup_16_20 <= 81
bin_16_21: b_16_21 <= 1
neq1_16_21: d16 - d21 - 82 b_16_21 - 82 dup_16_21 <= -1
neq2_16_21: d21 - d16 + 82 b_16_21 - 82 dup_16_21 <= 81
bin_16_22: b_16_22 <= 1
neq1_16_22: d16 - d22 - 82 b_16_22 - 82 dup_16_22 <= -1
neq2_16_22: d22 - d16 + 82 b_16_22 - 82 dup_16_22 <= 81
bin_16_23: b_16_23 <= 1
neq1_16_23: d16 - d23 - 82 b_16_23 - 82 dup_16_23 <= -1
neq2_16_23: d23 - d16 + 82 b_16_23 - 82 dup_16_23 <= 81
bin_1_10: b_1_10 <= 1
neq1_1_10: d1 - d10 - 82 b_1_10 - 82 dup_1_10 <= -1
neq2_1_10: d10 - d1 + 82 b_1_10 - 82 dup_1_10 <= 81
bin_1_11: b_1_11 <= 1
neq1_1_11: d1 - d11 - 82 b_1_11 - 82 dup_1_11 <= -1
neq2_1_11: d11 - d1 + 82 b_1_11 - 82 dup_1_11 <= 81
bin_1_12: b_1_12 <= 1
neq1_1_12: d1 - d12 - 82 b_1_12 - 82 dup_1_12 <= -1
neq2_1_12: d12 - d1 + 82 b_1_12 - 82 dup_1_12 <= 81
bin_1_13: b_1_13 <= 1
neq1_1_13: d1 - d13 - 82 b_1_13 - 82 dup_1_13 <= -1
neq2_1_13: d13 - d1 + 82 b_1_13 - 82 dup_1_13 <= 81
bin_1_14: b_1_14 <= 1
neq1_1_14: d1 - d14 - 82 b_1_14 - 82 dup_1_14 <= -1
neq2_1_14: d14 - d1 + 82 b_1_14 - 82 dup_1_14 <= 81
bin_1_15: b_1_15 <= 1
neq1_1_15: d1 - d15 - 82 b_1_15 - 82 dup_1_15 <= -1
neq2_1_15: d15 - d1 + 82 b_1_15 - 82 dup_1_15 <= 81
bin_1_16: b_1_16 <= 1
neq1_1_16: d1 - d16 - 82 b_1_16 - 82 dup_1_16 <= -1
neq2_1_16: d16 - d1 + 82 b_1_16 - 82 dup_1_16 <= 81
bin_1_17: b_1_17 <= 1
neq1_1_17: d1 - d17 - 82 b_1_17 - 82 dup_1_17 <= -1
neq2_1_17: d17 - d1 + 82 b_1_17 - 82 dup_1_17 <= 81
bin_1_18: b_1_18 <= 1
neq1_1_18: d1 - d18 - 82 b_1_18 - 82 dup_1_18 <= -1
neq2_1_18: d18 - d1 + 82 b_1_18 - 82 dup_1_18 <= 81
bin_1_19: b_1_19 <= 1
neq1_1_19: d1 - d19 - 82 b_1_19 - 82 dup_1_19 <= -1
neq2_1_19: d19 - d1 + 82 b_1_19 - 82 dup_1_19 <= 81
bin_1_20: b_1_20 <= 1
neq1_1_20: d1 - d20 - 82 b_1_20 - 82 dup_1_20 <= -1
neq2_1_20: d20 - d1 + 82 b_1_20 - 82 dup_1_20 <= 81
bin_1_21: b_1_21 <= 1
neq1_1_21: d1 - d21 - 82 b_1_21 - 82 dup_1_21 <= -1
neq2_1_21: d21 - d1 + 82 b_1_21 - 82 dup_1_21 <= 81
bin_1_22: b_1_22 <= 1
neq1_1_22: d1 - d22 - 82 b_1_22 - 82 dup_1_22 <= -1
neq2_1_22: d22 - d1 + 82 b_1_22 - 82 dup_1_22 <= 81
bin_1_23: b_1_23 <= 1
neq1_1_23: d1 - d23 - 82 b_1_23 - 82 dup_1_23 <= -1
neq2_1_23: d23 - d1 + 82 b_1_23 - 82 dup_1_23 <= 81
bin_2_10: b_2_10 <= 1
neq1_2_10: d2 - d10 - 82 b_2_10 - 82 dup_2_10 <= -1
neq2_2_10: d10 - d2 + 82 b_2_10 - 82 dup_2_10 <= 81
bin_2_11: b_2_11 <= 1
neq1_2_11: d2 - d11 - 82 b_2_11 - 82 dup_2_11 <= -1
neq2_2_11: d11 - d2 + 82 b_2_11 - 82 dup_2_11 <= 81
bin_2_12: b_2_12 <= 1
neq1_2_12: d2 - d12 - 82 b_2_12 - 82 dup_2_12 <= -1
neq2_2_12: d12 - d2 + 82 b_2_12 - 82 dup_2_12 <= 81
bin_2_13: b_2_13 <= 1
neq1_2_13: d2 - d13 - 82 b_2_13 - 82 dup_2_13 <= -1
neq2_2_13: d13 - d2 + 82 b_2_13 - 82 dup_2_13 <= 81
bin_2_14: b_2_14 <= 1
neq1_2_14: d2 - d14 - 82 b_2_14 - 82 dup_2_14 <= -1
neq2_2_14: d14 - d2 + 82 b_2_14 - 82 dup_2_14 <= 81
bin_2_15: b_2_15 <= 1
neq1_2_15: d2 - d15 - 82 b_2_15 - 82 dup_2_15 <= -1
neq2_2_15: d15 - d2 + 82 b_2_15 - 82 dup_2_15 <= 81
bin_2_16: b_2_16 <= 1
neq1_2_16: d2 - d16 - 82 b_2_16 - 82 dup_2_16 <= -1
neq2_2_16: d16 - d2 + 82 b_2_16 - 82 dup_2_16 <= 81
bin_2_17: b_2_17 <= 1
neq1_2_17: d2 - d17 - 82 b_2_17 - 82 dup_2_17 <= -1
neq2_2_17: d17 - d2 + 82 b_2_17 - 82 dup_2_17 <= 81
bin_2_18: b_2_18 <= 1
neq1_2_18: d2 - d18 - 82 b_2_18 - 82 dup_2_18 <= -1
neq2_2_18: d18 - d2 + 82 b_2_18 - 82 dup_2_18 <= 81
bin_2_19: b_2_19 <= 1
neq1_2_19: d2 - d19 - 82 b_2_19 - 82 dup_2_19 <= -1
neq2_2_19: d19 - d2 + 82 b_2_19 - 82 dup_2_19 <= 81
bin_2_20: b_2_20 <= 1
neq1_2_20: d2 - d20 - 82 b_2_20 - 82 dup_2_20 <= -1
neq2_2_20: d20 - d2 + 82 b_2_20 - 82 dup_2_20 <= 81
bin_2_21: b_2_21 <= 1
neq1_2_21: d2 - d21 - 82 b_2_21 - 82 dup_2_21 <= -1
neq2_2_21: d21 - d2 + 82 b_2_21 - 82 dup_2_21 <= 81
bin_2_22: b_2_22 <= 1
neq1_2_22: d2 - d22 - 82 b_2_22 - 82 dup_2_22 <= -1
neq2_2_22: d22 - d2 + 82 b_2_22 - 82 dup_2_22 <= 81
bin_2_23: b_2_23 <= 1
neq1_2_23: d2 - d23 - 82 b_2_23 - 82 dup_2_23 <= -1
neq2_2_23: d23 - d2 + 82 b_2_23 - 82 dup_2_23 <= 81
bin_3_10: b_3_10 <= 1
neq1_3_10: d3 - d10 - 82 b_3_10 - 82 dup_3_10 <= -1
neq2_3_10: d10 - d3 + 82 b_3_10 - 82 dup_3_10 <= 81
bin_3_11: b_3_11 <= 1
neq1_3_11: d3 - d11 - 82 b_3_11 - 82 dup_3_11 <= -1
neq2_3_11: d11 - d3 + 82 b_3_11 - 82 dup_3_11 <= 81
bin_3_12: b_3_12 <= 1
neq1_3_12: d3 - d12 - 82 b_3_12 - 82 dup_3_12 <= -1
neq2_3_12: d12 - d3 + 82 b_3_12 - 82 dup_3_12 <= 81
bin_3_13: b_3_13 <= 1
neq1_3_13: d3 - d13 - 82 b_3_13 - 82 dup_3_13 <= -1
neq2_3_13: d13 - d3 + 82 b_3_13 - 82 dup_3_13 <= 81
bin_3_14: b_3_14 <= 1
neq1_3_14: d3 - d14 - 82 b_3_14 - 82 dup_3_14 <= -1
neq2_3_14: d14 - d3 + 82 b_3_14 - 82 dup_3_14 <= 81
bin_3_15: b_3_15 <= 1
neq1_3_15: d3 - d15 - 82 b_3_15 - 82 dup_3_15 <= -1
neq2_3_15: d15 - d3 + 82 b_3_15 - 82 dup_3_15 <= 81
bin_3_16: b_3_16 <= 1
neq1_3_16: d3 - d16 - 82 b_3_16 - 82 dup_3_16 <= -1
neq2_3_16: d16 - d3 + 82 b_3_16 - 82 dup_3_16 <= 81
bin_3_17: b_3_17 <= 1
neq1_3_17: d3 - d17 - 82 b_3_17 - 82 dup_3_17 <= -1
neq2_3_17: d17 - d3 + 82 b_3_17 - 82 dup_3_17 <= 81
bin_3_18: b_3_18 <= 1
neq1_3_18: d3 - d18 - 82 b_3_18 - 82 dup_3_18 <= -1
neq2_3_18: d18 - d3 + 82 b_3_18 - 82 dup_3_18 <= 81
bin_3_19: b_3_19 <= 1
neq1_3_19: d3 - d19 - 82 b_3_19 - 82 dup_3_19 <= -1
neq2_3_19: d19 - d3 + 82 b_3_19 - 82 dup_3_19 <= 81
bin_3_20: b_3_20 <= 1
neq1_3_20: d3 - d20 - 82 b_3_20 - 82 dup_3_20 <= -1
neq2_3_20: d20 - d3 + 82 b_3_20 - 82 dup_3_20 <= 81
bin_3_21: b_3_21 <= 1
neq1_3_21: d3 - d21 - 82 b_3_21 - 82 dup_3_21 <= -1
neq2_3_21: d21 - d3 + 82 b_3_21 - 82 dup_3_21 <= 81
bin_3_22: b_3_22 <= 1
neq1_3_22: d3 - d22 - 82 b_3_22 - 82 dup_3_22 <= -1
neq2_3_22: d22 - d3 + 82 b_3_22 - 82 dup_3_22 <= 81
bin_3_23: b_3_23 <= 1
neq1_3_23: d3 - d23 - 82 b_3_23 - 82 dup_3_23 <= -1
neq2_3_23: d23 - d3 + 82 b_3_23 - 82 dup_3_23 <= 81
bin_4_10: b_4_10 <= 1
neq1_4_10: d4 - d10 - 82 b_4_10 - 82 dup_4_10 <= -1
neq2_4_10: d10 - d4 + 82 b_4_10 - 82 dup_4_10 <= 81
bin_4_11: b_4_11 <= 1
neq1_4_11: d4 - d11 - 82 b_4_11 - 82 dup_4_11 <= -1
neq2_4_11: d11 - d4 + 82 b_4_11 - 82 dup_4_11 <= 81
bin_4_12: b_4_12 <= 1
neq1_4_12: d4 - d12 - 82 b_4_12 - 82 dup_4_12 <= -1
neq2_4_12: d12 - d4 + 82 b_4_12 - 82 dup_4_12 <= 81
bin_4_13: b_4_13 <= 1
neq1_4_13: d4 - d13 - 82 b_4_13 - 82 dup_4_13 <= -1
neq2_4_13: d13 - d4 + 82 b_4_13 - 82 dup_4_13 <= 81
bin_4_14: b_4_14 <= 1
neq1_4_14: d4 - d14 - 82 b_4_14 - 82 dup_4_14 <= -1
neq2_4_14: d14 - d4 + 82 b_4_14 - 82 dup_4_14 <= 81
bin_4_15: b_4_15 <= 1
neq1_4_15: d4 - d15 - 82 b_4_15 - 82 dup_4_15 <= -1
neq2_4_15: d15 - d4 + 82 b_4_15 - 82 dup_4_15 <= 81
bin_4_16: b_4_16 <= 1
neq1_4_16: d4 - d16 - 82 b_4_16 - 82 dup_4_16 <= -1
neq2_4_16: d16 - d4 + 82 b_4_16 - 82 dup_4_16 <= 81
bin_4_17: b_4_17 <= 1
neq1_4_17: d4 - d17 - 82 b_4_17 - 82 dup_4_17 <= -1
neq2_4_17: d17 - d4 + 82 b_4_17 - 82 dup_4_17 <= 81
bin_4_18: b_4_18 <= 1
neq1_4_18: d4 - d18 - 82 b_4_18 - 82 dup_4_18 <= -1
neq2_4_18: d18 - d4 + 82 b_4_18 - 82 dup_4_18 <= 81
bin_4_19: b_4_19 <= 1
neq1_4_19: d4 - d19 - 82 b_4_19 - 82 dup_4_19 <= -1
neq2_4_19: d19 - d4 + 82 b_4_19 - 82 dup_4_19 <= 81
bin_4_20: b_4_20 <= 1
neq1_4_20: d4 - d20 - 82 b_4_20 - 82 dup_4_20 <= -1
neq2_4_20: d20 - d4 + 82 b_4_20 - 82 dup_4_20 <= 81
bin_4_21: b_4_21 <= 1
neq1_4_21: d4 - d21 - 82 b_4_21 - 82 dup_4_21 <= -1
neq2_4_21: d21 - d4 + 82 b_4_21 - 82 dup_4_21 <= 81
bin_4_22: b_4_22 <= 1
neq1_4_22: d4 - d22 - 82 b_4_22 - 82 dup_4_22 <= -1
neq2_4_22: d22 - d4 + 82 b_4_22 - 82 dup_4_22 <= 81
bin_4_23: b_4_23 <= 1
neq1_4_23: d4 - d23 - 82 b_4_23 - 82 dup_4_23 <= -1
neq2_4_23: d23 - d4 + 82 b_4_23 - 82 dup_4_23 <= 81
bin_5_10: b_5_10 <= 1
neq1_5_10: d5 - d10 - 82 b_5_10 - 82 dup_5_10 <= -1
neq2_5_10: d10 - d5 + 82 b_5_10 - 82 dup_5_10 <= 81
bin_5_11: b_5_11 <= 1
neq1_5_11: d5 - d11 - 82 b_5_11 - 82 dup_5_11 <= -1
neq2_5_11: d11 - d5 + 82 b_5_11 - 82 dup_5_11 <= 81
bin_5_12: b_5_12 <= 1
neq1_5_12: d5 - d12 - 82 b_5_12 - 82 dup_5_12 <= -1
neq2_5_12: d12 - d5 + 82 b_5_12 - 82 dup_5_12 <= 81
bin_5_13: b_5_13 <= 1
neq1_5_13: d5 - d13 - 82 b_5_13 - 82 dup_5_13 <= -1
neq2_5_13: d13 - d5 + 82 b_5_13 - 82 dup_5_13 <= 81
bin_5_14: b_5_14 <= 1
neq1_5_14: d5 - d14 - 82 b_5_14 - 82 dup_5_14 <= -1
neq2_5_14: d14 - d5 + 82 b_5_14 - 82 dup_5_14 <= 81
bin_5_15: b_5_15 <= 1
neq1_5_15: d5 - d15 - 82 b_5_15 - 82 dup_5_15 <= -1
neq2_5_15: d15 - d5 + 82 b_5_15 - 82 dup_5_15 <= 81
bin_5_16: b_5_16 <= 1
neq1_5_16: d5 - d16 - 82 b_5_16 - 82 dup_5_16 <= -1
neq2_5_16: d16 - d5 + 82 b_5_16 - 82 dup_5_16 <= 81
bin_5_17: b_5_17 <= 1
neq1_5_17: d5 - d17 - 82 b_5_17 - 82 dup_5_17 <= -1
neq2_5_17: d17 - d5 + 82 b_5_17 - 82 dup_5_17 <= 81
bin_5_18: b_5_18 <= 1
neq1_5_18: d5 - d18 - 82 b_5_18 - 82 dup_5_18 <= -1
neq2_5_18: d18 - d5 + 82 b_5_18 - 82 dup_5_18 <= 81
bin_5_19: b_5_19 <= 1
neq1_5_19: d5 - d19 - 82 b_5_19 - 82 dup_5_19 <= -1
neq2_5_19: d19 - d5 + 82 b_5_19 - 82 dup_5_19 <= 81
bin_5_20: b_5_20 <= 1
neq1_5_20: d5 - d20 - 82 b_5_20 - 82 dup_5_20 <= -1
neq2_5_20: d20 - d5 + 82 b_5_20 - 82 dup_5_20 <= 81
bin_5_21: b_5_21 <= 1
neq1_5_21: d5 - d21 - 82 b_5_21 - 82 dup_5_21 <= -1
neq2_5_21: d21 - d5 + 82 b_5_21 - 82 dup_5_21 <= 81
bin_5_22: b_5_22 <= 1
neq1_5_22: d5 - d22 - 82 b_5_22 - 82 dup_5_22 <= -1
neq2_5_22: d22 - d5 + 82 b_5_22 - 82 dup_5_22 <= 81
bin_5_23: b_5_23 <= 1
neq1_5_23: d5 - d23 - 82 b_5_23 - 82 dup_5_23 <= -1
neq2_5_23: d23 - d5 + 82 b_5_23 - 82 dup_5_23 <= 81
bin_6_10: b_6_10 <= 1
neq1_6_10: d6 - d10 - 82 b_6_10 - 82 dup_6_10 <= -1
neq2_6_10: d10 - d6 + 82 b_6_10 - 82 dup_6_10 <= 81
bin_6_11: b_6_11 <= 1
neq1_6_11: d6 - d11 - 82 b_6_11 - 82 dup_6_11 <= -1
neq2_6_11: d11 - d6 + 82 b_6_11 - 82 dup_6_11 <= 81
bin_6_12: b_6_12 <= 1
neq1_6_12: d6 - d12 - 82 b_6_12 - 82 dup_6_12 <= -1
neq2_6_12: d12 - d6 + 82 b_6_12 - 82 dup_6_12 <= 81
bin_6_13: b_6_13 <= 1
neq1_6_13: d6 - d13 - 82 b_6_13 - 82 dup_6_13 <= -1
neq2_6_13: d13 - d6 + 82 b_6_13 - 82 dup_6_13 <= 81
bin_6_14: b_6_14 <= 1
neq1_6_14: d6 - d14 - 82 b_6_14 - 82 dup_6_14 <= -1
neq2_6_14: d14 - d6 + 82 b_6_14 - 82 dup_6_14 <= 81
bin_6_15: b_6_15 <= 1
neq1_6_15: d6 - d15 - 82 b_6_15 - 82 dup_6_15 <= -1
neq2_6_15: d15 - d6 + 82 b_6_15 - 82 dup_6_15 <= 81
bin_6_16: b_6_16 <= 1
neq1_6_16: d6 - d16 - 82 b_6_16 - 82 dup_6_16 <= -1
neq2_6_16: d16 - d6 + 82 b_6_16 - 82 dup_6_16 <= 81
bin_6_17: b_6_17 <= 1
neq1_6_17: d6 - d17 - 82 b_6_17 - 82 dup_6_17 <= -1
neq2_6_17: d17 - d6 + 82 b_6_17 - 82 dup_6_17 <= 81
bin_6_18: b_6_18 <= 1
neq1_6_18: d6 - d18 - 82 b_6_18 - 82 dup_6_18 <= -1
neq2_6_18: d18 - d6 + 82 b_6_18 - 82 dup_6_18 <= 81
bin_6_19: b_6_19 <= 1
neq1_6_19: d6 - d19 - 82 b_6_19 - 82 dup_6_19 <= -1
neq2_6_19: d19 - d6 + 82 b_6_19 - 82 dup_6_19 <= 81
bin_6_20: b_6_20 <= 1
neq1_6_20: d6 - d20 - 82 b_6_20 - 82 dup_6_20 <= -1
neq2_6_20: d20 - d6 + 82 b_6_20 - 82 dup_6_20 <= 81
bin_6_21: b_6_21 <= 1
neq1_6_21: d6 - d21 - 82 b_6_21 - 82 dup_6_21 <= -1
neq2_6_21: d21 - d6 + 82 b_6_21 - 82 dup_6_21 <= 81
bin_6_22: b_6_22 <= 1
neq1_6_22: d6 - d22 - 82 b_6_22 - 82 dup_6_22 <= -1
neq2_6_22: d22 - d6 + 82 b_6_22 - 82 dup_6_22 <= 81
bin_6_23: b_6_23 <= 1
neq1_6_23: d6 - d23 - 82 b_6_23 - 82 dup_6_23 <= -1
neq2_6_23: d23 - d6 + 82 b_6_23 - 82 dup_6_23 <= 81
bin_7_10: b_7_10 <= 1
neq1_7_10: d7 - d10 - 82 b_7_10 - 82 dup_7_10 <= -1
neq2_7_10: d10 - d7 + 82 b_7_10 - 82 dup_7_10 <= 81
bin_7_11: b_7_11 <= 1
neq1_7_11: d7 - d11 - 82 b_7_11 - 82 dup_7_11 <= -1
neq2_7_11: d11 - d7 + 82 b_7_11 - 82 dup_7_11 <= 81
bin_7_12: b_7_12 <= 1
neq1_7_12: d7 - d12 - 82 b_7_12 - 82 dup_7_12 <= -1
neq2_7_12: d12 - d7 + 82 b_7_12 - 82 dup_7_12 <= 81
bin_7_13: b_7_13 <= 1
neq1_7_13: d7 - d13 - 82 b_7_13 - 82 dup_7_13 <= -1
neq2_7_13: d13 - d7 + 82 b_7_13 - 82 dup_7_13 <= 81
bin_7_14: b_7_14 <= 1
neq1_7_14: d7 - d14 - 82 b_7_14 - 82 dup_7_14 <= -1
neq2_7_14: d14 - d7 + 82 b_7_14 - 82 dup_7_14 <= 81
bin_7_15: b_7_15 <= 1
neq1_7_15: d7 - d15 - 82 b_7_15 - 82 dup_7_15 <= -1
neq2_7_15: d15 - d7 + 82 b_7_15 - 82 dup_7_15 <= 81
bin_7_16: b_7_16 <= 1
neq1_7_16: d7 - d16 - 82 b_7_16 - 82 dup_7_16 <= -1
neq2_7_16: d16 - d7 + 82 b_7_16 - 82 dup_7_16 <= 81
bin_7_17: b_7_17 <= 1
neq1_7_17: d7 - d17 - 82 b_7_17 - 82 dup_7_17 <= -1
neq2_7_17: d17 - d7 + 82 b_7_17 - 82 dup_7_17 <= 81
bin_7_18: b_7_18 <= 1
neq1_7_18: d7 - d18 - 82 b_7_18 - 82 dup_7_18 <= -1
neq2_7_18: d18 - d7 + 82 b_7_18 - 82 dup_7_18 <= 81
bin_7_19: b_7_19 <= 1
neq1_7_19: d7 - d19 - 82 b_7_19 - 82 dup_7_19 <= -1
neq2_7_19: d19 - d7 + 82 b_7_19 - 82 dup_7_19 <= 81
bin_7_20: b_7_20 <= 1
neq1_7_20: d7 - d20 - 82 b_7_20 - 82 dup_7_20 <= -1
neq2_7_20: d20 - d7 + 82 b_7_20 - 82 dup_7_20 <= 81
bin_7_21: b_7_21 <= 1
neq1_7_21: d7 - d21 - 82 b_7_21 - 82 dup_7_21 <= -1
neq2_7_21: d21 - d7 + 82 b_7_21 - 82 dup_7_21 <= 81
bin_7_22: b_7_22 <= 1
neq1_7_22: d7 - d22 - 82 b_7_22 - 82 dup_7_22 <= -1
neq2_7_22: d22 - d7 + 82 b_7_22 - 82 dup_7_22 <= 81
bin_7_23: b_7_23 <= 1
neq1_7_23: d7 - d23 - 82 b_7_23 - 82 dup_7_23 <= -1
neq2_7_23: d23 - d7 + 82 b_7_23 - 82 dup_7_23 <= 81
bin_8_10: b_8_10 <= 1
neq1_8_10: d8 - d10 - 82 b_8_10 - 82 dup_8_10 <= -1
neq2_8_10: d10 - d8 + 82 b_8_10 - 82 dup_8_10 <= 81
bin_8_11: b_8_11 <= 1
neq1_8_11: d8 - d11 - 82 b_8_11 - 82 dup_8_11 <= -1
neq2_8_11: d11 - d8 + 82 b_8_11 - 82 dup_8_11 <= 81
bin_8_12: b_8_12 <= 1
neq1_8_12: d8 - d12 - 82 b_8_12 - 82 dup_8_12 <= -1
neq2_8_12: d12 - d8 + 82 b_8_12 - 82 dup_8_12 <= 81
bin_8_13: b_8_13 <= 1
neq1_8_13: d8 - d13 - 82 b_8_13 - 82 dup_8_13 <= -1
neq2_8_13: d13 - d8 + 82 b_8_13 - 82 dup_8_13 <= 81
bin_8_14: b_8_14 <= 1
neq1_8_14: d8 - d14 - 82 b_8_14 - 82 dup_8_14 <= -1
neq2_8_14: d14 - d8 + 82 b_8_14 - 82 dup_8_14 <= 81
bin_8_15: b_8_15 <= 1
neq1_8_15: d8 - d15 - 82 b_8_15 - 82 dup_8_15 <= -1
neq2_8_15: d15 - d8 + 82 b_8_15 - 82 dup_8_15 <= 81
bin_8_16: b_8_16 <= 1
neq1_8_16: d8 - d16 - 82 b_8_16 - 82 dup_8_16 <= -1
neq2_8_16: d16 - d8 + 82 b_8_16 - 82 dup_8_16 <= 81
bin_8_17: b_8_17 <= 1
neq1_8_17: d8 - d17 - 82 b_8_17 - 82 dup_8_17 <= -1
neq2_8_17: d17 - d8 + 82 b_8_17 - 82 dup_8_17 <= 81
bin_8_18: b_8_18 <= 1
neq1_8_18: d8 - d18 - 82 b_8_18 - 82 dup_8_18 <= -1
neq2_8_18: d18 - d8 + 82 b_8_18 - 82 dup_8_18 <= 81
bin_8_19: b_8_19 <= 1
neq1_8_19: d8 - d19 - 82 b_8_19 - 82 dup_8_19 <= -1
neq2_8_19: d19 - d8 + 82 b_8_19 - 82 dup_8_19 <= 81
bin_8_20: b_8_20 <= 1
neq1_8_20: d8 - d20 - 82 b_8_20 - 82 dup_8_20 <= -1
neq2_8_20: d20 - d8 + 82 b_8_20 - 82 dup_8_20 <= 81
bin_8_21: b_8_21 <= 1
neq1_8_21: d8 - d21 - 82 b_8_21 - 82 dup_8_21 <= -1
neq2_8_21: d21 - d8 + 82 b_8_21 - 82 dup_8_21 <= 81
bin_8_22: b_8_22 <= 1
neq1_8_22: d8 - d22 - 82 b_8_22 - 82 dup_8_22 <= -1
neq2_8_22: d22 - d8 + 82 b_8_22 - 82 dup_8_22 <= 81
bin_8_23: b_8_23 <= 1
neq1_8_23: d8 - d23 - 82 b_8_23 - 82 dup_8_23 <= -1
neq2_8_23: d23 - d8 + 82 b_8_23 - 82 dup_8_23 <= 81
bin_9_10: b_9_10 <= 1
neq1_9_10: d9 - d10 - 82 b_9_10 - 82 dup_9_10 <= -1
neq2_9_10: d10 - d9 + 82 b_9_10 - 82 dup_9_10 <= 81
bin_9_11: b_9_11 <= 1
neq1_9_11: d9 - d11 - 82 b_9_11 - 82 dup_9_11 <= -1
neq2_9_11: d11 - d9 + 82 b_9_11 - 82 dup_9_11 <= 81
bin_9_12: b_9_12 <= 1
neq1_9_12: d9 - d12 - 82 b_9_12 - 82 dup_9_12 <= -1
neq2_9_12: d12 - d9 + 82 b_9_12 - 82 dup_9_12 <= 81
bin_9_13: b_9_13 <= 1
neq1_9_13: d9 - d13 - 82 b_9_13 - 82 dup_9_13 <= -1
neq2_9_13: d13 - d9 + 82 b_9_13 - 82 dup_9_13 <= 81
bin_9_14: b_9_14 <= 1
neq1_9_14: d9 - d14 - 82 b_9_14 - 82 dup_9_14 <= -1
neq2_9_14: d14 - d9 + 82 b_9_14 - 82 dup_9_14 <= 81
bin_9_15: b_9_15 <= 1
neq1_9_15: d9 - d15 - 82 b_9_15 - 82 dup_9_15 <= -1
neq2_9_15: d15 - d9 + 82 b_9_15 - 82 dup_9_15 <= 81
bin_9_16: b_9_16 <= 1
neq1_9_16: d9 - d16 - 82 b_9_16 - 82 dup_9_16 <= -1
neq2_9_16: d16 - d9 + 82 b_9_16 - 82 dup_9_16 <= 81
bin_9_17: b_9_17 <= 1
neq1_9_17: d9 - d17 - 82 b_9_17 - 82 dup_9_17 <= -1
neq2_9_17: d17 - d9 + 82 b_9_17 - 82 dup_9_17 <= 81
bin_9_18: b_9_18 <= 1
neq1_9_18: d9 - d18 - 82 b_9_18 - 82 dup_9_18 <= -1
neq2_9_18: d18 - d9 + 82 b_9_18 - 82 dup_9_18 <= 81
bin_9_19: b_9_19 <= 1
neq1_9_19: d9 - d19 - 82 b_9_19 - 82 dup_9_19 <= -1
neq2_9_19: d19 - d9 + 82 b_9_19 - 82 dup_9_19 <= 81
bin_9_20: b_9_20 <= 1
neq1_9_20: d9 - d20 - 82 b_9_20 - 82 dup_9_20 <= -1
neq2_9_20: d20 - d9 + 82 b_9_20 - 82 dup_9_20 <= 81
bin_9_21: b_9_21 <= 1
neq1_9_21: d9 - d21 - 82 b_9_21 - 82 dup_9_21 <= -1
neq2_9_21: d21 - d9 + 82 b_9_21 - 82 dup_9_21 <= 81
bin_9_22: b_9_22 <= 1
neq1_9_22: d9 - d22 - 82 b_9_22 - 82 dup_9_22 <= -1
neq2_9_22: d22 - d9 + 82 b_9_22 - 82 dup_9_22 <= 81
bin_9_23: b_9_23 <= 1
neq1_9_23: d9 - d23 - 82 b_9_23 - 82 dup_9_23 <= -1
neq2_9_23: d23 - d9 + 82 b_9_23 - 82 dup_9_23 <= 81

ord_eq1_2: d1 - d2 <= 0
ord_dup1_2: d1 - d2 - dup_1_2 <= -1
ord_eq2_3: d2 - d3 <= 0
ord_dup2_3: d2 - d3 - dup_2_3 <= -1

ord_eq4_5: d4 - d5 <= 0
ord_dup4_5: d4 - d5 - dup_4_5 <= -1
ord_eq5_6: d5 - d6 <= 0
ord_dup5_6: d5 - d6 - dup_5_6 <= -1
ord_eq6_7: d6 - d7 <= 0
ord_dup6_7: d6 - d7 - dup_6_7 <= -1
ord_eq7_8: d7 - d8 <= 0
ord_dup7_8: d7 - d8 - dup_7_8 <= -1
ord_eq8_9: d8 - d9 <= 0
ord_dup8_9: d8 - d9 - dup_8_9 <= -1
ord_eq11_12: d11 - d12 <= 0
ord_dup11_12: d11 - d12 - dup_11_12 <= -1
ord_eq12_13: d12 - d13 <= 0
ord_dup12_13: d12 - d13 - dup_12_13 <= -1
ord_eq13_14: d13 - d14 <= 0
ord_dup13_14: d13 - d14 - dup_13_14 <= -1
ord_eq14_15: d14 - d15 <= 0
ord_dup14_15: d14 - d15 - dup_14_15 <= -1
ord_eq15_16: d15 - d16 <= 0
ord_dup15_16: d15 - d16 - dup_15_16 <= -1

ord_eq17_18: d17 - d18 <= 0
ord_dup17_18: d17 - d18 - dup_17_18 <= -1
ord_eq18_19: d18 - d19 <= 0
ord_dup18_19: d18 - d19 - dup_18_19 <= -1
ord_eq19_20: d19 - d20 <= 0
ord_dup19_20: d19 - d20 - dup_19_20 <= -1
ord_eq20_21: d20 - d21 <= 0
ord_dup20_21: d20 - d21 - dup_20_21 <= -1
ord_eq21_22: d21 - d22 <= 0
ord_dup21_22: d21 - d22 - dup_21_22 <= -1
ord_eq22_23: d22 - d23 <= 0
ord_dup22_23: d22 - d23 - dup_22_23 <= -1


obj_def: Z - dup_1_4 - dup_1_5 - dup_1_6 - dup_1_7 - dup_1_8 - dup_1_9 - dup_2_4 - dup_2_5 - dup_2_6 - dup_2_7 - dup_2_8 - dup_2_9 - dup_3_4 - dup_3_5 - dup_3_6 - dup_3_7 - dup_3_8 - dup_3_9 - dup_11_17 - dup_11_18 - dup_11_19 - dup_11_20 - dup_11_21 - dup_11_22 - dup_11_23 - dup_12_17 - dup_12_18 - dup_12_19 - dup_12_20 - dup_12_21 - dup_12_22 - dup_12_23 - dup_13_17 - dup_13_18 - dup_13_19 - dup_13_20 - dup_13_21 - dup_13_22 - dup_13_23 - dup_14_17 - dup_14_18 - dup_14_19 - dup_14_20 - dup_14_21 - dup_14_22 - dup_14_23 - dup_15_17 - dup_15_18 - dup_15_19 - dup_15_20 - dup_15_21 - dup_15_22 - dup_15_23 - dup_16_17 - dup_16_18 - dup_16_19 - dup_16_20 - dup_16_21 - dup_16_22 - dup_16_23 - dup_1_10 - dup_1_11 - dup_1_12 - dup_1_13 - dup_1_14 - dup_1_15 - dup_1_16 - dup_1_17 - dup_1_18 - dup_1_19 - dup_1_20 - dup_1_21 - dup_1_22 - dup_1_23 - dup_2_10 - dup_2_11 - dup_2_12 - dup_2_13 - dup_2_14 - dup_2_15 - dup_2_16 - dup_2_17 - dup_2_18 - dup_2_19 - dup_2_20 - dup_2_21 - dup_2_22 - dup_2_23 - dup_3_10 - dup_3_11 - dup_3_12 - dup_3_13 - dup_3_14 - dup_3_15 - dup_3_16 - dup_3_17 - dup_3_18 - dup_3_19 - dup_3_20 - dup_3_21 - dup_3_22 - dup_3_23 - dup_4_10 - dup_4_11 - dup_4_12 - dup_4_13 - dup_4_14 - dup_4_15 - dup_4_16 - dup_4_17 - dup_4_18 - dup_4_19 - dup_4_20 - dup_4_21 - dup_4_22 - dup_4_23 - dup_5_10 - dup_5_11 - dup_5_12 - dup_5_13 - dup_5_14 - dup_5_15 - dup_5_16 - dup_5_17 - dup_5_18 - dup_5_19 - dup_5_20 - dup_5_21 - dup_5_22 - dup_5_23 - dup_6_10 - dup_6_11 - dup_6_12 - dup_6_13 - dup_6_14 - dup_6_15 - dup_6_16 - dup_6_17 - dup_6_18 - dup_6_19 - dup_6_20 - dup_6_21 - dup_6_22 - dup_6_23 - dup_7_10 - dup_7_11 - dup_7_12 - dup_7_13 - dup_7_14 - dup_7_15 - dup_7_16 - dup_7_17 - dup_7_18 - dup_7_19 - dup_7_20 - dup_7_21 - dup_7_22 - dup_7_23 - dup_8_10 - dup_8_11 - dup_8_12 - dup_8_13 - dup_8_14 - dup_8_15 - dup_8_16 - dup_8_17 - dup_8_18 - dup_8_19 - dup_8_20 - dup_8_21 - dup_8_22 - dup_8_23 - dup_9_10 - dup_9_11 - dup_9_12 - dup_9_13 - dup_9_14 - dup_9_15 - dup_9_16 - dup_9_17 - dup_9_18 - dup_9_19 - dup_9_20 - dup_9_21 - dup_9_22 - dup_9_23 - dup_1_2 - dup_2_3 - dup_4_5 - dup_5_6 - dup_6_7 - dup_7_8 - dup_8_9 - dup_11_12 - dup_12_13 - dup_13_14 - dup_14_15 - dup_15_16 - dup_17_18 - dup_18_19 - dup_19_20 - dup_20_21 - dup_21_22 - dup_22_23 = 0
dup_bin_1_4: dup_1_4 <= 1
dup_bin_1_5: dup_1_5 <= 1
dup_bin_1_6: dup_1_6 <= 1
dup_bin_1_7: dup_1_7 <= 1
dup_bin_1_8: dup_1_8 <= 1
dup_bin_1_9: dup_1_9 <= 1
dup_bin_2_4: dup_2_4 <= 1
dup_bin_2_5: dup_2_5 <= 1
dup_bin_2_6: dup_2_6 <= 1
dup_bin_2_7: dup_2_7 <= 1
dup_bin_2_8: dup_2_8 <= 1
dup_bin_2_9: dup_2_9 <= 1
dup_bin_3_4: dup_3_4 <= 1
dup_bin_3_5: dup_3_5 <= 1
dup_bin_3_6: dup_3_6 <= 1
dup_bin_3_7: dup_3_7 <= 1
dup_bin_3_8: dup_3_8 <= 1
dup_bin_3_9: dup_3_9 <= 1
dup_bin_11_17: dup_11_17 <= 1
dup_bin_11_18: dup_11_18 <= 1
dup_bin_11_19: dup_11_19 <= 1
dup_bin_11_20: dup_11_20 <= 1
dup_bin_11_21: dup_11_21 <= 1
dup_bin_11_22: dup_11_22 <= 1
dup_bin_11_23: dup_11_23 <= 1
dup_bin_12_17: dup_12_17 <= 1
dup_bin_12_18: dup_12_18 <= 1
dup_bin_12_19: dup_12_19 <= 1
dup_bin_12_20: dup_12_20 <= 1
dup_bin_12_21: dup_12_21 <= 1
dup_bin_12_22: dup_12_22 <= 1
dup_bin_12_23: dup_12_23 <= 1
dup_bin_13_17: dup_13_17 <= 1
dup_bin_13_18: dup_13_18 <= 1
dup_bin_13_19: dup_13_19 <= 1
dup_bin_13_20: dup_13_20 <= 1
dup_bin_13_21: dup_13_21 <= 1
dup_bin_13_22: dup_13_22 <= 1
dup_bin_13_23: dup_13_23 <= 1
dup_bin_14_17: dup_14_17 <= 1
dup_bin_14_18: dup_14_18 <= 1
dup_bin_14_19: dup_14_19 <= 1
dup_bin_14_20: dup_14_20 <= 1
dup_bin_14_21: dup_14_21 <= 1
dup_bin_14_22: dup_14_22 <= 1
dup_bin_14_23: dup_14_23 <= 1
dup_bin_15_17: dup_15_17 <= 1
dup_bin_15_18: dup_15_18 <= 1
dup_bin_15_19: dup_15_19 <= 1
dup_bin_15_20: dup_15_20 <= 1
dup_bin_15_21: dup_15_21 <= 1
dup_bin_15_22: dup_15_22 <= 1
dup_bin_15_23: dup_15_23 <= 1
dup_bin_16_17: dup_16_17 <= 1
dup_bin_16_18: dup_16_18 <= 1
dup_bin_16_19: dup_16_19 <= 1
dup_bin_16_20: dup_16_20 <= 1
dup_bin_16_21: dup_16_21 <= 1
dup_bin_16_22: dup_16_22 <= 1
dup_bin_16_23: dup_16_23 <= 1
dup_bin_1_10: dup_1_10 <= 1
dup_bin_1_11: dup_1_11 <= 1
dup_bin_1_12: dup_1_12 <= 1
dup_bin_1_13: dup_1_13 <= 1
dup_bin_1_14: dup_1_14 <= 1
dup_bin_1_15: dup_1_15 <= 1
dup_bin_1_16: dup_1_16 <= 1
dup_bin_1_17: dup_1_17 <= 1
dup_bin_1_18: dup_1_18 <= 1
dup_bin_1_19: dup_1_19 <= 1
dup_bin_1_20: dup_1_20 <= 1
dup_bin_1_21: dup_1_21 <= 1
dup_bin_1_22: dup_1_22 <= 1
dup_bin_1_23: dup_1_23 <= 1
dup_bin_2_10: dup_2_10 <= 1
dup_bin_2_11: dup_2_11 <= 1
dup_bin_2_12: dup_2_12 <= 1
dup_bin_2_13: dup_2_13 <= 1
dup_bin_2_14: dup_2_14 <= 1
dup_bin_2_15: dup_2_15 <= 1
dup_bin_2_16: dup_2_16 <= 1
dup_bin_2_17: dup_2_17 <= 1
dup_bin_2_18: dup_2_18 <= 1
dup_bin_2_19: dup_2_19 <= 1
dup_bin_2_20: dup_2_20 <= 1
dup_bin_2_21: dup_2_21 <= 1
dup_bin_2_22: dup_2_22 <= 1
dup_bin_2_23: dup_2_23 <= 1
dup_bin_3_10: dup_3_10 <= 1
dup_bin_3_11: dup_3_11 <= 1
dup_bin_3_12: dup_3_12 <= 1
dup_bin_3_13: dup_3_13 <= 1
dup_bin_3_14: dup_3_14 <= 1
dup_bin_3_15: dup_3_15 <= 1
dup_bin_3_16: dup_3_16 <= 1
dup_bin_3_17: dup_3_17 <= 1
dup_bin_3_18: dup_3_18 <= 1
dup_bin_3_19: dup_3_19 <= 1
dup_bin_3_20: dup_3_20 <= 1
dup_bin_3_21: dup_3_21 <= 1
dup_bin_3_22: dup_3_22 <= 1
dup_bin_3_23: dup_3_23 <= 1
dup_bin_4_10: dup_4_10 <= 1
dup_bin_4_11: dup_4_11 <= 1
dup_bin_4_12: dup_4_12 <= 1
dup_bin_4_13: dup_4_13 <= 1
dup_bin_4_14: dup_4_14 <= 1
dup_bin_4_15: dup_4_15 <= 1
dup_bin_4_16: dup_4_16 <= 1
dup_bin_4_17: dup_4_17 <= 1
dup_bin_4_18: dup_4_18 <= 1
dup_bin_4_19: dup_4_19 <= 1
dup_bin_4_20: dup_4_20 <= 1
dup_bin_4_21: dup_4_21 <= 1
dup_bin_4_22: dup_4_22 <= 1
dup_bin_4_23: dup_4_23 <= 1
dup_bin_5_10: dup_5_10 <= 1
dup_bin_5_11: dup_5_11 <= 1
dup_bin_5_12: dup_5_12 <= 1
dup_bin_5_13: dup_5_13 <= 1
dup_bin_5_14: dup_5_14 <= 1
dup_bin_5_15: dup_5_15 <= 1
dup_bin_5_16: dup_5_16 <= 1
dup_bin_5_17: dup_5_17 <= 1
dup_bin_5_18: dup_5_18 <= 1
dup_bin_5_19: dup_5_19 <= 1
dup_bin_5_20: dup_5_20 <= 1
dup_bin_5_21: dup_5_21 <= 1
dup_bin_5_22: dup_5_22 <= 1
dup_bin_5_23: dup_5_23 <= 1
dup_bin_6_10: dup_6_10 <= 1
dup_bin_6_11: dup_6_11 <= 1
dup_bin_6_12: dup_6_12 <= 1
dup_bin_6_13: dup_6_13 <= 1
dup_bin_6_14: dup_6_14 <= 1
dup_bin_6_15: dup_6_15 <= 1
dup_bin_6_16: dup_6_16 <= 1
dup_bin_6_17: dup_6_17 <= 1
dup_bin_6_18: dup_6_18 <= 1
dup_bin_6_19: dup_6_19 <= 1
dup_bin_6_20: dup_6_20 <= 1
dup_bin_6_21: dup_6_21 <= 1
dup_bin_6_22: dup_6_22 <= 1
dup_bin_6_23: dup_6_23 <= 1
dup_bin_7_10: dup_7_10 <= 1
dup_bin_7_11: dup_7_11 <= 1
dup_bin_7_12: dup_7_12 <= 1
dup_bin_7_13: dup_7_13 <= 1
dup_bin_7_14: dup_7_14 <= 1
dup_bin_7_15: dup_7_15 <= 1
dup_bin_7_16: dup_7_16 <= 1
dup_bin_7_17: dup_7_17 <= 1
dup_bin_7_18: dup_7_18 <= 1
dup_bin_7_19: dup_7_19 <= 1
dup_bin_7_20: dup_7_20 <= 1
dup_bin_7_21: dup_7_21 <= 1
dup_bin_7_22: dup_7_22 <= 1
dup_bin_7_23: dup_7_23 <= 1
dup_bin_8_10: dup_8_10 <= 1
dup_bin_8_11: dup_8_11 <= 1
dup_bin_8_12: dup_8_12 <= 1
dup_bin_8_13: dup_8_13 <= 1
dup_bin_8_14: dup_8_14 <= 1
dup_bin_8_15: dup_8_15 <= 1
dup_bin_8_16: dup_8_16 <= 1
dup_bin_8_17: dup_8_17 <= 1
dup_bin_8_18: dup_8_18 <= 1
dup_bin_8_19: dup_8_19 <= 1
dup_bin_8_20: dup_8_20 <= 1
dup_bin_8_21: dup_8_21 <= 1
dup_bin_8_22: dup_8_22 <= 1
dup_bin_8_23: dup_8_23 <= 1
dup_bin_9_10: dup_9_10 <= 1
dup_bin_9_11: dup_9_11 <= 1
dup_bin_9_12: dup_9_12 <= 1
dup_bin_9_13: dup_9_13 <= 1
dup_bin_9_14: dup_9_14 <= 1
dup_bin_9_15: dup_9_15 <= 1
dup_bin_9_16: dup_9_16 <= 1
dup_bin_9_17: dup_9_17 <= 1
dup_bin_9_18: dup_9_18 <= 1
dup_bin_9_19: dup_9_19 <= 1
dup_bin_9_20: dup_9_20 <= 1
dup_bin_9_21: dup_9_21 <= 1
dup_bin_9_22: dup_9_22 <= 1
dup_bin_9_23: dup_9_23 <= 1
dup_bin_1_2: dup_1_2 <= 1
dup_bin_2_3: dup_2_3 <= 1
dup_bin_4_5: dup_4_5 <= 1
dup_bin_5_6: dup_5_6 <= 1
dup_bin_6_7: dup_6_7 <= 1
dup_bin_7_8: dup_7_8 <= 1
dup_bin_8_9: dup_8_9 <= 1
dup_bin_11_12: dup_11_12 <= 1
dup_bin_12_13: dup_12_13 <= 1
dup_bin_13_14: dup_13_14 <= 1
dup_bin_14_15: dup_14_15 <= 1
dup_bin_15_16: dup_15_16 <= 1
dup_bin_17_18: dup_17_18 <= 1
dup_bin_18_19: dup_18_19 <= 1
dup_bin_19_20: dup_19_20 <= 1
dup_bin_20_21: dup_20_21 <= 1
dup_bin_21_22: dup_21_22 <= 1
dup_bin_22_23: dup_22_23 <= 1

Bounds
d0 = 26
d10 = 3
4 <= d1 <= 25
4 <= d2 <= 25
4 <= d3 <= 25
4 <= d4 <= 25
4 <= d5 <= 25
4 <= d6 <= 25
4 <= d7 <= 25
4 <= d8 <= 25
4 <= d9 <= 25
4 <= d11 <= 25
4 <= d12 <= 25
4 <= d13 <= 25
4 <= d14 <= 25
4 <= d15 <= 25
4 <= d16 <= 25
4 <= d17 <= 25
4 <= d18 <= 25
4 <= d19 <= 25
4 <= d20 <= 25
4 <= d21 <= 25
4 <= d22 <= 25
4 <= d23 <= 25
116 <= T <= 116

Binary
 x0_1  x0_2  x0_3  x0_4  x0_5  x0_6  x0_7  x0_8  x0_9  x0_10  x0_11  x0_12  x0_13  x0_14  x0_15  x0_16  x0_17  x0_18  x0_19  x0_20  x0_21  x0_22  x0_23 
 x1_2  x1_3  x1_4  x1_5  x1_6  x1_7  x1_8  x1_9  x1_10  x1_11  x1_12  x1_13  x1_14  x1_15  x1_16  x1_17  x1_18  x1_19  x1_20  x1_21  x1_22  x1_23 
 x2_3  x2_4  x2_5  x2_6  x2_7  x2_8  x2_9  x2_10  x2_11  x2_12  x2_13  x2_14  x2_15  x2_16  x2_17  x2_18  x2_19  x2_20  x2_21  x2_22  x2_23 
 x3_4  x3_5  x3_6  x3_7  x3_8  x3_9  x3_10  x3_11  x3_12  x3_13  x3_14  x3_15  x3_16  x3_17  x3_18  x3_19  x3_20  x3_21  x3_22  x3_23 
 x4_5  x4_6  x4_7  x4_8  x4_9  x4_10  x4_11  x4_12  x4_13  x4_14  x4_15  x4_16  x4_17  x4_18  x4_19  x4_20  x4_21  x4_22  x4_23 
 x5_6  x5_7  x5_8  x5_9  x5_10  x5_11  x5_12  x5_13  x5_14  x5_15  x5_16  x5_17  x5_18  x5_19  x5_20  x5_21  x5_22  x5_23 
 x6_7  x6_8  x6_9  x6_10  x6_11  x6_12  x6_13  x6_14  x6_15  x6_16  x6_17  x6_18  x6_19  x6_20  x6_21  x6_22  x6_23 
 x7_8  x7_9  x7_10  x7_11  x7_12  x7_13  x7_14  x7_15  x7_16  x7_17  x7_18  x7_19  x7_20  x7_21  x7_22  x7_23 
 x8_9  x8_10  x8_11  x8_12  x8_13  x8_14  x8_15  x8_16  x8_17  x8_18  x8_19  x8_20  x8_21  x8_22  x8_23 
 x9_10  x9_11  x9_12  x9_13  x9_14  x9_15  x9_16  x9_17  x9_18  x9_19  x9_20  x9_21  x9_22  x9_23 
 x10_11  x10_12  x10_13  x10_14  x10_15  x10_16  x10_17  x10_18  x10_19  x10_20  x10_21  x10_22  x10_23 
 x11_12  x11_13  x11_14  x11_15  x11_16  x11_17  x11_18  x11_19  x11_20  x11_21  x11_22  x11_23 
 x12_13  x12_14  x12_15  x12_16  x12_17  x12_18  x12_19  x12_20  x12_21  x12_22  x12_23 
 x13_14  x13_15  x13_16  x13_17  x13_18  x13_19  x13_20  x13_21  x13_22  x13_23 
 x14_15  x14_16  x14_17  x14_18  x14_19  x14_20  x14_21  x14_22  x14_23 
 x15_16  x15_17  x15_18  x15_19  x15_20  x15_21  x15_22  x15_23 
 x16_17  x16_18  x16_19  x16_20  x16_21  x16_22  x16_23 
 x17_18  x17_19  x17_20  x17_21  x17_22  x17_23 
 x18_19  x18_20  x18_21  x18_22  x18_23 
 x19_20  x19_21  x19_22  x19_23 
 x20_21  x20_22  x20_23 
 x21_22  x21_23 
 x22_23 

 t0_1_2
 t0_1_3
 t0_1_4
 t0_1_5
 t0_1_6
 t0_1_7
 t0_1_8
 t0_1_9
 t0_1_10
 t0_1_11
 t0_1_12
 t0_1_13
 t0_1_14
 t0_1_15
 t0_1_16
 t0_1_17
 t0_1_18
 t0_1_19
 t0_1_20
 t0_1_21
 t0_1_22
 t0_1_23
 t0_2_3
 t0_2_4
 t0_2_5
 t0_2_6
 t0_2_7
 t0_2_8
 t0_2_9
 t0_2_10
 t0_2_11
 t0_2_12
 t0_2_13
 t0_2_14
 t0_2_15
 t0_2_16
 t0_2_17
 t0_2_18
 t0_2_19
 t0_2_20
 t0_2_21
 t0_2_22
 t0_2_23
 t0_3_4
 t0_3_5
 t0_3_6
 t0_3_7
 t0_3_8
 t0_3_9
 t0_3_10
 t0_3_11
 t0_3_12
 t0_3_13
 t0_3_14
 t0_3_15
 t0_3_16
 t0_3_17
 t0_3_18
 t0_3_19
 t0_3_20
 t0_3_21
 t0_3_22
 t0_3_23
 t0_4_5
 t0_4_6
 t0_4_7
 t0_4_8
 t0_4_9
 t0_4_10
 t0_4_11
 t0_4_12
 t0_4_13
 t0_4_14
 t0_4_15
 t0_4_16
 t0_4_17
 t0_4_18
 t0_4_19
 t0_4_20
 t0_4_21
 t0_4_22
 t0_4_23
 t0_5_6
 t0_5_7
 t0_5_8
 t0_5_9
 t0_5_10
 t0_5_11
 t0_5_12
 t0_5_13
 t0_5_14
 t0_5_15
 t0_5_16
 t0_5_17
 t0_5_18
 t0_5_19
 t0_5_20
 t0_5_21
 t0_5_22
 t0_5_23
 t0_6_7
 t0_6_8
 t0_6_9
 t0_6_10
 t0_6_11
 t0_6_12
 t0_6_13
 t0_6_14
 t0_6_15
 t0_6_16
 t0_6_17
 t0_6_18
 t0_6_19
 t0_6_20
 t0_6_21
 t0_6_22
 t0_6_23
 t0_7_8
 t0_7_9
 t0_7_10
 t0_7_11
 t0_7_12
 t0_7_13
 t0_7_14
 t0_7_15
 t0_7_16
 t0_7_17
 t0_7_18
 t0_7_19
 t0_7_20
 t0_7_21
 t0_7_22
 t0_7_23
 t0_8_9
 t0_8_10
 t0_8_11
 t0_8_12
 t0_8_13
 t0_8_14
 t0_8_15
 t0_8_16
 t0_8_17
 t0_8_18
 t0_8_19
 t0_8_20
 t0_8_21
 t0_8_22
 t0_8_23
 t0_9_10
 t0_9_11
 t0_9_12
 t0_9_13
 t0_9_14
 t0_9_15
 t0_9_16
 t0_9_17
 t0_9_18
 t0_9_19
 t0_9_20
 t0_9_21
 t0_9_22
 t0_9_23
 t0_10_11
 t0_10_12
 t0_10_13
 t0_10_14
 t0_10_15
 t0_10_16
 t0_10_17
 t0_10_18
 t0_10_19
 t0_10_20
 t0_10_21
 t0_10_22
 t0_10_23
 t0_11_12
 t0_11_13
 t0_11_14
 t0_11_15
 t0_11_16
 t0_11_17
 t0_11_18
 t0_11_19
 t0_11_20
 t0_11_21
 t0_11_22
 t0_11_23
 t0_12_13
 t0_12_14
 t0_12_15
 t0_12_16
 t0_12_17
 t0_12_18
 t0_12_19
 t0_12_20
 t0_12_21
 t0_12_22
 t0_12_23
 t0_13_14
 t0_13_15
 t0_13_16
 t0_13_17
 t0_13_18
 t0_13_19
 t0_13_20
 t0_13_21
 t0_13_22
 t0_13_23
 t0_14_15
 t0_14_16
 t0_14_17
 t0_14_18
 t0_14_19
 t0_14_20
 t0_14_21
 t0_14_22
 t0_14_23
 t0_15_16
 t0_15_17
 t0_15_18
 t0_15_19
 t0_15_20
 t0_15_21
 t0_15_22
 t0_15_23
 t0_16_17
 t0_16_18
 t0_16_19
 t0_16_20
 t0_16_21
 t0_16_22
 t0_16_23
 t0_17_18
 t0_17_19
 t0_17_20
 t0_17_21
 t0_17_22
 t0_17_23
 t0_18_19
 t0_18_20
 t0_18_21
 t0_18_22
 t0_18_23
 t0_19_20
 t0_19_21
 t0_19_22
 t0_19_23
 t0_20_21
 t0_20_22
 t0_20_23
 t0_21_22
 t0_21_23
 t0_22_23
 t1_2_3
 t1_2_4
 t1_2_5
 t1_2_6
 t1_2_7
 t1_2_8
 t1_2_9
 t1_2_10
 t1_2_11
 t1_2_12
 t1_2_13
 t1_2_14
 t1_2_15
 t1_2_16
 t1_2_17
 t1_2_18
 t1_2_19
 t1_2_20
 t1_2_21
 t1_2_22
 t1_2_23
 t1_3_4
 t1_3_5
 t1_3_6
 t1_3_7
 t1_3_8
 t1_3_9
 t1_3_10
 t1_3_11
 t1_3_12
 t1_3_13
 t1_3_14
 t1_3_15
 t1_3_16
 t1_3_17
 t1_3_18
 t1_3_19
 t1_3_20
 t1_3_21
 t1_3_22
 t1_3_23
 t1_4_5
 t1_4_6
 t1_4_7
 t1_4_8
 t1_4_9
 t1_4_10
 t1_4_11
 t1_4_12
 t1_4_13
 t1_4_14
 t1_4_15
 t1_4_16
 t1_4_17
 t1_4_18
 t1_4_19
 t1_4_20
 t1_4_21
 t1_4_22
 t1_4_23
 t1_5_6
 t1_5_7
 t1_5_8
 t1_5_9
 t1_5_10
 t1_5_11
 t1_5_12
 t1_5_13
 t1_5_14
 t1_5_15
 t1_5_16
 t1_5_17
 t1_5_18
 t1_5_19
 t1_5_20
 t1_5_21
 t1_5_22
 t1_5_23
 t1_6_7
 t1_6_8
 t1_6_9
 t1_6_10
 t1_6_11
 t1_6_12
 t1_6_13
 t1_6_14
 t1_6_15
 t1_6_16
 t1_6_17
 t1_6_18
 t1_6_19
 t1_6_20
 t1_6_21
 t1_6_22
 t1_6_23
 t1_7_8
 t1_7_9
 t1_7_10
 t1_7_11
 t1_7_12
 t1_7_13
 t1_7_14
 t1_7_15
 t1_7_16
 t1_7_17
 t1_7_18
 t1_7_19
 t1_7_20
 t1_7_21
 t1_7_22
 t1_7_23
 t1_8_9
 t1_8_10
 t1_8_11
 t1_8_12
 t1_8_13
 t1_8_14
 t1_8_15
 t1_8_16
 t1_8_17
 t1_8_18
 t1_8_19
 t1_8_20
 t1_8_21
 t1_8_22
 t1_8_23
 t1_9_10
 t1_9_11
 t1_9_12
 t1_9_13
 t1_9_14
 t1_9_15
 t1_9_16
 t1_9_17
 t1_9_18
 t1_9_19
 t1_9_20
 t1_9_21
 t1_9_22
 t1_9_23
 t1_10_11
 t1_10_12
 t1_10_13
 t1_10_14
 t1_10_15
 t1_10_16
 t1_10_17
 t1_10_18
 t1_10_19
 t1_10_20
 t1_10_21
 t1_10_22
 t1_10_23
 t1_11_12
 t1_11_13
 t1_11_14
 t1_11_15
 t1_11_16
 t1_11_17
 t1_11_18
 t1_11_19
 t1_11_20
 t1_11_21
 t1_11_22
 t1_11_23
 t1_12_13
 t1_12_14
 t1_12_15
 t1_12_16
 t1_12_17
 t1_12_18
 t1_12_19
 t1_12_20
 t1_12_21
 t1_12_22
 t1_12_23
 t1_13_14
 t1_13_15
 t1_13_16
 t1_13_17
 t1_13_18
 t1_13_19
 t1_13_20
 t1_13_21
 t1_13_22
 t1_13_23
 t1_14_15
 t1_14_16
 t1_14_17
 t1_14_18
 t1_14_19
 t1_14_20
 t1_14_21
 t1_14_22
 t1_14_23
 t1_15_16
 t1_15_17
 t1_15_18
 t1_15_19
 t1_15_20
 t1_15_21
 t1_15_22
 t1_15_23
 t1_16_17
 t1_16_18
 t1_16_19
 t1_16_20
 t1_16_21
 t1_16_22
 t1_16_23
 t1_17_18
 t1_17_19
 t1_17_20
 t1_17_21
 t1_17_22
 t1_17_23
 t1_18_19
 t1_18_20
 t1_18_21
 t1_18_22
 t1_18_23
 t1_19_20
 t1_19_21
 t1_19_22
 t1_19_23
 t1_20_21
 t1_20_22
 t1_20_23
 t1_21_22
 t1_21_23
 t1_22_23
 t2_3_4
 t2_3_5
 t2_3_6
 t2_3_7
 t2_3_8
 t2_3_9
 t2_3_10
 t2_3_11
 t2_3_12
 t2_3_13
 t2_3_14
 t2_3_15
 t2_3_16
 t2_3_17
 t2_3_18
 t2_3_19
 t2_3_20
 t2_3_21
 t2_3_22
 t2_3_23
 t2_4_5
 t2_4_6
 t2_4_7
 t2_4_8
 t2_4_9
 t2_4_10
 t2_4_11
 t2_4_12
 t2_4_13
 t2_4_14
 t2_4_15
 t2_4_16
 t2_4_17
 t2_4_18
 t2_4_19
 t2_4_20
 t2_4_21
 t2_4_22
 t2_4_23
 t2_5_6
 t2_5_7
 t2_5_8
 t2_5_9
 t2_5_10
 t2_5_11
 t2_5_12
 t2_5_13
 t2_5_14
 t2_5_15
 t2_5_16
 t2_5_17
 t2_5_18
 t2_5_19
 t2_5_20
 t2_5_21
 t2_5_22
 t2_5_23
 t2_6_7
 t2_6_8
 t2_6_9
 t2_6_10
 t2_6_11
 t2_6_12
 t2_6_13
 t2_6_14
 t2_6_15
 t2_6_16
 t2_6_17
 t2_6_18
 t2_6_19
 t2_6_20
 t2_6_21
 t2_6_22
 t2_6_23
 t2_7_8
 t2_7_9
 t2_7_10
 t2_7_11
 t2_7_12
 t2_7_13
 t2_7_14
 t2_7_15
 t2_7_16
 t2_7_17
 t2_7_18
 t2_7_19
 t2_7_20
 t2_7_21
 t2_7_22
 t2_7_23
 t2_8_9
 t2_8_10
 t2_8_11
 t2_8_12
 t2_8_13
 t2_8_14
 t2_8_15
 t2_8_16
 t2_8_17
 t2_8_18
 t2_8_19
 t2_8_20
 t2_8_21
 t2_8_22
 t2_8_23
 t2_9_10
 t2_9_11
 t2_9_12
 t2_9_13
 t2_9_14
 t2_9_15
 t2_9_16
 t2_9_17
 t2_9_18
 t2_9_19
 t2_9_20
 t2_9_21
 t2_9_22
 t2_9_23
 t2_10_11
 t2_10_12
 t2_10_13
 t2_10_14
 t2_10_15
 t2_10_16
 t2_10_17
 t2_10_18
 t2_10_19
 t2_10_20
 t2_10_21
 t2_10_22
 t2_10_23
 t2_11_12
 t2_11_13
 t2_11_14
 t2_11_15
 t2_11_16
 t2_11_17
 t2_11_18
 t2_11_19
 t2_11_20
 t2_11_21
 t2_11_22
 t2_11_23
 t2_12_13
 t2_12_14
 t2_12_15
 t2_12_16
 t2_12_17
 t2_12_18
 t2_12_19
 t2_12_20
 t2_12_21
 t2_12_22
 t2_12_23
 t2_13_14
 t2_13_15
 t2_13_16
 t2_13_17
 t2_13_18
 t2_13_19
 t2_13_20
 t2_13_21
 t2_13_22
 t2_13_23
 t2_14_15
 t2_14_16
 t2_14_17
 t2_14_18
 t2_14_19
 t2_14_20
 t2_14_21
 t2_14_22
 t2_14_23
 t2_15_16
 t2_15_17
 t2_15_18
 t2_15_19
 t2_15_20
 t2_15_21
 t2_15_22
 t2_15_23
 t2_16_17
 t2_16_18
 t2_16_19
 t2_16_20
 t2_16_21
 t2_16_22
 t2_16_23
 t2_17_18
 t2_17_19
 t2_17_20
 t2_17_21
 t2_17_22
 t2_17_23
 t2_18_19
 t2_18_20
 t2_18_21
 t2_18_22
 t2_18_23
 t2_19_20
 t2_19_21
 t2_19_22
 t2_19_23
 t2_20_21
 t2_20_22
 t2_20_23
 t2_21_22
 t2_21_23
 t2_22_23
 t3_4_5
 t3_4_6
 t3_4_7
 t3_4_8
 t3_4_9
 t3_4_10
 t3_4_11
 t3_4_12
 t3_4_13
 t3_4_14
 t3_4_15
 t3_4_16
 t3_4_17
 t3_4_18
 t3_4_19
 t3_4_20
 t3_4_21
 t3_4_22
 t3_4_23
 t3_5_6
 t3_5_7
 t3_5_8
 t3_5_9
 t3_5_10
 t3_5_11
 t3_5_12
 t3_5_13
 t3_5_14
 t3_5_15
 t3_5_16
 t3_5_17
 t3_5_18
 t3_5_19
 t3_5_20
 t3_5_21
 t3_5_22
 t3_5_23
 t3_6_7
 t3_6_8
 t3_6_9
 t3_6_10
 t3_6_11
 t3_6_12
 t3_6_13
 t3_6_14
 t3_6_15
 t3_6_16
 t3_6_17
 t3_6_18
 t3_6_19
 t3_6_20
 t3_6_21
 t3_6_22
 t3_6_23
 t3_7_8
 t3_7_9
 t3_7_10
 t3_7_11
 t3_7_12
 t3_7_13
 t3_7_14
 t3_7_15
 t3_7_16
 t3_7_17
 t3_7_18
 t3_7_19
 t3_7_20
 t3_7_21
 t3_7_22
 t3_7_23
 t3_8_9
 t3_8_10
 t3_8_11
 t3_8_12
 t3_8_13
 t3_8_14
 t3_8_15
 t3_8_16
 t3_8_17
 t3_8_18
 t3_8_19
 t3_8_20
 t3_8_21
 t3_8_22
 t3_8_23
 t3_9_10
 t3_9_11
 t3_9_12
 t3_9_13
 t3_9_14
 t3_9_15
 t3_9_16
 t3_9_17
 t3_9_18
 t3_9_19
 t3_9_20
 t3_9_21
 t3_9_22
 t3_9_23
 t3_10_11
 t3_10_12
 t3_10_13
 t3_10_14
 t3_10_15
 t3_10_16
 t3_10_17
 t3_10_18
 t3_10_19
 t3_10_20
 t3_10_21
 t3_10_22
 t3_10_23
 t3_11_12
 t3_11_13
 t3_11_14
 t3_11_15
 t3_11_16
 t3_11_17
 t3_11_18
 t3_11_19
 t3_11_20
 t3_11_21
 t3_11_22
 t3_11_23
 t3_12_13
 t3_12_14
 t3_12_15
 t3_12_16
 t3_12_17
 t3_12_18
 t3_12_19
 t3_12_20
 t3_12_21
 t3_12_22
 t3_12_23
 t3_13_14
 t3_13_15
 t3_13_16
 t3_13_17
 t3_13_18
 t3_13_19
 t3_13_20
 t3_13_21
 t3_13_22
 t3_13_23
 t3_14_15
 t3_14_16
 t3_14_17
 t3_14_18
 t3_14_19
 t3_14_20
 t3_14_21
 t3_14_22
 t3_14_23
 t3_15_16
 t3_15_17
 t3_15_18
 t3_15_19
 t3_15_20
 t3_15_21
 t3_15_22
 t3_15_23
 t3_16_17
 t3_16_18
 t3_16_19
 t3_16_20
 t3_16_21
 t3_16_22
 t3_16_23
 t3_17_18
 t3_17_19
 t3_17_20
 t3_17_21
 t3_17_22
 t3_17_23
 t3_18_19
 t3_18_20
 t3_18_21
 t3_18_22
 t3_18_23
 t3_19_20
 t3_19_21
 t3_19_22
 t3_19_23
 t3_20_21
 t3_20_22
 t3_20_23
 t3_21_22
 t3_21_23
 t3_22_23
 t4_5_6
 t4_5_7
 t4_5_8
 t4_5_9
 t4_5_10
 t4_5_11
 t4_5_12
 t4_5_13
 t4_5_14
 t4_5_15
 t4_5_16
 t4_5_17
 t4_5_18
 t4_5_19
 t4_5_20
 t4_5_21
 t4_5_22
 t4_5_23
 t4_6_7
 t4_6_8
 t4_6_9
 t4_6_10
 t4_6_11
 t4_6_12
 t4_6_13
 t4_6_14
 t4_6_15
 t4_6_16
 t4_6_17
 t4_6_18
 t4_6_19
 t4_6_20
 t4_6_21
 t4_6_22
 t4_6_23
 t4_7_8
 t4_7_9
 t4_7_10
 t4_7_11
 t4_7_12
 t4_7_13
 t4_7_14
 t4_7_15
 t4_7_16
 t4_7_17
 t4_7_18
 t4_7_19
 t4_7_20
 t4_7_21
 t4_7_22
 t4_7_23
 t4_8_9
 t4_8_10
 t4_8_11
 t4_8_12
 t4_8_13
 t4_8_14
 t4_8_15
 t4_8_16
 t4_8_17
 t4_8_18
 t4_8_19
 t4_8_20
 t4_8_21
 t4_8_22
 t4_8_23
 t4_9_10
 t4_9_11
 t4_9_12
 t4_9_13
 t4_9_14
 t4_9_15
 t4_9_16
 t4_9_17
 t4_9_18
 t4_9_19
 t4_9_20
 t4_9_21
 t4_9_22
 t4_9_23
 t4_10_11
 t4_10_12
 t4_10_13
 t4_10_14
 t4_10_15
 t4_10_16
 t4_10_17
 t4_10_18
 t4_10_19
 t4_10_20
 t4_10_21
 t4_10_22
 t4_10_23
 t4_11_12
 t4_11_13
 t4_11_14
 t4_11_15
 t4_11_16
 t4_11_17
 t4_11_18
 t4_11_19
 t4_11_20
 t4_11_21
 t4_11_22
 t4_11_23
 t4_12_13
 t4_12_14
 t4_12_15
 t4_12_16
 t4_12_17
 t4_12_18
 t4_12_19
 t4_12_20
 t4_12_21
 t4_12_22
 t4_12_23
 t4_13_14
 t4_13_15
 t4_13_16
 t4_13_17
 t4_13_18
 t4_13_19
 t4_13_20
 t4_13_21
 t4_13_22
 t4_13_23
 t4_14_15
 t4_14_16
 t4_14_17
 t4_14_18
 t4_14_19
 t4_14_20
 t4_14_21
 t4_14_22
 t4_14_23
 t4_15_16
 t4_15_17
 t4_15_18
 t4_15_19
 t4_15_20
 t4_15_21
 t4_15_22
 t4_15_23
 t4_16_17
 t4_16_18
 t4_16_19
 t4_16_20
 t4_16_21
 t4_16_22
 t4_16_23
 t4_17_18
 t4_17_19
 t4_17_20
 t4_17_21
 t4_17_22
 t4_17_23
 t4_18_19
 t4_18_20
 t4_18_21
 t4_18_22
 t4_18_23
 t4_19_20
 t4_19_21
 t4_19_22
 t4_19_23
 t4_20_21
 t4_20_22
 t4_20_23
 t4_21_22
 t4_21_23
 t4_22_23
 t5_6_7
 t5_6_8
 t5_6_9
 t5_6_10
 t5_6_11
 t5_6_12
 t5_6_13
 t5_6_14
 t5_6_15
 t5_6_16
 t5_6_17
 t5_6_18
 t5_6_19
 t5_6_20
 t5_6_21
 t5_6_22
 t5_6_23
 t5_7_8
 t5_7_9
 t5_7_10
 t5_7_11
 t5_7_12
 t5_7_13
 t5_7_14
 t5_7_15
 t5_7_16
 t5_7_17
 t5_7_18
 t5_7_19
 t5_7_20
 t5_7_21
 t5_7_22
 t5_7_23
 t5_8_9
 t5_8_10
 t5_8_11
 t5_8_12
 t5_8_13
 t5_8_14
 t5_8_15
 t5_8_16
 t5_8_17
 t5_8_18
 t5_8_19
 t5_8_20
 t5_8_21
 t5_8_22
 t5_8_23
 t5_9_10
 t5_9_11
 t5_9_12
 t5_9_13
 t5_9_14
 t5_9_15
 t5_9_16
 t5_9_17
 t5_9_18
 t5_9_19
 t5_9_20
 t5_9_21
 t5_9_22
 t5_9_23
 t5_10_11
 t5_10_12
 t5_10_13
 t5_10_14
 t5_10_15
 t5_10_16
 t5_10_17
 t5_10_18
 t5_10_19
 t5_10_20
 t5_10_21
 t5_10_22
 t5_10_23
 t5_11_12
 t5_11_13
 t5_11_14
 t5_11_15
 t5_11_16
 t5_11_17
 t5_11_18
 t5_11_19
 t5_11_20
 t5_11_21
 t5_11_22
 t5_11_23
 t5_12_13
 t5_12_14
 t5_12_15
 t5_12_16
 t5_12_17
 t5_12_18
 t5_12_19
 t5_12_20
 t5_12_21
 t5_12_22
 t5_12_23
 t5_13_14
 t5_13_15
 t5_13_16
 t5_13_17
 t5_13_18
 t5_13_19
 t5_13_20
 t5_13_21
 t5_13_22
 t5_13_23
 t5_14_15
 t5_14_16
 t5_14_17
 t5_14_18
 t5_14_19
 t5_14_20
 t5_14_21
 t5_14_22
 t5_14_23
 t5_15_16
 t5_15_17
 t5_15_18
 t5_15_19
 t5_15_20
 t5_15_21
 t5_15_22
 t5_15_23
 t5_16_17
 t5_16_18
 t5_16_19
 t5_16_20
 t5_16_21
 t5_16_22
 t5_16_23
 t5_17_18
 t5_17_19
 t5_17_20
 t5_17_21
 t5_17_22
 t5_17_23
 t5_18_19
 t5_18_20
 t5_18_21
 t5_18_22
 t5_18_23
 t5_19_20
 t5_19_21
 t5_19_22
 t5_19_23
 t5_20_21
 t5_20_22
 t5_20_23
 t5_21_22
 t5_21_23
 t5_22_23
 t6_7_8
 t6_7_9
 t6_7_10
 t6_7_11
 t6_7_12
 t6_7_13
 t6_7_14
 t6_7_15
 t6_7_16
 t6_7_17
 t6_7_18
 t6_7_19
 t6_7_20
 t6_7_21
 t6_7_22
 t6_7_23
 t6_8_9
 t6_8_10
 t6_8_11
 t6_8_12
 t6_8_13
 t6_8_14
 t6_8_15
 t6_8_16
 t6_8_17
 t6_8_18
 t6_8_19
 t6_8_20
 t6_8_21
 t6_8_22
 t6_8_23
 t6_9_10
 t6_9_11
 t6_9_12
 t6_9_13
 t6_9_14
 t6_9_15
 t6_9_16
 t6_9_17
 t6_9_18
 t6_9_19
 t6_9_20
 t6_9_21
 t6_9_22
 t6_9_23
 t6_10_11
 t6_10_12
 t6_10_13
 t6_10_14
 t6_10_15
 t6_10_16
 t6_10_17
 t6_10_18
 t6_10_19
 t6_10_20
 t6_10_21
 t6_10_22
 t6_10_23
 t6_11_12
 t6_11_13
 t6_11_14
 t6_11_15
 t6_11_16
 t6_11_17
 t6_11_18
 t6_11_19
 t6_11_20
 t6_11_21
 t6_11_22
 t6_11_23
 t6_12_13
 t6_12_14
 t6_12_15
 t6_12_16
 t6_12_17
 t6_12_18
 t6_12_19
 t6_12_20
 t6_12_21
 t6_12_22
 t6_12_23
 t6_13_14
 t6_13_15
 t6_13_16
 t6_13_17
 t6_13_18
 t6_13_19
 t6_13_20
 t6_13_21
 t6_13_22
 t6_13_23
 t6_14_15
 t6_14_16
 t6_14_17
 t6_14_18
 t6_14_19
 t6_14_20
 t6_14_21
 t6_14_22
 t6_14_23
 t6_15_16
 t6_15_17
 t6_15_18
 t6_15_19
 t6_15_20
 t6_15_21
 t6_15_22
 t6_15_23
 t6_16_17
 t6_16_18
 t6_16_19
 t6_16_20
 t6_16_21
 t6_16_22
 t6_16_23
 t6_17_18
 t6_17_19
 t6_17_20
 t6_17_21
 t6_17_22
 t6_17_23
 t6_18_19
 t6_18_20
 t6_18_21
 t6_18_22
 t6_18_23
 t6_19_20
 t6_19_21
 t6_19_22
 t6_19_23
 t6_20_21
 t6_20_22
 t6_20_23
 t6_21_22
 t6_21_23
 t6_22_23
 t7_8_9
 t7_8_10
 t7_8_11
 t7_8_12
 t7_8_13
 t7_8_14
 t7_8_15
 t7_8_16
 t7_8_17
 t7_8_18
 t7_8_19
 t7_8_20
 t7_8_21
 t7_8_22
 t7_8_23
 t7_9_10
 t7_9_11
 t7_9_12
 t7_9_13
 t7_9_14
 t7_9_15
 t7_9_16
 t7_9_17
 t7_9_18
 t7_9_19
 t7_9_20
 t7_9_21
 t7_9_22
 t7_9_23
 t7_10_11
 t7_10_12
 t7_10_13
 t7_10_14
 t7_10_15
 t7_10_16
 t7_10_17
 t7_10_18
 t7_10_19
 t7_10_20
 t7_10_21
 t7_10_22
 t7_10_23
 t7_11_12
 t7_11_13
 t7_11_14
 t7_11_15
 t7_11_16
 t7_11_17
 t7_11_18
 t7_11_19
 t7_11_20
 t7_11_21
 t7_11_22
 t7_11_23
 t7_12_13
 t7_12_14
 t7_12_15
 t7_12_16
 t7_12_17
 t7_12_18
 t7_12_19
 t7_12_20
 t7_12_21
 t7_12_22
 t7_12_23
 t7_13_14
 t7_13_15
 t7_13_16
 t7_13_17
 t7_13_18
 t7_13_19
 t7_13_20
 t7_13_21
 t7_13_22
 t7_13_23
 t7_14_15
 t7_14_16
 t7_14_17
 t7_14_18
 t7_14_19
 t7_14_20
 t7_14_21
 t7_14_22
 t7_14_23
 t7_15_16
 t7_15_17
 t7_15_18
 t7_15_19
 t7_15_20
 t7_15_21
 t7_15_22
 t7_15_23
 t7_16_17
 t7_16_18
 t7_16_19
 t7_16_20
 t7_16_21
 t7_16_22
 t7_16_23
 t7_17_18
 t7_17_19
 t7_17_20
 t7_17_21
 t7_17_22
 t7_17_23
 t7_18_19
 t7_18_20
 t7_18_21
 t7_18_22
 t7_18_23
 t7_19_20
 t7_19_21
 t7_19_22
 t7_19_23
 t7_20_21
 t7_20_22
 t7_20_23
 t7_21_22
 t7_21_23
 t7_22_23
 t8_9_10
 t8_9_11
 t8_9_12
 t8_9_13
 t8_9_14
 t8_9_15
 t8_9_16
 t8_9_17
 t8_9_18
 t8_9_19
 t8_9_20
 t8_9_21
 t8_9_22
 t8_9_23
 t8_10_11
 t8_10_12
 t8_10_13
 t8_10_14
 t8_10_15
 t8_10_16
 t8_10_17
 t8_10_18
 t8_10_19
 t8_10_20
 t8_10_21
 t8_10_22
 t8_10_23
 t8_11_12
 t8_11_13
 t8_11_14
 t8_11_15
 t8_11_16
 t8_11_17
 t8_11_18
 t8_11_19
 t8_11_20
 t8_11_21
 t8_11_22
 t8_11_23
 t8_12_13
 t8_12_14
 t8_12_15
 t8_12_16
 t8_12_17
 t8_12_18
 t8_12_19
 t8_12_20
 t8_12_21
 t8_12_22
 t8_12_23
 t8_13_14
 t8_13_15
 t8_13_16
 t8_13_17
 t8_13_18
 t8_13_19
 t8_13_20
 t8_13_21
 t8_13_22
 t8_13_23
 t8_14_15
 t8_14_16
 t8_14_17
 t8_14_18
 t8_14_19
 t8_14_20
 t8_14_21
 t8_14_22
 t8_14_23
 t8_15_16
 t8_15_17
 t8_15_18
 t8_15_19
 t8_15_20
 t8_15_21
 t8_15_22
 t8_15_23
 t8_16_17
 t8_16_18
 t8_16_19
 t8_16_20
 t8_16_21
 t8_16_22
 t8_16_23
 t8_17_18
 t8_17_19
 t8_17_20
 t8_17_21
 t8_17_22
 t8_17_23
 t8_18_19
 t8_18_20
 t8_18_21
 t8_18_22
 t8_18_23
 t8_19_20
 t8_19_21
 t8_19_22
 t8_19_23
 t8_20_21
 t8_20_22
 t8_20_23
 t8_21_22
 t8_21_23
 t8_22_23
 t9_10_11
 t9_10_12
 t9_10_13
 t9_10_14
 t9_10_15
 t9_10_16
 t9_10_17
 t9_10_18
 t9_10_19
 t9_10_20
 t9_10_21
 t9_10_22
 t9_10_23
 t9_11_12
 t9_11_13
 t9_11_14
 t9_11_15
 t9_11_16
 t9_11_17
 t9_11_18
 t9_11_19
 t9_11_20
 t9_11_21
 t9_11_22
 t9_11_23
 t9_12_13
 t9_12_14
 t9_12_15
 t9_12_16
 t9_12_17
 t9_12_18
 t9_12_19
 t9_12_20
 t9_12_21
 t9_12_22
 t9_12_23
 t9_13_14
 t9_13_15
 t9_13_16
 t9_13_17
 t9_13_18
 t9_13_19
 t9_13_20
 t9_13_21
 t9_13_22
 t9_13_23
 t9_14_15
 t9_14_16
 t9_14_17
 t9_14_18
 t9_14_19
 t9_14_20
 t9_14_21
 t9_14_22
 t9_14_23
 t9_15_16
 t9_15_17
 t9_15_18
 t9_15_19
 t9_15_20
 t9_15_21
 t9_15_22
 t9_15_23
 t9_16_17
 t9_16_18
 t9_16_19
 t9_16_20
 t9_16_21
 t9_16_22
 t9_16_23
 t9_17_18
 t9_17_19
 t9_17_20
 t9_17_21
 t9_17_22
 t9_17_23
 t9_18_19
 t9_18_20
 t9_18_21
 t9_18_22
 t9_18_23
 t9_19_20
 t9_19_21
 t9_19_22
 t9_19_23
 t9_20_21
 t9_20_22
 t9_20_23
 t9_21_22
 t9_21_23
 t9_22_23
 t10_11_12
 t10_11_13
 t10_11_14
 t10_11_15
 t10_11_16
 t10_11_17
 t10_11_18
 t10_11_19
 t10_11_20
 t10_11_21
 t10_11_22
 t10_11_23
 t10_12_13
 t10_12_14
 t10_12_15
 t10_12_16
 t10_12_17
 t10_12_18
 t10_12_19
 t10_12_20
 t10_12_21
 t10_12_22
 t10_12_23
 t10_13_14
 t10_13_15
 t10_13_16
 t10_13_17
 t10_13_18
 t10_13_19
 t10_13_20
 t10_13_21
 t10_13_22
 t10_13_23
 t10_14_15
 t10_14_16
 t10_14_17
 t10_14_18
 t10_14_19
 t10_14_20
 t10_14_21
 t10_14_22
 t10_14_23
 t10_15_16
 t10_15_17
 t10_15_18
 t10_15_19
 t10_15_20
 t10_15_21
 t10_15_22
 t10_15_23
 t10_16_17
 t10_16_18
 t10_16_19
 t10_16_20
 t10_16_21
 t10_16_22
 t10_16_23
 t10_17_18
 t10_17_19
 t10_17_20
 t10_17_21
 t10_17_22
 t10_17_23
 t10_18_19
 t10_18_20
 t10_18_21
 t10_18_22
 t10_18_23
 t10_19_20
 t10_19_21
 t10_19_22
 t10_19_23
 t10_20_21
 t10_20_22
 t10_20_23
 t10_21_22
 t10_21_23
 t10_22_23
 t11_12_13
 t11_12_14
 t11_12_15
 t11_12_16
 t11_12_17
 t11_12_18
 t11_12_19
 t11_12_20
 t11_12_21
 t11_12_22
 t11_12_23
 t11_13_14
 t11_13_15
 t11_13_16
 t11_13_17
 t11_13_18
 t11_13_19
 t11_13_20
 t11_13_21
 t11_13_22
 t11_13_23
 t11_14_15
 t11_14_16
 t11_14_17
 t11_14_18
 t11_14_19
 t11_14_20
 t11_14_21
 t11_14_22
 t11_14_23
 t11_15_16
 t11_15_17
 t11_15_18
 t11_15_19
 t11_15_20
 t11_15_21
 t11_15_22
 t11_15_23
 t11_16_17
 t11_16_18
 t11_16_19
 t11_16_20
 t11_16_21
 t11_16_22
 t11_16_23
 t11_17_18
 t11_17_19
 t11_17_20
 t11_17_21
 t11_17_22
 t11_17_23
 t11_18_19
 t11_18_20
 t11_18_21
 t11_18_22
 t11_18_23
 t11_19_20
 t11_19_21
 t11_19_22
 t11_19_23
 t11_20_21
 t11_20_22
 t11_20_23
 t11_21_22
 t11_21_23
 t11_22_23
 t12_13_14
 t12_13_15
 t12_13_16
 t12_13_17
 t12_13_18
 t12_13_19
 t12_13_20
 t12_13_21
 t12_13_22
 t12_13_23
 t12_14_15
 t12_14_16
 t12_14_17
 t12_14_18
 t12_14_19
 t12_14_20
 t12_14_21
 t12_14_22
 t12_14_23
 t12_15_16
 t12_15_17
 t12_15_18
 t12_15_19
 t12_15_20
 t12_15_21
 t12_15_22
 t12_15_23
 t12_16_17
 t12_16_18
 t12_16_19
 t12_16_20
 t12_16_21
 t12_16_22
 t12_16_23
 t12_17_18
 t12_17_19
 t12_17_20
 t12_17_21
 t12_17_22
 t12_17_23
 t12_18_19
 t12_18_20
 t12_18_21
 t12_18_22
 t12_18_23
 t12_19_20
 t12_19_21
 t12_19_22
 t12_19_23
 t12_20_21
 t12_20_22
 t12_20_23
 t12_21_22
 t12_21_23
 t12_22_23
 t13_14_15
 t13_14_16
 t13_14_17
 t13_14_18
 t13_14_19
 t13_14_20
 t13_14_21
 t13_14_22
 t13_14_23
 t13_15_16
 t13_15_17
 t13_15_18
 t13_15_19
 t13_15_20
 t13_15_21
 t13_15_22
 t13_15_23
 t13_16_17
 t13_16_18
 t13_16_19
 t13_16_20
 t13_16_21
 t13_16_22
 t13_16_23
 t13_17_18
 t13_17_19
 t13_17_20
 t13_17_21
 t13_17_22
 t13_17_23
 t13_18_19
 t13_18_20
 t13_18_21
 t13_18_22
 t13_18_23
 t13_19_20
 t13_19_21
 t13_19_22
 t13_19_23
 t13_20_21
 t13_20_22
 t13_20_23
 t13_21_22
 t13_21_23
 t13_22_23
 t14_15_16
 t14_15_17
 t14_15_18
 t14_15_19
 t14_15_20
 t14_15_21
 t14_15_22
 t14_15_23
 t14_16_17
 t14_16_18
 t14_16_19
 t14_16_20
 t14_16_21
 t14_16_22
 t14_16_23
 t14_17_18
 t14_17_19
 t14_17_20
 t14_17_21
 t14_17_22
 t14_17_23
 t14_18_19
 t14_18_20
 t14_18_21
 t14_18_22
 t14_18_23
 t14_19_20
 t14_19_21
 t14_19_22
 t14_19_23
 t14_20_21
 t14_20_22
 t14_20_23
 t14_21_22
 t14_21_23
 t14_22_23
 t15_16_17
 t15_16_18
 t15_16_19
 t15_16_20
 t15_16_21
 t15_16_22
 t15_16_23
 t15_17_18
 t15_17_19
 t15_17_20
 t15_17_21
 t15_17_22
 t15_17_23
 t15_18_19
 t15_18_20
 t15_18_21
 t15_18_22
 t15_18_23
 t15_19_20
 t15_19_21
 t15_19_22
 t15_19_23
 t15_20_21
 t15_20_22
 t15_20_23
 t15_21_22
 t15_21_23
 t15_22_23
 t16_17_18
 t16_17_19
 t16_17_20
 t16_17_21
 t16_17_22
 t16_17_23
 t16_18_19
 t16_18_20
 t16_18_21
 t16_18_22
 t16_18_23
 t16_19_20
 t16_19_21
 t16_19_22
 t16_19_23
 t16_20_21
 t16_20_22
 t16_20_23
 t16_21_22
 t16_21_23
 t16_22_23
 t17_18_19
 t17_18_20
 t17_18_21
 t17_18_22
 t17_18_23
 t17_19_20
 t17_19_21
 t17_19_22
 t17_19_23
 t17_20_21
 t17_20_22
 t17_20_23
 t17_21_22
 t17_21_23
 t17_22_23
 t18_19_20
 t18_19_21
 t18_19_22
 t18_19_23
 t18_20_21
 t18_20_22
 t18_20_23
 t18_21_22
 t18_21_23
 t18_22_23
 t19_20_21
 t19_20_22
 t19_20_23
 t19_21_22
 t19_21_23
 t19_22_23
 t20_21_22
 t20_21_23
 t20_22_23
 t21_22_23

b_1_4
b_1_5
b_1_6
b_1_7
b_1_8
b_1_9
b_1_10
b_1_11
b_1_12
b_1_13
b_1_14
b_1_15
b_1_16
b_1_17
b_1_18
b_1_19
b_1_20
b_1_21
b_1_22
b_1_23
b_2_4
b_2_5
b_2_6
b_2_7
b_2_8
b_2_9
b_2_10
b_2_11
b_2_12
b_2_13
b_2_14
b_2_15
b_2_16
b_2_17
b_2_18
b_2_19
b_2_20
b_2_21
b_2_22
b_2_23
b_3_4
b_3_5
b_3_6
b_3_7
b_3_8
b_3_9
b_3_10
b_3_11
b_3_12
b_3_13
b_3_14
b_3_15
b_3_16
b_3_17
b_3_18
b_3_19
b_3_20
b_3_21
b_3_22
b_3_23
b_4_10
b_4_11
b_4_12
b_4_13
b_4_14
b_4_15
b_4_16
b_4_17
b_4_18
b_4_19
b_4_20
b_4_21
b_4_22
b_4_23
b_5_10
b_5_11
b_5_12
b_5_13
b_5_14
b_5_15
b_5_16
b_5_17
b_5_18
b_5_19
b_5_20
b_5_21
b_5_22
b_5_23
b_6_10
b_6_11
b_6_12
b_6_13
b_6_14
b_6_15
b_6_16
b_6_17
b_6_18
b_6_19
b_6_20
b_6_21
b_6_22
b_6_23
b_7_10
b_7_11
b_7_12
b_7_13
b_7_14
b_7_15
b_7_16
b_7_17
b_7_18
b_7_19
b_7_20
b_7_21
b_7_22
b_7_23
b_8_10
b_8_11
b_8_12
b_8_13
b_8_14
b_8_15
b_8_16
b_8_17
b_8_18
b_8_19
b_8_20
b_8_21
b_8_22
b_8_23
b_9_10
b_9_11
b_9_12
b_9_13
b_9_14
b_9_15
b_9_16
b_9_17
b_9_18
b_9_19
b_9_20
b_9_21
b_9_22
b_9_23
b_11_17
b_11_18
b_11_19
b_11_20
b_11_21
b_11_22
b_11_23
b_12_17
b_12_18
b_12_19
b_12_20
b_12_21
b_12_22
b_12_23
b_13_17
b_13_18
b_13_19
b_13_20
b_13_21
b_13_22
b_13_23
b_14_17
b_14_18
b_14_19
b_14_20
b_14_21
b_14_22
b_14_23
b_15_17
b_15_18
b_15_19
b_15_20
b_15_21
b_15_22
b_15_23
b_16_17
b_16_18
b_16_19
b_16_20
b_16_21
b_16_22
b_16_23


General
 d0
 d1
 d2
 d3
 d4
 d5
 d6
 d7
 d8
 d9
 d10
 d11
 d12
 d13
 d14
 d15
 d16
 d17
 d18
 d19
 d20
 d21
 d22
 d23

 T
 Z
 dup_11_12
 dup_11_17
 dup_11_18
 dup_11_19
 dup_11_20
 dup_11_21
 dup_11_22
 dup_11_23
 dup_12_13
 dup_12_17
 dup_12_18
 dup_12_19
 dup_12_20
 dup_12_21
 dup_12_22
 dup_12_23
 dup_13_14
 dup_13_17
 dup_13_18
 dup_13_19
 dup_13_20
 dup_13_21
 dup_13_22
 dup_13_23
 dup_14_15
 dup_14_17
 dup_14_18
 dup_14_19
 dup_14_20
 dup_14_21
 dup_14_22
 dup_14_23
 dup_15_16
 dup_15_17
 dup_15_18
 dup_15_19
 dup_15_20
 dup_15_21
 dup_15_22
 dup_15_23
 dup_16_17
 dup_16_18
 dup_16_19
 dup_16_20
 dup_16_21
 dup_16_22
 dup_16_23
 dup_17_18
 dup_18_19
 dup_19_20
 dup_1_10
 dup_1_11
 dup_1_12
 dup_1_13
 dup_1_14
 dup_1_15
 dup_1_16
 dup_1_17
 dup_1_18
 dup_1_19
 dup_1_2
 dup_1_20
 dup_1_21
 dup_1_22
 dup_1_23
 dup_1_4
 dup_1_5
 dup_1_6
 dup_1_7
 dup_1_8
 dup_1_9
 dup_20_21
 dup_21_22
 dup_22_23
 dup_2_10
 dup_2_11
 dup_2_12
 dup_2_13
 dup_2_14
 dup_2_15
 dup_2_16
 dup_2_17
 dup_2_18
 dup_2_19
 dup_2_20
 dup_2_21
 dup_2_22
 dup_2_23
 dup_2_3
 dup_2_4
 dup_2_5
 dup_2_6
 dup_2_7
 dup_2_8
 dup_2_9
 dup_3_10
 dup_3_11
 dup_3_12
 dup_3_13
 dup_3_14
 dup_3_15
 dup_3_16
 dup_3_17
 dup_3_18
 dup_3_19
 dup_3_20
 dup_3_21
 dup_3_22
 dup_3_23
 dup_3_4
 dup_3_5
 dup_3_6
 dup_3_7
 dup_3_8
 dup_3_9
 dup_4_10
 dup_4_11
 dup_4_12
 dup_4_13
 dup_4_14
 dup_4_15
 dup_4_16
 dup_4_17
 dup_4_18
 dup_4_19
 dup_4_20
 dup_4_21
 dup_4_22
 dup_4_23
 dup_4_5
 dup_5_10
 dup_5_11
 dup_5_12
 dup_5_13
 dup_5_14
 dup_5_15
 dup_5_16
 dup_5_17
 dup_5_18
 dup_5_19
 dup_5_20
 dup_5_21
 dup_5_22
 dup_5_23
 dup_5_6
 dup_6_10
 dup_6_11
 dup_6_12
 dup_6_13
 dup_6_14
 dup_6_15
 dup_6_16
 dup_6_17
 dup_6_18
 dup_6_19
 dup_6_20
 dup_6_21
 dup_6_22
 dup_6_23
 dup_6_7
 dup_7_10
 dup_7_11
 dup_7_12
 dup_7_13
 dup_7_14
 dup_7_15
 dup_7_16
 dup_7_17
 dup_7_18
 dup_7_19
 dup_7_20
 dup_7_21
 dup_7_22
 dup_7_23
 dup_7_8
 dup_8_10
 dup_8_11
 dup_8_12
 dup_8_13
 dup_8_14
 dup_8_15
 dup_8_16
 dup_8_17
 dup_8_18
 dup_8_19
 dup_8_20
 dup_8_21
 dup_8_22
 dup_8_23
 dup_8_9
 dup_9_10
 dup_9_11
 dup_9_12
 dup_9_13
 dup_9_14
 dup_9_15
 dup_9_16
 dup_9_17
 dup_9_18
 dup_9_19
 dup_9_20
 dup_9_21
 dup_9_22
 dup_9_23

End
