\ SCIP STATISTICS
\   Problem name     : t_N19_R8_K3_0_20_split_20.lp
\   Variables        : 1067 (1048 binary, 19 integer, 0 implicit integer, 0 continuous)
\   Constraints      : 1055
Minimize
 Obj: +0
Subject to
 ord17: +1 t_d17_shift -1 t_d18_shift <= -0
 ord9: +1 t_d10_shift -1 t_d9 >= +0
 ord16: +1 t_d16_shift -1 t_d17_shift <= -0
 ord7: +1 t_d7_shift -1 t_d8_shift <= -0
 ord6: +1 t_d6_shift -1 t_d7_shift <= -0
 ord10: +1 t_d10_shift -1 t_d11_shift <= -0
 ord1: +1 t_d2_shift -1 t_d1 >= +0
 ord11: +1 t_d11_shift -1 t_d12_shift <= -0
 ord12: +1 t_d12_shift -1 t_d13_shift <= -0
 ord13: +1 t_d13_shift -1 t_d14_shift <= -0
 ord15: +1 t_d15_shift -1 t_d16_shift <= -0
 ord14: +1 t_d14_shift -1 t_d15_shift <= -0
 ord5: +1 t_d5_shift -1 t_d6_shift <= -0
 ord4: +1 t_d4_shift -1 t_d5_shift <= -0
 notruetwins_6_13: -6 t_x6_13 +1 t_t1_6_13 +1 t_t2_6_13 +1 t_t3_6_13 +1 t_t4_6_13 +1 t_t5_6_13 +1 t_t6_7_13
  +1 t_t6_8_13 +1 t_t6_9_13 +1 t_t6_10_13 +1 t_t6_11_13 +1 t_t6_12_13 +1 t_t6_13_14 +1 t_t6_13_15 +1 t_t6_13_16
  +1 t_t6_13_17 +1 t_t6_13_18 <= +0
 notruetwins_13_16: -6 t_x13_16 +1 t_t1_13_16 +1 t_t2_13_16 +1 t_t3_13_16 +1 t_t4_13_16 +1 t_t5_13_16
  +1 t_t6_13_16 +1 t_t7_13_16 +1 t_t8_13_16 +1 t_t9_13_16 +1 t_t10_13_16 +1 t_t11_13_16 +1 t_t12_13_16
  +1 t_t13_14_16 +1 t_t13_15_16 +1 t_t13_16_17 +1 t_t13_16_18 <= +0
 notruetwins_15_18: -6 t_x15_18 +1 t_t1_15_18 +1 t_t2_15_18 +1 t_t3_15_18 +1 t_t4_15_18 +1 t_t5_15_18
  +1 t_t6_15_18 +1 t_t7_15_18 +1 t_t8_15_18 +1 t_t9_15_18 +1 t_t10_15_18 +1 t_t11_15_18 +1 t_t12_15_18
  +1 t_t13_15_18 +1 t_t14_15_18 +1 t_t15_16_18 +1 t_t15_17_18 <= +0
 notruetwins_3_15: -6 t_x3_15 +1 t_t1_3_15 +1 t_t2_3_15 +1 t_t3_4_15 +1 t_t3_5_15 +1 t_t3_6_15 +1 t_t3_7_15
  +1 t_t3_8_15 +1 t_t3_9_15 +1 t_t3_10_15 +1 t_t3_11_15 +1 t_t3_12_15 +1 t_t3_13_15 +1 t_t3_14_15 +1 t_t3_15_16
  +1 t_t3_15_17 +1 t_t3_15_18 <= +0
 notruetwins_11_18: -6 t_x11_18 +1 t_t1_11_18 +1 t_t2_11_18 +1 t_t3_11_18 +1 t_t4_11_18 +1 t_t5_11_18
  +1 t_t6_11_18 +1 t_t7_11_18 +1 t_t8_11_18 +1 t_t9_11_18 +1 t_t10_11_18 +1 t_t11_12_18 +1 t_t11_13_18
  +1 t_t11_14_18 +1 t_t11_15_18 +1 t_t11_16_18 +1 t_t11_17_18 <= +0
 notruetwins_5_6: -5 t_t0_5_6 +1 t_t1_5_6 +1 t_t2_5_6 +1 t_t3_5_6 +1 t_t4_5_6 +1 t_t5_6_7 +1 t_t5_6_8
  +1 t_t5_6_9 +1 t_t5_6_10 +1 t_t5_6_11 +1 t_t5_6_12 +1 t_t5_6_13 +1 t_t5_6_14 +1 t_t5_6_15 +1 t_t5_6_16
  +1 t_t5_6_17 +1 t_t5_6_18 <= +0
 notruetwins_10_13: -6 t_x10_13 +1 t_t1_10_13 +1 t_t2_10_13 +1 t_t3_10_13 +1 t_t4_10_13 +1 t_t5_10_13
  +1 t_t6_10_13 +1 t_t7_10_13 +1 t_t8_10_13 +1 t_t9_10_13 +1 t_t10_11_13 +1 t_t10_12_13 +1 t_t10_13_14
  +1 t_t10_13_15 +1 t_t10_13_16 +1 t_t10_13_17 +1 t_t10_13_18 <= +0
 notruetwins_5_8: -5 t_t0_5_8 +1 t_t1_5_8 +1 t_t2_5_8 +1 t_t3_5_8 +1 t_t4_5_8 +1 t_t5_6_8 +1 t_t5_7_8
  +1 t_t5_8_9 +1 t_t5_8_10 +1 t_t5_8_11 +1 t_t5_8_12 +1 t_t5_8_13 +1 t_t5_8_14 +1 t_t5_8_15 +1 t_t5_8_16
  +1 t_t5_8_17 +1 t_t5_8_18 <= +0
 notruetwins_13_14: -6 t_x13_14 +1 t_t1_13_14 +1 t_t2_13_14 +1 t_t3_13_14 +1 t_t4_13_14 +1 t_t5_13_14
  +1 t_t6_13_14 +1 t_t7_13_14 +1 t_t8_13_14 +1 t_t9_13_14 +1 t_t10_13_14 +1 t_t11_13_14 +1 t_t12_13_14
  +1 t_t13_14_15 +1 t_t13_14_16 +1 t_t13_14_17 +1 t_t13_14_18 <= +0
 notruetwins_12_18: -6 t_x12_18 +1 t_t1_12_18 +1 t_t2_12_18 +1 t_t3_12_18 +1 t_t4_12_18 +1 t_t5_12_18
  +1 t_t6_12_18 +1 t_t7_12_18 +1 t_t8_12_18 +1 t_t9_12_18 +1 t_t10_12_18 +1 t_t11_12_18 +1 t_t12_13_18
  +1 t_t12_14_18 +1 t_t12_15_18 +1 t_t12_16_18 +1 t_t12_17_18 <= +0
 notruetwins_11_16: -6 t_x11_16 +1 t_t1_11_16 +1 t_t2_11_16 +1 t_t3_11_16 +1 t_t4_11_16 +1 t_t5_11_16
  +1 t_t6_11_16 +1 t_t7_11_16 +1 t_t8_11_16 +1 t_t9_11_16 +1 t_t10_11_16 +1 t_t11_12_16 +1 t_t11_13_16
  +1 t_t11_14_16 +1 t_t11_15_16 +1 t_t11_16_17 +1 t_t11_16_18 <= +0
 notruetwins_6_15: -6 t_x6_15 +1 t_t1_6_15 +1 t_t2_6_15 +1 t_t3_6_15 +1 t_t4_6_15 +1 t_t5_6_15 +1 t_t6_7_15
  +1 t_t6_8_15 +1 t_t6_9_15 +1 t_t6_10_15 +1 t_t6_11_15 +1 t_t6_12_15 +1 t_t6_13_15 +1 t_t6_14_15 +1 t_t6_15_16
  +1 t_t6_15_17 +1 t_t6_15_18 <= +0
 notruetwins_15_16: -6 t_x15_16 +1 t_t1_15_16 +1 t_t2_15_16 +1 t_t3_15_16 +1 t_t4_15_16 +1 t_t5_15_16
  +1 t_t6_15_16 +1 t_t7_15_16 +1 t_t8_15_16 +1 t_t9_15_16 +1 t_t10_15_16 +1 t_t11_15_16 +1 t_t12_15_16
  +1 t_t13_15_16 +1 t_t14_15_16 +1 t_t15_16_17 +1 t_t15_16_18 <= +0
 notruetwins_2_17: -6 t_x2_17 +1 t_t1_2_17 +1 t_t2_3_17 +1 t_t2_4_17 +1 t_t2_5_17 +1 t_t2_6_17 +1 t_t2_7_17
  +1 t_t2_8_17 +1 t_t2_9_17 +1 t_t2_10_17 +1 t_t2_11_17 +1 t_t2_12_17 +1 t_t2_13_17 +1 t_t2_14_17 +1 t_t2_15_17
  +1 t_t2_16_17 +1 t_t2_17_18 <= +0
 notruetwins_7_13: -6 t_x7_13 +1 t_t1_7_13 +1 t_t2_7_13 +1 t_t3_7_13 +1 t_t4_7_13 +1 t_t5_7_13 +1 t_t6_7_13
  +1 t_t7_8_13 +1 t_t7_9_13 +1 t_t7_10_13 +1 t_t7_11_13 +1 t_t7_12_13 +1 t_t7_13_14 +1 t_t7_13_15 +1 t_t7_13_16
  +1 t_t7_13_17 +1 t_t7_13_18 <= +0
 notruetwins_4_12: -6 t_x4_12 +1 t_t1_4_12 +1 t_t2_4_12 +1 t_t3_4_12 +1 t_t4_5_12 +1 t_t4_6_12 +1 t_t4_7_12
  +1 t_t4_8_12 +1 t_t4_9_12 +1 t_t4_10_12 +1 t_t4_11_12 +1 t_t4_12_13 +1 t_t4_12_14 +1 t_t4_12_15 +1 t_t4_12_16
  +1 t_t4_12_17 +1 t_t4_12_18 <= +0
 notruetwins_6_11: -6 t_x6_11 +1 t_t1_6_11 +1 t_t2_6_11 +1 t_t3_6_11 +1 t_t4_6_11 +1 t_t5_6_11 +1 t_t6_7_11
  +1 t_t6_8_11 +1 t_t6_9_11 +1 t_t6_10_11 +1 t_t6_11_12 +1 t_t6_11_13 +1 t_t6_11_14 +1 t_t6_11_15 +1 t_t6_11_16
  +1 t_t6_11_17 +1 t_t6_11_18 <= +0
 notruetwins_10_18: -6 t_x10_18 +1 t_t1_10_18 +1 t_t2_10_18 +1 t_t3_10_18 +1 t_t4_10_18 +1 t_t5_10_18
  +1 t_t6_10_18 +1 t_t7_10_18 +1 t_t8_10_18 +1 t_t9_10_18 +1 t_t10_11_18 +1 t_t10_12_18 +1 t_t10_13_18
  +1 t_t10_14_18 +1 t_t10_15_18 +1 t_t10_16_18 +1 t_t10_17_18 <= +0
 notruetwins_12_16: -6 t_x12_16 +1 t_t1_12_16 +1 t_t2_12_16 +1 t_t3_12_16 +1 t_t4_12_16 +1 t_t5_12_16
  +1 t_t6_12_16 +1 t_t7_12_16 +1 t_t8_12_16 +1 t_t9_12_16 +1 t_t10_12_16 +1 t_t11_12_16 +1 t_t12_13_16
  +1 t_t12_14_16 +1 t_t12_15_16 +1 t_t12_16_17 +1 t_t12_16_18 <= +0
 notruetwins_3_10: -6 t_x3_10 +1 t_t1_3_10 +1 t_t2_3_10 +1 t_t3_4_10 +1 t_t3_5_10 +1 t_t3_6_10 +1 t_t3_7_10
  +1 t_t3_8_10 +1 t_t3_9_10 +1 t_t3_10_11 +1 t_t3_10_12 +1 t_t3_10_13 +1 t_t3_10_14 +1 t_t3_10_15 +1 t_t3_10_16
  +1 t_t3_10_17 +1 t_t3_10_18 <= +0
 notruetwins_4_14: -6 t_x4_14 +1 t_t1_4_14 +1 t_t2_4_14 +1 t_t3_4_14 +1 t_t4_5_14 +1 t_t4_6_14 +1 t_t4_7_14
  +1 t_t4_8_14 +1 t_t4_9_14 +1 t_t4_10_14 +1 t_t4_11_14 +1 t_t4_12_14 +1 t_t4_13_14 +1 t_t4_14_15 +1 t_t4_14_16
  +1 t_t4_14_17 +1 t_t4_14_18 <= +0
 notruetwins_8_18: -6 t_x8_18 +1 t_t1_8_18 +1 t_t2_8_18 +1 t_t3_8_18 +1 t_t4_8_18 +1 t_t5_8_18 +1 t_t6_8_18
  +1 t_t7_8_18 +1 t_t8_9_18 +1 t_t8_10_18 +1 t_t8_11_18 +1 t_t8_12_18 +1 t_t8_13_18 +1 t_t8_14_18 +1 t_t8_15_18
  +1 t_t8_16_18 +1 t_t8_17_18 <= +0
 notruetwins_7_14: -6 t_x7_14 +1 t_t1_7_14 +1 t_t2_7_14 +1 t_t3_7_14 +1 t_t4_7_14 +1 t_t5_7_14 +1 t_t6_7_14
  +1 t_t7_8_14 +1 t_t7_9_14 +1 t_t7_10_14 +1 t_t7_11_14 +1 t_t7_12_14 +1 t_t7_13_14 +1 t_t7_14_15 +1 t_t7_14_16
  +1 t_t7_14_17 +1 t_t7_14_18 <= +0
 notruetwins_1_9: -6 t_x1_9 +1 t_t1_2_9 +1 t_t1_3_9 +1 t_t1_4_9 +1 t_t1_5_9 +1 t_t1_6_9 +1 t_t1_7_9 +1 t_t1_8_9
  +1 t_t1_9_10 +1 t_t1_9_11 +1 t_t1_9_12 +1 t_t1_9_13 +1 t_t1_9_14 +1 t_t1_9_15 +1 t_t1_9_16 +1 t_t1_9_17
  +1 t_t1_9_18 <= +0
 notruetwins_4_10: -6 t_x4_10 +1 t_t1_4_10 +1 t_t2_4_10 +1 t_t3_4_10 +1 t_t4_5_10 +1 t_t4_6_10 +1 t_t4_7_10
  +1 t_t4_8_10 +1 t_t4_9_10 +1 t_t4_10_11 +1 t_t4_10_12 +1 t_t4_10_13 +1 t_t4_10_14 +1 t_t4_10_15 +1 t_t4_10_16
  +1 t_t4_10_17 +1 t_t4_10_18 <= +0
 notruetwins_10_11: -6 t_x10_11 +1 t_t1_10_11 +1 t_t2_10_11 +1 t_t3_10_11 +1 t_t4_10_11 +1 t_t5_10_11
  +1 t_t6_10_11 +1 t_t7_10_11 +1 t_t8_10_11 +1 t_t9_10_11 +1 t_t10_11_12 +1 t_t10_11_13 +1 t_t10_11_14
  +1 t_t10_11_15 +1 t_t10_11_16 +1 t_t10_11_17 +1 t_t10_11_18 <= +0
 notruetwins_11_15: -6 t_x11_15 +1 t_t1_11_15 +1 t_t2_11_15 +1 t_t3_11_15 +1 t_t4_11_15 +1 t_t5_11_15
  +1 t_t6_11_15 +1 t_t7_11_15 +1 t_t8_11_15 +1 t_t9_11_15 +1 t_t10_11_15 +1 t_t11_12_15 +1 t_t11_13_15
  +1 t_t11_14_15 +1 t_t11_15_16 +1 t_t11_15_17 +1 t_t11_15_18 <= +0
 notruetwins_11_12: -6 t_x11_12 +1 t_t1_11_12 +1 t_t2_11_12 +1 t_t3_11_12 +1 t_t4_11_12 +1 t_t5_11_12
  +1 t_t6_11_12 +1 t_t7_11_12 +1 t_t8_11_12 +1 t_t9_11_12 +1 t_t10_11_12 +1 t_t11_12_13 +1 t_t11_12_14
  +1 t_t11_12_15 +1 t_t11_12_16 +1 t_t11_12_17 +1 t_t11_12_18 <= +0
 notruetwins_3_5: -5 t_t0_3_5 +1 t_t1_3_5 +1 t_t2_3_5 +1 t_t3_4_5 +1 t_t3_5_6 +1 t_t3_5_7 +1 t_t3_5_8
  +1 t_t3_5_9 +1 t_t3_5_10 +1 t_t3_5_11 +1 t_t3_5_12 +1 t_t3_5_13 +1 t_t3_5_14 +1 t_t3_5_15 +1 t_t3_5_16
  +1 t_t3_5_17 +1 t_t3_5_18 <= +0
 notruetwins_7_17: -6 t_x7_17 +1 t_t1_7_17 +1 t_t2_7_17 +1 t_t3_7_17 +1 t_t4_7_17 +1 t_t5_7_17 +1 t_t6_7_17
  +1 t_t7_8_17 +1 t_t7_9_17 +1 t_t7_10_17 +1 t_t7_11_17 +1 t_t7_12_17 +1 t_t7_13_17 +1 t_t7_14_17 +1 t_t7_15_17
  +1 t_t7_16_17 +1 t_t7_17_18 <= +0
 notruetwins_2_10: -6 t_x2_10 +1 t_t1_2_10 +1 t_t2_3_10 +1 t_t2_4_10 +1 t_t2_5_10 +1 t_t2_6_10 +1 t_t2_7_10
  +1 t_t2_8_10 +1 t_t2_9_10 +1 t_t2_10_11 +1 t_t2_10_12 +1 t_t2_10_13 +1 t_t2_10_14 +1 t_t2_10_15 +1 t_t2_10_16
  +1 t_t2_10_17 +1 t_t2_10_18 <= +0
 notruetwins_8_13: -6 t_x8_13 +1 t_t1_8_13 +1 t_t2_8_13 +1 t_t3_8_13 +1 t_t4_8_13 +1 t_t5_8_13 +1 t_t6_8_13
  +1 t_t7_8_13 +1 t_t8_9_13 +1 t_t8_10_13 +1 t_t8_11_13 +1 t_t8_12_13 +1 t_t8_13_14 +1 t_t8_13_15 +1 t_t8_13_16
  +1 t_t8_13_17 +1 t_t8_13_18 <= +0
 notruetwins_4_6: -5 t_t0_4_6 +1 t_t1_4_6 +1 t_t2_4_6 +1 t_t3_4_6 +1 t_t4_5_6 +1 t_t4_6_7 +1 t_t4_6_8
  +1 t_t4_6_9 +1 t_t4_6_10 +1 t_t4_6_11 +1 t_t4_6_12 +1 t_t4_6_13 +1 t_t4_6_14 +1 t_t4_6_15 +1 t_t4_6_16
  +1 t_t4_6_17 +1 t_t4_6_18 <= +0
 notruetwins_3_6: -5 t_t0_3_6 +1 t_t1_3_6 +1 t_t2_3_6 +1 t_t3_4_6 +1 t_t3_5_6 +1 t_t3_6_7 +1 t_t3_6_8
  +1 t_t3_6_9 +1 t_t3_6_10 +1 t_t3_6_11 +1 t_t3_6_12 +1 t_t3_6_13 +1 t_t3_6_14 +1 t_t3_6_15 +1 t_t3_6_16
  +1 t_t3_6_17 +1 t_t3_6_18 <= +0
 notruetwins_4_18: -6 t_x4_18 +1 t_t1_4_18 +1 t_t2_4_18 +1 t_t3_4_18 +1 t_t4_5_18 +1 t_t4_6_18 +1 t_t4_7_18
  +1 t_t4_8_18 +1 t_t4_9_18 +1 t_t4_10_18 +1 t_t4_11_18 +1 t_t4_12_18 +1 t_t4_13_18 +1 t_t4_14_18 +1 t_t4_15_18
  +1 t_t4_16_18 +1 t_t4_17_18 <= +0
 notruetwins_6_12: -6 t_x6_12 +1 t_t1_6_12 +1 t_t2_6_12 +1 t_t3_6_12 +1 t_t4_6_12 +1 t_t5_6_12 +1 t_t6_7_12
  +1 t_t6_8_12 +1 t_t6_9_12 +1 t_t6_10_12 +1 t_t6_11_12 +1 t_t6_12_13 +1 t_t6_12_14 +1 t_t6_12_15 +1 t_t6_12_16
  +1 t_t6_12_17 +1 t_t6_12_18 <= +0
 notruetwins_14_16: -6 t_x14_16 +1 t_t1_14_16 +1 t_t2_14_16 +1 t_t3_14_16 +1 t_t4_14_16 +1 t_t5_14_16
  +1 t_t6_14_16 +1 t_t7_14_16 +1 t_t8_14_16 +1 t_t9_14_16 +1 t_t10_14_16 +1 t_t11_14_16 +1 t_t12_14_16
  +1 t_t13_14_16 +1 t_t14_15_16 +1 t_t14_16_17 +1 t_t14_16_18 <= +0
 notruetwins_8_10: -6 t_x8_10 +1 t_t1_8_10 +1 t_t2_8_10 +1 t_t3_8_10 +1 t_t4_8_10 +1 t_t5_8_10 +1 t_t6_8_10
  +1 t_t7_8_10 +1 t_t8_9_10 +1 t_t8_10_11 +1 t_t8_10_12 +1 t_t8_10_13 +1 t_t8_10_14 +1 t_t8_10_15 +1 t_t8_10_16
  +1 t_t8_10_17 +1 t_t8_10_18 <= +0
 notruetwins_12_17: -6 t_x12_17 +1 t_t1_12_17 +1 t_t2_12_17 +1 t_t3_12_17 +1 t_t4_12_17 +1 t_t5_12_17
  +1 t_t6_12_17 +1 t_t7_12_17 +1 t_t8_12_17 +1 t_t9_12_17 +1 t_t10_12_17 +1 t_t11_12_17 +1 t_t12_13_17
  +1 t_t12_14_17 +1 t_t12_15_17 +1 t_t12_16_17 +1 t_t12_17_18 <= +0
 notruetwins_12_13: -6 t_x12_13 +1 t_t1_12_13 +1 t_t2_12_13 +1 t_t3_12_13 +1 t_t4_12_13 +1 t_t5_12_13
  +1 t_t6_12_13 +1 t_t7_12_13 +1 t_t8_12_13 +1 t_t9_12_13 +1 t_t10_12_13 +1 t_t11_12_13 +1 t_t12_13_14
  +1 t_t12_13_15 +1 t_t12_13_16 +1 t_t12_13_17 +1 t_t12_13_18 <= +0
 notruetwins_2_18: -6 t_x2_18 +1 t_t1_2_18 +1 t_t2_3_18 +1 t_t2_4_18 +1 t_t2_5_18 +1 t_t2_6_18 +1 t_t2_7_18
  +1 t_t2_8_18 +1 t_t2_9_18 +1 t_t2_10_18 +1 t_t2_11_18 +1 t_t2_12_18 +1 t_t2_13_18 +1 t_t2_14_18 +1 t_t2_15_18
  +1 t_t2_16_18 +1 t_t2_17_18 <= +0
 notruetwins_6_17: -6 t_x6_17 +1 t_t1_6_17 +1 t_t2_6_17 +1 t_t3_6_17 +1 t_t4_6_17 +1 t_t5_6_17 +1 t_t6_7_17
  +1 t_t6_8_17 +1 t_t6_9_17 +1 t_t6_10_17 +1 t_t6_11_17 +1 t_t6_12_17 +1 t_t6_13_17 +1 t_t6_14_17 +1 t_t6_15_17
  +1 t_t6_16_17 +1 t_t6_17_18 <= +0
 notruetwins_11_17: -6 t_x11_17 +1 t_t1_11_17 +1 t_t2_11_17 +1 t_t3_11_17 +1 t_t4_11_17 +1 t_t5_11_17
  +1 t_t6_11_17 +1 t_t7_11_17 +1 t_t8_11_17 +1 t_t9_11_17 +1 t_t10_11_17 +1 t_t11_12_17 +1 t_t11_13_17
  +1 t_t11_14_17 +1 t_t11_15_17 +1 t_t11_16_17 +1 t_t11_17_18 <= +0
 notruetwins_6_16: -6 t_x6_16 +1 t_t1_6_16 +1 t_t2_6_16 +1 t_t3_6_16 +1 t_t4_6_16 +1 t_t5_6_16 +1 t_t6_7_16
  +1 t_t6_8_16 +1 t_t6_9_16 +1 t_t6_10_16 +1 t_t6_11_16 +1 t_t6_12_16 +1 t_t6_13_16 +1 t_t6_14_16 +1 t_t6_15_16
  +1 t_t6_16_17 +1 t_t6_16_18 <= +0
 notruetwins_1_6: -5 t_t0_1_6 +1 t_t1_2_6 +1 t_t1_3_6 +1 t_t1_4_6 +1 t_t1_5_6 +1 t_t1_6_7 +1 t_t1_6_8
  +1 t_t1_6_9 +1 t_t1_6_10 +1 t_t1_6_11 +1 t_t1_6_12 +1 t_t1_6_13 +1 t_t1_6_14 +1 t_t1_6_15 +1 t_t1_6_16
  +1 t_t1_6_17 +1 t_t1_6_18 <= +0
 notruetwins_4_16: -6 t_x4_16 +1 t_t1_4_16 +1 t_t2_4_16 +1 t_t3_4_16 +1 t_t4_5_16 +1 t_t4_6_16 +1 t_t4_7_16
  +1 t_t4_8_16 +1 t_t4_9_16 +1 t_t4_10_16 +1 t_t4_11_16 +1 t_t4_12_16 +1 t_t4_13_16 +1 t_t4_14_16 +1 t_t4_15_16
  +1 t_t4_16_17 +1 t_t4_16_18 <= +0
 notruetwins_14_17: -6 t_x14_17 +1 t_t1_14_17 +1 t_t2_14_17 +1 t_t3_14_17 +1 t_t4_14_17 +1 t_t5_14_17
  +1 t_t6_14_17 +1 t_t7_14_17 +1 t_t8_14_17 +1 t_t9_14_17 +1 t_t10_14_17 +1 t_t11_14_17 +1 t_t12_14_17
  +1 t_t13_14_17 +1 t_t14_15_17 +1 t_t14_16_17 +1 t_t14_17_18 <= +0
 notruetwins_7_12: -6 t_x7_12 +1 t_t1_7_12 +1 t_t2_7_12 +1 t_t3_7_12 +1 t_t4_7_12 +1 t_t5_7_12 +1 t_t6_7_12
  +1 t_t7_8_12 +1 t_t7_9_12 +1 t_t7_10_12 +1 t_t7_11_12 +1 t_t7_12_13 +1 t_t7_12_14 +1 t_t7_12_15 +1 t_t7_12_16
  +1 t_t7_12_17 +1 t_t7_12_18 <= +0
 notruetwins_11_14: -6 t_x11_14 +1 t_t1_11_14 +1 t_t2_11_14 +1 t_t3_11_14 +1 t_t4_11_14 +1 t_t5_11_14
  +1 t_t6_11_14 +1 t_t7_11_14 +1 t_t8_11_14 +1 t_t9_11_14 +1 t_t10_11_14 +1 t_t11_12_14 +1 t_t11_13_14
  +1 t_t11_14_15 +1 t_t11_14_16 +1 t_t11_14_17 +1 t_t11_14_18 <= +0
 notruetwins_8_12: -6 t_x8_12 +1 t_t1_8_12 +1 t_t2_8_12 +1 t_t3_8_12 +1 t_t4_8_12 +1 t_t5_8_12 +1 t_t6_8_12
  +1 t_t7_8_12 +1 t_t8_9_12 +1 t_t8_10_12 +1 t_t8_11_12 +1 t_t8_12_13 +1 t_t8_12_14 +1 t_t8_12_15 +1 t_t8_12_16
  +1 t_t8_12_17 +1 t_t8_12_18 <= +0
 notruetwins_3_12: -6 t_x3_12 +1 t_t1_3_12 +1 t_t2_3_12 +1 t_t3_4_12 +1 t_t3_5_12 +1 t_t3_6_12 +1 t_t3_7_12
  +1 t_t3_8_12 +1 t_t3_9_12 +1 t_t3_10_12 +1 t_t3_11_12 +1 t_t3_12_13 +1 t_t3_12_14 +1 t_t3_12_15 +1 t_t3_12_16
  +1 t_t3_12_17 +1 t_t3_12_18 <= +0
 notruetwins_14_15: -6 t_x14_15 +1 t_t1_14_15 +1 t_t2_14_15 +1 t_t3_14_15 +1 t_t4_14_15 +1 t_t5_14_15
  +1 t_t6_14_15 +1 t_t7_14_15 +1 t_t8_14_15 +1 t_t9_14_15 +1 t_t10_14_15 +1 t_t11_14_15 +1 t_t12_14_15
  +1 t_t13_14_15 +1 t_t14_15_16 +1 t_t14_15_17 +1 t_t14_15_18 <= +0
 notruetwins_3_11: -6 t_x3_11 +1 t_t1_3_11 +1 t_t2_3_11 +1 t_t3_4_11 +1 t_t3_5_11 +1 t_t3_6_11 +1 t_t3_7_11
  +1 t_t3_8_11 +1 t_t3_9_11 +1 t_t3_10_11 +1 t_t3_11_12 +1 t_t3_11_13 +1 t_t3_11_14 +1 t_t3_11_15 +1 t_t3_11_16
  +1 t_t3_11_17 +1 t_t3_11_18 <= +0
 notruetwins_4_8: -5 t_t0_4_8 +1 t_t1_4_8 +1 t_t2_4_8 +1 t_t3_4_8 +1 t_t4_5_8 +1 t_t4_6_8 +1 t_t4_7_8
  +1 t_t4_8_9 +1 t_t4_8_10 +1 t_t4_8_11 +1 t_t4_8_12 +1 t_t4_8_13 +1 t_t4_8_14 +1 t_t4_8_15 +1 t_t4_8_16
  +1 t_t4_8_17 +1 t_t4_8_18 <= +0
 notruetwins_8_15: -6 t_x8_15 +1 t_t1_8_15 +1 t_t2_8_15 +1 t_t3_8_15 +1 t_t4_8_15 +1 t_t5_8_15 +1 t_t6_8_15
  +1 t_t7_8_15 +1 t_t8_9_15 +1 t_t8_10_15 +1 t_t8_11_15 +1 t_t8_12_15 +1 t_t8_13_15 +1 t_t8_14_15 +1 t_t8_15_16
  +1 t_t8_15_17 +1 t_t8_15_18 <= +0
 notruetwins_6_10: -6 t_x6_10 +1 t_t1_6_10 +1 t_t2_6_10 +1 t_t3_6_10 +1 t_t4_6_10 +1 t_t5_6_10 +1 t_t6_7_10
  +1 t_t6_8_10 +1 t_t6_9_10 +1 t_t6_10_11 +1 t_t6_10_12 +1 t_t6_10_13 +1 t_t6_10_14 +1 t_t6_10_15 +1 t_t6_10_16
  +1 t_t6_10_17 +1 t_t6_10_18 <= +0
 notruetwins_16_18: -6 t_x16_18 +1 t_t1_16_18 +1 t_t2_16_18 +1 t_t3_16_18 +1 t_t4_16_18 +1 t_t5_16_18
  +1 t_t6_16_18 +1 t_t7_16_18 +1 t_t8_16_18 +1 t_t9_16_18 +1 t_t10_16_18 +1 t_t11_16_18 +1 t_t12_16_18
  +1 t_t13_16_18 +1 t_t14_16_18 +1 t_t15_16_18 +1 t_t16_17_18 <= +0
 notruetwins_3_18: -6 t_x3_18 +1 t_t1_3_18 +1 t_t2_3_18 +1 t_t3_4_18 +1 t_t3_5_18 +1 t_t3_6_18 +1 t_t3_7_18
  +1 t_t3_8_18 +1 t_t3_9_18 +1 t_t3_10_18 +1 t_t3_11_18 +1 t_t3_12_18 +1 t_t3_13_18 +1 t_t3_14_18 +1 t_t3_15_18
  +1 t_t3_16_18 +1 t_t3_17_18 <= +0
 notruetwins_10_16: -6 t_x10_16 +1 t_t1_10_16 +1 t_t2_10_16 +1 t_t3_10_16 +1 t_t4_10_16 +1 t_t5_10_16
  +1 t_t6_10_16 +1 t_t7_10_16 +1 t_t8_10_16 +1 t_t9_10_16 +1 t_t10_11_16 +1 t_t10_12_16 +1 t_t10_13_16
  +1 t_t10_14_16 +1 t_t10_15_16 +1 t_t10_16_17 +1 t_t10_16_18 <= +0
 notruetwins_3_13: -6 t_x3_13 +1 t_t1_3_13 +1 t_t2_3_13 +1 t_t3_4_13 +1 t_t3_5_13 +1 t_t3_6_13 +1 t_t3_7_13
  +1 t_t3_8_13 +1 t_t3_9_13 +1 t_t3_10_13 +1 t_t3_11_13 +1 t_t3_12_13 +1 t_t3_13_14 +1 t_t3_13_15 +1 t_t3_13_16
  +1 t_t3_13_17 +1 t_t3_13_18 <= +0
 notruetwins_12_15: -6 t_x12_15 +1 t_t1_12_15 +1 t_t2_12_15 +1 t_t3_12_15 +1 t_t4_12_15 +1 t_t5_12_15
  +1 t_t6_12_15 +1 t_t7_12_15 +1 t_t8_12_15 +1 t_t9_12_15 +1 t_t10_12_15 +1 t_t11_12_15 +1 t_t12_13_15
  +1 t_t12_14_15 +1 t_t12_15_16 +1 t_t12_15_17 +1 t_t12_15_18 <= +0
 notruetwins_12_14: -6 t_x12_14 +1 t_t1_12_14 +1 t_t2_12_14 +1 t_t3_12_14 +1 t_t4_12_14 +1 t_t5_12_14
  +1 t_t6_12_14 +1 t_t7_12_14 +1 t_t8_12_14 +1 t_t9_12_14 +1 t_t10_12_14 +1 t_t11_12_14 +1 t_t12_13_14
  +1 t_t12_14_15 +1 t_t12_14_16 +1 t_t12_14_17 +1 t_t12_14_18 <= +0
 notruetwins_3_4: -5 t_t0_3_4 +1 t_t1_3_4 +1 t_t2_3_4 +1 t_t3_4_5 +1 t_t3_4_6 +1 t_t3_4_7 +1 t_t3_4_8
  +1 t_t3_4_9 +1 t_t3_4_10 +1 t_t3_4_11 +1 t_t3_4_12 +1 t_t3_4_13 +1 t_t3_4_14 +1 t_t3_4_15 +1 t_t3_4_16
  +1 t_t3_4_17 +1 t_t3_4_18 <= +0
 notruetwins_8_17: -6 t_x8_17 +1 t_t1_8_17 +1 t_t2_8_17 +1 t_t3_8_17 +1 t_t4_8_17 +1 t_t5_8_17 +1 t_t6_8_17
  +1 t_t7_8_17 +1 t_t8_9_17 +1 t_t8_10_17 +1 t_t8_11_17 +1 t_t8_12_17 +1 t_t8_13_17 +1 t_t8_14_17 +1 t_t8_15_17
  +1 t_t8_16_17 +1 t_t8_17_18 <= +0
 notruetwins_1_8: -5 t_t0_1_8 +1 t_t1_2_8 +1 t_t1_3_8 +1 t_t1_4_8 +1 t_t1_5_8 +1 t_t1_6_8 +1 t_t1_7_8
  +1 t_t1_8_9 +1 t_t1_8_10 +1 t_t1_8_11 +1 t_t1_8_12 +1 t_t1_8_13 +1 t_t1_8_14 +1 t_t1_8_15 +1 t_t1_8_16
  +1 t_t1_8_17 +1 t_t1_8_18 <= +0
 notruetwins_2_4: -5 t_t0_2_4 +1 t_t1_2_4 +1 t_t2_3_4 +1 t_t2_4_5 +1 t_t2_4_6 +1 t_t2_4_7 +1 t_t2_4_8
  +1 t_t2_4_9 +1 t_t2_4_10 +1 t_t2_4_11 +1 t_t2_4_12 +1 t_t2_4_13 +1 t_t2_4_14 +1 t_t2_4_15 +1 t_t2_4_16
  +1 t_t2_4_17 +1 t_t2_4_18 <= +0
 notruetwins_8_14: -6 t_x8_14 +1 t_t1_8_14 +1 t_t2_8_14 +1 t_t3_8_14 +1 t_t4_8_14 +1 t_t5_8_14 +1 t_t6_8_14
  +1 t_t7_8_14 +1 t_t8_9_14 +1 t_t8_10_14 +1 t_t8_11_14 +1 t_t8_12_14 +1 t_t8_13_14 +1 t_t8_14_15 +1 t_t8_14_16
  +1 t_t8_14_17 +1 t_t8_14_18 <= +0
 notruetwins_3_14: -6 t_x3_14 +1 t_t1_3_14 +1 t_t2_3_14 +1 t_t3_4_14 +1 t_t3_5_14 +1 t_t3_6_14 +1 t_t3_7_14
  +1 t_t3_8_14 +1 t_t3_9_14 +1 t_t3_10_14 +1 t_t3_11_14 +1 t_t3_12_14 +1 t_t3_13_14 +1 t_t3_14_15 +1 t_t3_14_16
  +1 t_t3_14_17 +1 t_t3_14_18 <= +0
 notruetwins_8_16: -6 t_x8_16 +1 t_t1_8_16 +1 t_t2_8_16 +1 t_t3_8_16 +1 t_t4_8_16 +1 t_t5_8_16 +1 t_t6_8_16
  +1 t_t7_8_16 +1 t_t8_9_16 +1 t_t8_10_16 +1 t_t8_11_16 +1 t_t8_12_16 +1 t_t8_13_16 +1 t_t8_14_16 +1 t_t8_15_16
  +1 t_t8_16_17 +1 t_t8_16_18 <= +0
 notruetwins_5_12: -6 t_x5_12 +1 t_t1_5_12 +1 t_t2_5_12 +1 t_t3_5_12 +1 t_t4_5_12 +1 t_t5_6_12 +1 t_t5_7_12
  +1 t_t5_8_12 +1 t_t5_9_12 +1 t_t5_10_12 +1 t_t5_11_12 +1 t_t5_12_13 +1 t_t5_12_14 +1 t_t5_12_15 +1 t_t5_12_16
  +1 t_t5_12_17 +1 t_t5_12_18 <= +0
 notruetwins_10_12: -6 t_x10_12 +1 t_t1_10_12 +1 t_t2_10_12 +1 t_t3_10_12 +1 t_t4_10_12 +1 t_t5_10_12
  +1 t_t6_10_12 +1 t_t7_10_12 +1 t_t8_10_12 +1 t_t9_10_12 +1 t_t10_11_12 +1 t_t10_12_13 +1 t_t10_12_14
  +1 t_t10_12_15 +1 t_t10_12_16 +1 t_t10_12_17 +1 t_t10_12_18 <= +0
 notruetwins_10_17: -6 t_x10_17 +1 t_t1_10_17 +1 t_t2_10_17 +1 t_t3_10_17 +1 t_t4_10_17 +1 t_t5_10_17
  +1 t_t6_10_17 +1 t_t7_10_17 +1 t_t8_10_17 +1 t_t9_10_17 +1 t_t10_11_17 +1 t_t10_12_17 +1 t_t10_13_17
  +1 t_t10_14_17 +1 t_t10_15_17 +1 t_t10_16_17 +1 t_t10_17_18 <= +0
 notruetwins_11_13: -6 t_x11_13 +1 t_t1_11_13 +1 t_t2_11_13 +1 t_t3_11_13 +1 t_t4_11_13 +1 t_t5_11_13
  +1 t_t6_11_13 +1 t_t7_11_13 +1 t_t8_11_13 +1 t_t9_11_13 +1 t_t10_11_13 +1 t_t11_12_13 +1 t_t11_13_14
  +1 t_t11_13_15 +1 t_t11_13_16 +1 t_t11_13_17 +1 t_t11_13_18 <= +0
 notruetwins_8_11: -6 t_x8_11 +1 t_t1_8_11 +1 t_t2_8_11 +1 t_t3_8_11 +1 t_t4_8_11 +1 t_t5_8_11 +1 t_t6_8_11
  +1 t_t7_8_11 +1 t_t8_9_11 +1 t_t8_10_11 +1 t_t8_11_12 +1 t_t8_11_13 +1 t_t8_11_14 +1 t_t8_11_15 +1 t_t8_11_16
  +1 t_t8_11_17 +1 t_t8_11_18 <= +0
 notruetwins_6_14: -6 t_x6_14 +1 t_t1_6_14 +1 t_t2_6_14 +1 t_t3_6_14 +1 t_t4_6_14 +1 t_t5_6_14 +1 t_t6_7_14
  +1 t_t6_8_14 +1 t_t6_9_14 +1 t_t6_10_14 +1 t_t6_11_14 +1 t_t6_12_14 +1 t_t6_13_14 +1 t_t6_14_15 +1 t_t6_14_16
  +1 t_t6_14_17 +1 t_t6_14_18 <= +0
 notruetwins_2_15: -6 t_x2_15 +1 t_t1_2_15 +1 t_t2_3_15 +1 t_t2_4_15 +1 t_t2_5_15 +1 t_t2_6_15 +1 t_t2_7_15
  +1 t_t2_8_15 +1 t_t2_9_15 +1 t_t2_10_15 +1 t_t2_11_15 +1 t_t2_12_15 +1 t_t2_13_15 +1 t_t2_14_15 +1 t_t2_15_16
  +1 t_t2_15_17 +1 t_t2_15_18 <= +0
 notruetwins_6_18: -6 t_x6_18 +1 t_t1_6_18 +1 t_t2_6_18 +1 t_t3_6_18 +1 t_t4_6_18 +1 t_t5_6_18 +1 t_t6_7_18
  +1 t_t6_8_18 +1 t_t6_9_18 +1 t_t6_10_18 +1 t_t6_11_18 +1 t_t6_12_18 +1 t_t6_13_18 +1 t_t6_14_18 +1 t_t6_15_18
  +1 t_t6_16_18 +1 t_t6_17_18 <= +0
 notruetwins_16_17: -6 t_x16_17 +1 t_t1_16_17 +1 t_t2_16_17 +1 t_t3_16_17 +1 t_t4_16_17 +1 t_t5_16_17
  +1 t_t6_16_17 +1 t_t7_16_17 +1 t_t8_16_17 +1 t_t9_16_17 +1 t_t10_16_17 +1 t_t11_16_17 +1 t_t12_16_17
  +1 t_t13_16_17 +1 t_t14_16_17 +1 t_t15_16_17 +1 t_t16_17_18 <= +0
 notruetwins_2_3: -5 t_t0_2_3 +1 t_t1_2_3 +1 t_t2_3_4 +1 t_t2_3_5 +1 t_t2_3_6 +1 t_t2_3_7 +1 t_t2_3_8
  +1 t_t2_3_9 +1 t_t2_3_10 +1 t_t2_3_11 +1 t_t2_3_12 +1 t_t2_3_13 +1 t_t2_3_14 +1 t_t2_3_15 +1 t_t2_3_16
  +1 t_t2_3_17 +1 t_t2_3_18 <= +0
 notruetwins_15_17: -6 t_x15_17 +1 t_t1_15_17 +1 t_t2_15_17 +1 t_t3_15_17 +1 t_t4_15_17 +1 t_t5_15_17
  +1 t_t6_15_17 +1 t_t7_15_17 +1 t_t8_15_17 +1 t_t9_15_17 +1 t_t10_15_17 +1 t_t11_15_17 +1 t_t12_15_17
  +1 t_t13_15_17 +1 t_t14_15_17 +1 t_t15_16_17 +1 t_t15_17_18 <= +0
 notruetwins_5_13: -6 t_x5_13 +1 t_t1_5_13 +1 t_t2_5_13 +1 t_t3_5_13 +1 t_t4_5_13 +1 t_t5_6_13 +1 t_t5_7_13
  +1 t_t5_8_13 +1 t_t5_9_13 +1 t_t5_10_13 +1 t_t5_11_13 +1 t_t5_12_13 +1 t_t5_13_14 +1 t_t5_13_15 +1 t_t5_13_16
  +1 t_t5_13_17 +1 t_t5_13_18 <= +0
 notruetwins_5_18: -6 t_x5_18 +1 t_t1_5_18 +1 t_t2_5_18 +1 t_t3_5_18 +1 t_t4_5_18 +1 t_t5_6_18 +1 t_t5_7_18
  +1 t_t5_8_18 +1 t_t5_9_18 +1 t_t5_10_18 +1 t_t5_11_18 +1 t_t5_12_18 +1 t_t5_13_18 +1 t_t5_14_18 +1 t_t5_15_18
  +1 t_t5_16_18 +1 t_t5_17_18 <= +0
 notruetwins_4_17: -6 t_x4_17 +1 t_t1_4_17 +1 t_t2_4_17 +1 t_t3_4_17 +1 t_t4_5_17 +1 t_t4_6_17 +1 t_t4_7_17
  +1 t_t4_8_17 +1 t_t4_9_17 +1 t_t4_10_17 +1 t_t4_11_17 +1 t_t4_12_17 +1 t_t4_13_17 +1 t_t4_14_17 +1 t_t4_15_17
  +1 t_t4_16_17 +1 t_t4_17_18 <= +0
 notruetwins_3_17: -6 t_x3_17 +1 t_t1_3_17 +1 t_t2_3_17 +1 t_t3_4_17 +1 t_t3_5_17 +1 t_t3_6_17 +1 t_t3_7_17
  +1 t_t3_8_17 +1 t_t3_9_17 +1 t_t3_10_17 +1 t_t3_11_17 +1 t_t3_12_17 +1 t_t3_13_17 +1 t_t3_14_17 +1 t_t3_15_17
  +1 t_t3_16_17 +1 t_t3_17_18 <= +0
 notruetwins_5_10: -6 t_x5_10 +1 t_t1_5_10 +1 t_t2_5_10 +1 t_t3_5_10 +1 t_t4_5_10 +1 t_t5_6_10 +1 t_t5_7_10
  +1 t_t5_8_10 +1 t_t5_9_10 +1 t_t5_10_11 +1 t_t5_10_12 +1 t_t5_10_13 +1 t_t5_10_14 +1 t_t5_10_15 +1 t_t5_10_16
  +1 t_t5_10_17 +1 t_t5_10_18 <= +0
 notruetwins_3_16: -6 t_x3_16 +1 t_t1_3_16 +1 t_t2_3_16 +1 t_t3_4_16 +1 t_t3_5_16 +1 t_t3_6_16 +1 t_t3_7_16
  +1 t_t3_8_16 +1 t_t3_9_16 +1 t_t3_10_16 +1 t_t3_11_16 +1 t_t3_12_16 +1 t_t3_13_16 +1 t_t3_14_16 +1 t_t3_15_16
  +1 t_t3_16_17 +1 t_t3_16_18 <= +0
 notruetwins_3_7: -5 t_t0_3_7 +1 t_t1_3_7 +1 t_t2_3_7 +1 t_t3_4_7 +1 t_t3_5_7 +1 t_t3_6_7 +1 t_t3_7_8
  +1 t_t3_7_9 +1 t_t3_7_10 +1 t_t3_7_11 +1 t_t3_7_12 +1 t_t3_7_13 +1 t_t3_7_14 +1 t_t3_7_15 +1 t_t3_7_16
  +1 t_t3_7_17 +1 t_t3_7_18 <= +0
 notruetwins_5_11: -6 t_x5_11 +1 t_t1_5_11 +1 t_t2_5_11 +1 t_t3_5_11 +1 t_t4_5_11 +1 t_t5_6_11 +1 t_t5_7_11
  +1 t_t5_8_11 +1 t_t5_9_11 +1 t_t5_10_11 +1 t_t5_11_12 +1 t_t5_11_13 +1 t_t5_11_14 +1 t_t5_11_15 +1 t_t5_11_16
  +1 t_t5_11_17 +1 t_t5_11_18 <= +0
 notruetwins_2_8: -5 t_t0_2_8 +1 t_t1_2_8 +1 t_t2_3_8 +1 t_t2_4_8 +1 t_t2_5_8 +1 t_t2_6_8 +1 t_t2_7_8
  +1 t_t2_8_9 +1 t_t2_8_10 +1 t_t2_8_11 +1 t_t2_8_12 +1 t_t2_8_13 +1 t_t2_8_14 +1 t_t2_8_15 +1 t_t2_8_16
  +1 t_t2_8_17 +1 t_t2_8_18 <= +0
 notruetwins_13_17: -6 t_x13_17 +1 t_t1_13_17 +1 t_t2_13_17 +1 t_t3_13_17 +1 t_t4_13_17 +1 t_t5_13_17
  +1 t_t6_13_17 +1 t_t7_13_17 +1 t_t8_13_17 +1 t_t9_13_17 +1 t_t10_13_17 +1 t_t11_13_17 +1 t_t12_13_17
  +1 t_t13_14_17 +1 t_t13_15_17 +1 t_t13_16_17 +1 t_t13_17_18 <= +0
 notruetwins_4_11: -6 t_x4_11 +1 t_t1_4_11 +1 t_t2_4_11 +1 t_t3_4_11 +1 t_t4_5_11 +1 t_t4_6_11 +1 t_t4_7_11
  +1 t_t4_8_11 +1 t_t4_9_11 +1 t_t4_10_11 +1 t_t4_11_12 +1 t_t4_11_13 +1 t_t4_11_14 +1 t_t4_11_15 +1 t_t4_11_16
  +1 t_t4_11_17 +1 t_t4_11_18 <= +0
 notruetwins_14_18: -6 t_x14_18 +1 t_t1_14_18 +1 t_t2_14_18 +1 t_t3_14_18 +1 t_t4_14_18 +1 t_t5_14_18
  +1 t_t6_14_18 +1 t_t7_14_18 +1 t_t8_14_18 +1 t_t9_14_18 +1 t_t10_14_18 +1 t_t11_14_18 +1 t_t12_14_18
  +1 t_t13_14_18 +1 t_t14_15_18 +1 t_t14_16_18 +1 t_t14_17_18 <= +0
 notruetwins_2_11: -6 t_x2_11 +1 t_t1_2_11 +1 t_t2_3_11 +1 t_t2_4_11 +1 t_t2_5_11 +1 t_t2_6_11 +1 t_t2_7_11
  +1 t_t2_8_11 +1 t_t2_9_11 +1 t_t2_10_11 +1 t_t2_11_12 +1 t_t2_11_13 +1 t_t2_11_14 +1 t_t2_11_15 +1 t_t2_11_16
  +1 t_t2_11_17 +1 t_t2_11_18 <= +0
 notruetwins_7_11: -6 t_x7_11 +1 t_t1_7_11 +1 t_t2_7_11 +1 t_t3_7_11 +1 t_t4_7_11 +1 t_t5_7_11 +1 t_t6_7_11
  +1 t_t7_8_11 +1 t_t7_9_11 +1 t_t7_10_11 +1 t_t7_11_12 +1 t_t7_11_13 +1 t_t7_11_14 +1 t_t7_11_15 +1 t_t7_11_16
  +1 t_t7_11_17 +1 t_t7_11_18 <= +0
 notruetwins_7_10: -6 t_x7_10 +1 t_t1_7_10 +1 t_t2_7_10 +1 t_t3_7_10 +1 t_t4_7_10 +1 t_t5_7_10 +1 t_t6_7_10
  +1 t_t7_8_10 +1 t_t7_9_10 +1 t_t7_10_11 +1 t_t7_10_12 +1 t_t7_10_13 +1 t_t7_10_14 +1 t_t7_10_15 +1 t_t7_10_16
  +1 t_t7_10_17 +1 t_t7_10_18 <= +0
 notruetwins_4_13: -6 t_x4_13 +1 t_t1_4_13 +1 t_t2_4_13 +1 t_t3_4_13 +1 t_t4_5_13 +1 t_t4_6_13 +1 t_t4_7_13
  +1 t_t4_8_13 +1 t_t4_9_13 +1 t_t4_10_13 +1 t_t4_11_13 +1 t_t4_12_13 +1 t_t4_13_14 +1 t_t4_13_15 +1 t_t4_13_16
  +1 t_t4_13_17 +1 t_t4_13_18 <= +0
 notruetwins_3_8: -5 t_t0_3_8 +1 t_t1_3_8 +1 t_t2_3_8 +1 t_t3_4_8 +1 t_t3_5_8 +1 t_t3_6_8 +1 t_t3_7_8
  +1 t_t3_8_9 +1 t_t3_8_10 +1 t_t3_8_11 +1 t_t3_8_12 +1 t_t3_8_13 +1 t_t3_8_14 +1 t_t3_8_15 +1 t_t3_8_16
  +1 t_t3_8_17 +1 t_t3_8_18 <= +0
 notruetwins_7_15: -6 t_x7_15 +1 t_t1_7_15 +1 t_t2_7_15 +1 t_t3_7_15 +1 t_t4_7_15 +1 t_t5_7_15 +1 t_t6_7_15
  +1 t_t7_8_15 +1 t_t7_9_15 +1 t_t7_10_15 +1 t_t7_11_15 +1 t_t7_12_15 +1 t_t7_13_15 +1 t_t7_14_15 +1 t_t7_15_16
  +1 t_t7_15_17 +1 t_t7_15_18 <= +0
 notruetwins_4_15: -6 t_x4_15 +1 t_t1_4_15 +1 t_t2_4_15 +1 t_t3_4_15 +1 t_t4_5_15 +1 t_t4_6_15 +1 t_t4_7_15
  +1 t_t4_8_15 +1 t_t4_9_15 +1 t_t4_10_15 +1 t_t4_11_15 +1 t_t4_12_15 +1 t_t4_13_15 +1 t_t4_14_15 +1 t_t4_15_16
  +1 t_t4_15_17 +1 t_t4_15_18 <= +0
 notruetwins_7_18: -6 t_x7_18 +1 t_t1_7_18 +1 t_t2_7_18 +1 t_t3_7_18 +1 t_t4_7_18 +1 t_t5_7_18 +1 t_t6_7_18
  +1 t_t7_8_18 +1 t_t7_9_18 +1 t_t7_10_18 +1 t_t7_11_18 +1 t_t7_12_18 +1 t_t7_13_18 +1 t_t7_14_18 +1 t_t7_15_18
  +1 t_t7_16_18 +1 t_t7_17_18 <= +0
 notruetwins_2_13: -6 t_x2_13 +1 t_t1_2_13 +1 t_t2_3_13 +1 t_t2_4_13 +1 t_t2_5_13 +1 t_t2_6_13 +1 t_t2_7_13
  +1 t_t2_8_13 +1 t_t2_9_13 +1 t_t2_10_13 +1 t_t2_11_13 +1 t_t2_12_13 +1 t_t2_13_14 +1 t_t2_13_15 +1 t_t2_13_16
  +1 t_t2_13_17 +1 t_t2_13_18 <= +0
 notruetwins_5_15: -6 t_x5_15 +1 t_t1_5_15 +1 t_t2_5_15 +1 t_t3_5_15 +1 t_t4_5_15 +1 t_t5_6_15 +1 t_t5_7_15
  +1 t_t5_8_15 +1 t_t5_9_15 +1 t_t5_10_15 +1 t_t5_11_15 +1 t_t5_12_15 +1 t_t5_13_15 +1 t_t5_14_15 +1 t_t5_15_16
  +1 t_t5_15_17 +1 t_t5_15_18 <= +0
 notruetwins_4_5: -5 t_t0_4_5 +1 t_t1_4_5 +1 t_t2_4_5 +1 t_t3_4_5 +1 t_t4_5_6 +1 t_t4_5_7 +1 t_t4_5_8
  +1 t_t4_5_9 +1 t_t4_5_10 +1 t_t4_5_11 +1 t_t4_5_12 +1 t_t4_5_13 +1 t_t4_5_14 +1 t_t4_5_15 +1 t_t4_5_16
  +1 t_t4_5_17 +1 t_t4_5_18 <= +0
 notruetwins_4_7: -5 t_t0_4_7 +1 t_t1_4_7 +1 t_t2_4_7 +1 t_t3_4_7 +1 t_t4_5_7 +1 t_t4_6_7 +1 t_t4_7_8
  +1 t_t4_7_9 +1 t_t4_7_10 +1 t_t4_7_11 +1 t_t4_7_12 +1 t_t4_7_13 +1 t_t4_7_14 +1 t_t4_7_15 +1 t_t4_7_16
  +1 t_t4_7_17 +1 t_t4_7_18 <= +0
 notruetwins_6_8: -5 t_t0_6_8 +1 t_t1_6_8 +1 t_t2_6_8 +1 t_t3_6_8 +1 t_t4_6_8 +1 t_t5_6_8 +1 t_t6_7_8
  +1 t_t6_8_9 +1 t_t6_8_10 +1 t_t6_8_11 +1 t_t6_8_12 +1 t_t6_8_13 +1 t_t6_8_14 +1 t_t6_8_15 +1 t_t6_8_16
  +1 t_t6_8_17 +1 t_t6_8_18 <= +0
 notruetwins_5_16: -6 t_x5_16 +1 t_t1_5_16 +1 t_t2_5_16 +1 t_t3_5_16 +1 t_t4_5_16 +1 t_t5_6_16 +1 t_t5_7_16
  +1 t_t5_8_16 +1 t_t5_9_16 +1 t_t5_10_16 +1 t_t5_11_16 +1 t_t5_12_16 +1 t_t5_13_16 +1 t_t5_14_16 +1 t_t5_15_16
  +1 t_t5_16_17 +1 t_t5_16_18 <= +0
 notruetwins_7_16: -6 t_x7_16 +1 t_t1_7_16 +1 t_t2_7_16 +1 t_t3_7_16 +1 t_t4_7_16 +1 t_t5_7_16 +1 t_t6_7_16
  +1 t_t7_8_16 +1 t_t7_9_16 +1 t_t7_10_16 +1 t_t7_11_16 +1 t_t7_12_16 +1 t_t7_13_16 +1 t_t7_14_16 +1 t_t7_15_16
  +1 t_t7_16_17 +1 t_t7_16_18 <= +0
 notruetwins_5_14: -6 t_x5_14 +1 t_t1_5_14 +1 t_t2_5_14 +1 t_t3_5_14 +1 t_t4_5_14 +1 t_t5_6_14 +1 t_t5_7_14
  +1 t_t5_8_14 +1 t_t5_9_14 +1 t_t5_10_14 +1 t_t5_11_14 +1 t_t5_12_14 +1 t_t5_13_14 +1 t_t5_14_15 +1 t_t5_14_16
  +1 t_t5_14_17 +1 t_t5_14_18 <= +0
 notruetwins_6_7: -5 t_t0_6_7 +1 t_t1_6_7 +1 t_t2_6_7 +1 t_t3_6_7 +1 t_t4_6_7 +1 t_t5_6_7 +1 t_t6_7_8
  +1 t_t6_7_9 +1 t_t6_7_10 +1 t_t6_7_11 +1 t_t6_7_12 +1 t_t6_7_13 +1 t_t6_7_14 +1 t_t6_7_15 +1 t_t6_7_16
  +1 t_t6_7_17 +1 t_t6_7_18 <= +0
 notruetwins_5_17: -6 t_x5_17 +1 t_t1_5_17 +1 t_t2_5_17 +1 t_t3_5_17 +1 t_t4_5_17 +1 t_t5_6_17 +1 t_t5_7_17
  +1 t_t5_8_17 +1 t_t5_9_17 +1 t_t5_10_17 +1 t_t5_11_17 +1 t_t5_12_17 +1 t_t5_13_17 +1 t_t5_14_17 +1 t_t5_15_17
  +1 t_t5_16_17 +1 t_t5_17_18 <= +0
 notruetwins_1_13: -6 t_x1_13 +1 t_t1_2_13 +1 t_t1_3_13 +1 t_t1_4_13 +1 t_t1_5_13 +1 t_t1_6_13 +1 t_t1_7_13
  +1 t_t1_8_13 +1 t_t1_9_13 +1 t_t1_10_13 +1 t_t1_11_13 +1 t_t1_12_13 +1 t_t1_13_14 +1 t_t1_13_15 +1 t_t1_13_16
  +1 t_t1_13_17 +1 t_t1_13_18 <= +0
 notruetwins_2_12: -6 t_x2_12 +1 t_t1_2_12 +1 t_t2_3_12 +1 t_t2_4_12 +1 t_t2_5_12 +1 t_t2_6_12 +1 t_t2_7_12
  +1 t_t2_8_12 +1 t_t2_9_12 +1 t_t2_10_12 +1 t_t2_11_12 +1 t_t2_12_13 +1 t_t2_12_14 +1 t_t2_12_15 +1 t_t2_12_16
  +1 t_t2_12_17 +1 t_t2_12_18 <= +0
 notruetwins_2_16: -6 t_x2_16 +1 t_t1_2_16 +1 t_t2_3_16 +1 t_t2_4_16 +1 t_t2_5_16 +1 t_t2_6_16 +1 t_t2_7_16
  +1 t_t2_8_16 +1 t_t2_9_16 +1 t_t2_10_16 +1 t_t2_11_16 +1 t_t2_12_16 +1 t_t2_13_16 +1 t_t2_14_16 +1 t_t2_15_16
  +1 t_t2_16_17 +1 t_t2_16_18 <= +0
 notruetwins_1_17: -6 t_x1_17 +1 t_t1_2_17 +1 t_t1_3_17 +1 t_t1_4_17 +1 t_t1_5_17 +1 t_t1_6_17 +1 t_t1_7_17
  +1 t_t1_8_17 +1 t_t1_9_17 +1 t_t1_10_17 +1 t_t1_11_17 +1 t_t1_12_17 +1 t_t1_13_17 +1 t_t1_14_17 +1 t_t1_15_17
  +1 t_t1_16_17 +1 t_t1_17_18 <= +0
 notruetwins_7_8: -5 t_t0_7_8 +1 t_t1_7_8 +1 t_t2_7_8 +1 t_t3_7_8 +1 t_t4_7_8 +1 t_t5_7_8 +1 t_t6_7_8
  +1 t_t7_8_9 +1 t_t7_8_10 +1 t_t7_8_11 +1 t_t7_8_12 +1 t_t7_8_13 +1 t_t7_8_14 +1 t_t7_8_15 +1 t_t7_8_16
  +1 t_t7_8_17 +1 t_t7_8_18 <= +0
 notruetwins_2_14: -6 t_x2_14 +1 t_t1_2_14 +1 t_t2_3_14 +1 t_t2_4_14 +1 t_t2_5_14 +1 t_t2_6_14 +1 t_t2_7_14
  +1 t_t2_8_14 +1 t_t2_9_14 +1 t_t2_10_14 +1 t_t2_11_14 +1 t_t2_12_14 +1 t_t2_13_14 +1 t_t2_14_15 +1 t_t2_14_16
  +1 t_t2_14_17 +1 t_t2_14_18 <= +0
 notruetwins_17_18: -6 t_x17_18 +1 t_t1_17_18 +1 t_t2_17_18 +1 t_t3_17_18 +1 t_t4_17_18 +1 t_t5_17_18
  +1 t_t6_17_18 +1 t_t7_17_18 +1 t_t8_17_18 +1 t_t9_17_18 +1 t_t10_17_18 +1 t_t11_17_18 +1 t_t12_17_18
  +1 t_t13_17_18 +1 t_t14_17_18 +1 t_t15_17_18 +1 t_t16_17_18 <= +0
 notruetwins_1_12: -6 t_x1_12 +1 t_t1_2_12 +1 t_t1_3_12 +1 t_t1_4_12 +1 t_t1_5_12 +1 t_t1_6_12 +1 t_t1_7_12
  +1 t_t1_8_12 +1 t_t1_9_12 +1 t_t1_10_12 +1 t_t1_11_12 +1 t_t1_12_13 +1 t_t1_12_14 +1 t_t1_12_15 +1 t_t1_12_16
  +1 t_t1_12_17 +1 t_t1_12_18 <= +0
 notruetwins_2_6: -5 t_t0_2_6 +1 t_t1_2_6 +1 t_t2_3_6 +1 t_t2_4_6 +1 t_t2_5_6 +1 t_t2_6_7 +1 t_t2_6_8
  +1 t_t2_6_9 +1 t_t2_6_10 +1 t_t2_6_11 +1 t_t2_6_12 +1 t_t2_6_13 +1 t_t2_6_14 +1 t_t2_6_15 +1 t_t2_6_16
  +1 t_t2_6_17 +1 t_t2_6_18 <= +0
 notruetwins_1_2: -5 t_t0_1_2 +1 t_t1_2_3 +1 t_t1_2_4 +1 t_t1_2_5 +1 t_t1_2_6 +1 t_t1_2_7 +1 t_t1_2_8
  +1 t_t1_2_9 +1 t_t1_2_10 +1 t_t1_2_11 +1 t_t1_2_12 +1 t_t1_2_13 +1 t_t1_2_14 +1 t_t1_2_15 +1 t_t1_2_16
  +1 t_t1_2_17 +1 t_t1_2_18 <= +0
 notruetwins_1_18: -6 t_x1_18 +1 t_t1_2_18 +1 t_t1_3_18 +1 t_t1_4_18 +1 t_t1_5_18 +1 t_t1_6_18 +1 t_t1_7_18
  +1 t_t1_8_18 +1 t_t1_9_18 +1 t_t1_10_18 +1 t_t1_11_18 +1 t_t1_12_18 +1 t_t1_13_18 +1 t_t1_14_18 +1 t_t1_15_18
  +1 t_t1_16_18 +1 t_t1_17_18 <= +0
 notruetwins_1_4: -5 t_t0_1_4 +1 t_t1_2_4 +1 t_t1_3_4 +1 t_t1_4_5 +1 t_t1_4_6 +1 t_t1_4_7 +1 t_t1_4_8
  +1 t_t1_4_9 +1 t_t1_4_10 +1 t_t1_4_11 +1 t_t1_4_12 +1 t_t1_4_13 +1 t_t1_4_14 +1 t_t1_4_15 +1 t_t1_4_16
  +1 t_t1_4_17 +1 t_t1_4_18 <= +0
 notruetwins_1_3: -5 t_t0_1_3 +1 t_t1_2_3 +1 t_t1_3_4 +1 t_t1_3_5 +1 t_t1_3_6 +1 t_t1_3_7 +1 t_t1_3_8
  +1 t_t1_3_9 +1 t_t1_3_10 +1 t_t1_3_11 +1 t_t1_3_12 +1 t_t1_3_13 +1 t_t1_3_14 +1 t_t1_3_15 +1 t_t1_3_16
  +1 t_t1_3_17 +1 t_t1_3_18 <= +0
 notruetwins_13_18: -6 t_x13_18 +1 t_t1_13_18 +1 t_t2_13_18 +1 t_t3_13_18 +1 t_t4_13_18 +1 t_t5_13_18
  +1 t_t6_13_18 +1 t_t7_13_18 +1 t_t8_13_18 +1 t_t9_13_18 +1 t_t10_13_18 +1 t_t11_13_18 +1 t_t12_13_18
  +1 t_t13_14_18 +1 t_t13_15_18 +1 t_t13_16_18 +1 t_t13_17_18 <= +0
 notruetwins_1_16: -6 t_x1_16 +1 t_t1_2_16 +1 t_t1_3_16 +1 t_t1_4_16 +1 t_t1_5_16 +1 t_t1_6_16 +1 t_t1_7_16
  +1 t_t1_8_16 +1 t_t1_9_16 +1 t_t1_10_16 +1 t_t1_11_16 +1 t_t1_12_16 +1 t_t1_13_16 +1 t_t1_14_16 +1 t_t1_15_16
  +1 t_t1_16_17 +1 t_t1_16_18 <= +0
 notruetwins_1_15: -6 t_x1_15 +1 t_t1_2_15 +1 t_t1_3_15 +1 t_t1_4_15 +1 t_t1_5_15 +1 t_t1_6_15 +1 t_t1_7_15
  +1 t_t1_8_15 +1 t_t1_9_15 +1 t_t1_10_15 +1 t_t1_11_15 +1 t_t1_12_15 +1 t_t1_13_15 +1 t_t1_14_15 +1 t_t1_15_16
  +1 t_t1_15_17 +1 t_t1_15_18 <= +0
 notruetwins_1_10: -6 t_x1_10 +1 t_t1_2_10 +1 t_t1_3_10 +1 t_t1_4_10 +1 t_t1_5_10 +1 t_t1_6_10 +1 t_t1_7_10
  +1 t_t1_8_10 +1 t_t1_9_10 +1 t_t1_10_11 +1 t_t1_10_12 +1 t_t1_10_13 +1 t_t1_10_14 +1 t_t1_10_15 +1 t_t1_10_16
  +1 t_t1_10_17 +1 t_t1_10_18 <= +0
 notruetwins_5_7: -5 t_t0_5_7 +1 t_t1_5_7 +1 t_t2_5_7 +1 t_t3_5_7 +1 t_t4_5_7 +1 t_t5_6_7 +1 t_t5_7_8
  +1 t_t5_7_9 +1 t_t5_7_10 +1 t_t5_7_11 +1 t_t5_7_12 +1 t_t5_7_13 +1 t_t5_7_14 +1 t_t5_7_15 +1 t_t5_7_16
  +1 t_t5_7_17 +1 t_t5_7_18 <= +0
 notruetwins_1_14: -6 t_x1_14 +1 t_t1_2_14 +1 t_t1_3_14 +1 t_t1_4_14 +1 t_t1_5_14 +1 t_t1_6_14 +1 t_t1_7_14
  +1 t_t1_8_14 +1 t_t1_9_14 +1 t_t1_10_14 +1 t_t1_11_14 +1 t_t1_12_14 +1 t_t1_13_14 +1 t_t1_14_15 +1 t_t1_14_16
  +1 t_t1_14_17 +1 t_t1_14_18 <= +0
 notruetwins_1_11: -6 t_x1_11 +1 t_t1_2_11 +1 t_t1_3_11 +1 t_t1_4_11 +1 t_t1_5_11 +1 t_t1_6_11 +1 t_t1_7_11
  +1 t_t1_8_11 +1 t_t1_9_11 +1 t_t1_10_11 +1 t_t1_11_12 +1 t_t1_11_13 +1 t_t1_11_14 +1 t_t1_11_15 +1 t_t1_11_16
  +1 t_t1_11_17 +1 t_t1_11_18 <= +0
 notruetwins_2_5: -5 t_t0_2_5 +1 t_t1_2_5 +1 t_t2_3_5 +1 t_t2_4_5 +1 t_t2_5_6 +1 t_t2_5_7 +1 t_t2_5_8
  +1 t_t2_5_9 +1 t_t2_5_10 +1 t_t2_5_11 +1 t_t2_5_12 +1 t_t2_5_13 +1 t_t2_5_14 +1 t_t2_5_15 +1 t_t2_5_16
  +1 t_t2_5_17 +1 t_t2_5_18 <= +0
 notruetwins_2_7: -5 t_t0_2_7 +1 t_t1_2_7 +1 t_t2_3_7 +1 t_t2_4_7 +1 t_t2_5_7 +1 t_t2_6_7 +1 t_t2_7_8
  +1 t_t2_7_9 +1 t_t2_7_10 +1 t_t2_7_11 +1 t_t2_7_12 +1 t_t2_7_13 +1 t_t2_7_14 +1 t_t2_7_15 +1 t_t2_7_16
  +1 t_t2_7_17 +1 t_t2_7_18 <= +0
 notruetwins_7_9: -6 t_x7_9 +1 t_t1_7_9 +1 t_t2_7_9 +1 t_t3_7_9 +1 t_t4_7_9 +1 t_t5_7_9 +1 t_t6_7_9 +1 t_t7_8_9
  +1 t_t7_9_10 +1 t_t7_9_11 +1 t_t7_9_12 +1 t_t7_9_13 +1 t_t7_9_14 +1 t_t7_9_15 +1 t_t7_9_16 +1 t_t7_9_17
  +1 t_t7_9_18 <= +0
 notruetwins_1_7: -5 t_t0_1_7 +1 t_t1_2_7 +1 t_t1_3_7 +1 t_t1_4_7 +1 t_t1_5_7 +1 t_t1_6_7 +1 t_t1_7_8
  +1 t_t1_7_9 +1 t_t1_7_10 +1 t_t1_7_11 +1 t_t1_7_12 +1 t_t1_7_13 +1 t_t1_7_14 +1 t_t1_7_15 +1 t_t1_7_16
  +1 t_t1_7_17 +1 t_t1_7_18 <= +0
 notruetwins_9_16: -6 t_x9_16 +1 t_t1_9_16 +1 t_t2_9_16 +1 t_t3_9_16 +1 t_t4_9_16 +1 t_t5_9_16 +1 t_t6_9_16
  +1 t_t7_9_16 +1 t_t8_9_16 +1 t_t9_10_16 +1 t_t9_11_16 +1 t_t9_12_16 +1 t_t9_13_16 +1 t_t9_14_16 +1 t_t9_15_16
  +1 t_t9_16_17 +1 t_t9_16_18 <= +0
 notruetwins_9_15: -6 t_x9_15 +1 t_t1_9_15 +1 t_t2_9_15 +1 t_t3_9_15 +1 t_t4_9_15 +1 t_t5_9_15 +1 t_t6_9_15
  +1 t_t7_9_15 +1 t_t8_9_15 +1 t_t9_10_15 +1 t_t9_11_15 +1 t_t9_12_15 +1 t_t9_13_15 +1 t_t9_14_15 +1 t_t9_15_16
  +1 t_t9_15_17 +1 t_t9_15_18 <= +0
 notruetwins_9_14: -6 t_x9_14 +1 t_t1_9_14 +1 t_t2_9_14 +1 t_t3_9_14 +1 t_t4_9_14 +1 t_t5_9_14 +1 t_t6_9_14
  +1 t_t7_9_14 +1 t_t8_9_14 +1 t_t9_10_14 +1 t_t9_11_14 +1 t_t9_12_14 +1 t_t9_13_14 +1 t_t9_14_15 +1 t_t9_14_16
  +1 t_t9_14_17 +1 t_t9_14_18 <= +0
 notruetwins_9_13: -6 t_x9_13 +1 t_t1_9_13 +1 t_t2_9_13 +1 t_t3_9_13 +1 t_t4_9_13 +1 t_t5_9_13 +1 t_t6_9_13
  +1 t_t7_9_13 +1 t_t8_9_13 +1 t_t9_10_13 +1 t_t9_11_13 +1 t_t9_12_13 +1 t_t9_13_14 +1 t_t9_13_15 +1 t_t9_13_16
  +1 t_t9_13_17 +1 t_t9_13_18 <= +0
 notruetwins_9_12: -6 t_x9_12 +1 t_t1_9_12 +1 t_t2_9_12 +1 t_t3_9_12 +1 t_t4_9_12 +1 t_t5_9_12 +1 t_t6_9_12
  +1 t_t7_9_12 +1 t_t8_9_12 +1 t_t9_10_12 +1 t_t9_11_12 +1 t_t9_12_13 +1 t_t9_12_14 +1 t_t9_12_15 +1 t_t9_12_16
  +1 t_t9_12_17 +1 t_t9_12_18 <= +0
 notruetwins_9_11: -6 t_x9_11 +1 t_t1_9_11 +1 t_t2_9_11 +1 t_t3_9_11 +1 t_t4_9_11 +1 t_t5_9_11 +1 t_t6_9_11
  +1 t_t7_9_11 +1 t_t8_9_11 +1 t_t9_10_11 +1 t_t9_11_12 +1 t_t9_11_13 +1 t_t9_11_14 +1 t_t9_11_15 +1 t_t9_11_16
  +1 t_t9_11_17 +1 t_t9_11_18 <= +0
 notruetwins_9_10: -6 t_x9_10 +1 t_t1_9_10 +1 t_t2_9_10 +1 t_t3_9_10 +1 t_t4_9_10 +1 t_t5_9_10 +1 t_t6_9_10
  +1 t_t7_9_10 +1 t_t8_9_10 +1 t_t9_10_11 +1 t_t9_10_12 +1 t_t9_10_13 +1 t_t9_10_14 +1 t_t9_10_15 +1 t_t9_10_16
  +1 t_t9_10_17 +1 t_t9_10_18 <= +0
 notruetwins_8_9: -6 t_x8_9 +1 t_t1_8_9 +1 t_t2_8_9 +1 t_t3_8_9 +1 t_t4_8_9 +1 t_t5_8_9 +1 t_t6_8_9 +1 t_t7_8_9
  +1 t_t8_9_10 +1 t_t8_9_11 +1 t_t8_9_12 +1 t_t8_9_13 +1 t_t8_9_14 +1 t_t8_9_15 +1 t_t8_9_16 +1 t_t8_9_17
  +1 t_t8_9_18 <= +0
 notruetwins_6_9: -6 t_x6_9 +1 t_t1_6_9 +1 t_t2_6_9 +1 t_t3_6_9 +1 t_t4_6_9 +1 t_t5_6_9 +1 t_t6_7_9 +1 t_t6_8_9
  +1 t_t6_9_10 +1 t_t6_9_11 +1 t_t6_9_12 +1 t_t6_9_13 +1 t_t6_9_14 +1 t_t6_9_15 +1 t_t6_9_16 +1 t_t6_9_17
  +1 t_t6_9_18 <= +0
 notruetwins_5_9: -6 t_x5_9 +1 t_t1_5_9 +1 t_t2_5_9 +1 t_t3_5_9 +1 t_t4_5_9 +1 t_t5_6_9 +1 t_t5_7_9 +1 t_t5_8_9
  +1 t_t5_9_10 +1 t_t5_9_11 +1 t_t5_9_12 +1 t_t5_9_13 +1 t_t5_9_14 +1 t_t5_9_15 +1 t_t5_9_16 +1 t_t5_9_17
  +1 t_t5_9_18 <= +0
 notruetwins_4_9: -6 t_x4_9 +1 t_t1_4_9 +1 t_t2_4_9 +1 t_t3_4_9 +1 t_t4_5_9 +1 t_t4_6_9 +1 t_t4_7_9 +1 t_t4_8_9
  +1 t_t4_9_10 +1 t_t4_9_11 +1 t_t4_9_12 +1 t_t4_9_13 +1 t_t4_9_14 +1 t_t4_9_15 +1 t_t4_9_16 +1 t_t4_9_17
  +1 t_t4_9_18 <= +0
 notruetwins_3_9: -6 t_x3_9 +1 t_t1_3_9 +1 t_t2_3_9 +1 t_t3_4_9 +1 t_t3_5_9 +1 t_t3_6_9 +1 t_t3_7_9 +1 t_t3_8_9
  +1 t_t3_9_10 +1 t_t3_9_11 +1 t_t3_9_12 +1 t_t3_9_13 +1 t_t3_9_14 +1 t_t3_9_15 +1 t_t3_9_16 +1 t_t3_9_17
  +1 t_t3_9_18 <= +0
 notruetwins_2_9: -6 t_x2_9 +1 t_t1_2_9 +1 t_t2_3_9 +1 t_t2_4_9 +1 t_t2_5_9 +1 t_t2_6_9 +1 t_t2_7_9 +1 t_t2_8_9
  +1 t_t2_9_10 +1 t_t2_9_11 +1 t_t2_9_12 +1 t_t2_9_13 +1 t_t2_9_14 +1 t_t2_9_15 +1 t_t2_9_16 +1 t_t2_9_17
  +1 t_t2_9_18 <= +0
 notruetwins_1_5: -5 t_t0_1_5 +1 t_t1_2_5 +1 t_t1_3_5 +1 t_t1_4_5 +1 t_t1_5_6 +1 t_t1_5_7 +1 t_t1_5_8
  +1 t_t1_5_9 +1 t_t1_5_10 +1 t_t1_5_11 +1 t_t1_5_12 +1 t_t1_5_13 +1 t_t1_5_14 +1 t_t1_5_15 +1 t_t1_5_16
  +1 t_t1_5_17 +1 t_t1_5_18 <= +0
 notruetwins_10_15: -6 t_x10_15 +1 t_t1_10_15 +1 t_t2_10_15 +1 t_t3_10_15 +1 t_t4_10_15 +1 t_t5_10_15
  +1 t_t6_10_15 +1 t_t7_10_15 +1 t_t8_10_15 +1 t_t9_10_15 +1 t_t10_11_15 +1 t_t10_12_15 +1 t_t10_13_15
  +1 t_t10_14_15 +1 t_t10_15_16 +1 t_t10_15_17 +1 t_t10_15_18 <= +0
 notruetwins_9_18: -6 t_x9_18 +1 t_t1_9_18 +1 t_t2_9_18 +1 t_t3_9_18 +1 t_t4_9_18 +1 t_t5_9_18 +1 t_t6_9_18
  +1 t_t7_9_18 +1 t_t8_9_18 +1 t_t9_10_18 +1 t_t9_11_18 +1 t_t9_12_18 +1 t_t9_13_18 +1 t_t9_14_18 +1 t_t9_15_18
  +1 t_t9_16_18 +1 t_t9_17_18 <= +0
 notruetwins_10_14: -6 t_x10_14 +1 t_t1_10_14 +1 t_t2_10_14 +1 t_t3_10_14 +1 t_t4_10_14 +1 t_t5_10_14
  +1 t_t6_10_14 +1 t_t7_10_14 +1 t_t8_10_14 +1 t_t9_10_14 +1 t_t10_11_14 +1 t_t10_12_14 +1 t_t10_13_14
  +1 t_t10_14_15 +1 t_t10_14_16 +1 t_t10_14_17 +1 t_t10_14_18 <= +0
 notruetwins_9_17: -6 t_x9_17 +1 t_t1_9_17 +1 t_t2_9_17 +1 t_t3_9_17 +1 t_t4_9_17 +1 t_t5_9_17 +1 t_t6_9_17
  +1 t_t7_9_17 +1 t_t8_9_17 +1 t_t9_10_17 +1 t_t9_11_17 +1 t_t9_12_17 +1 t_t9_13_17 +1 t_t9_14_17 +1 t_t9_15_17
  +1 t_t9_16_17 +1 t_t9_17_18 <= +0
 andgate_19_operators: -1 t_x9_14 -1 t_x9_15 -1 t_x14_15 +3 t_t9_14_15 <= +0
 andgate_19_add: -1 t_x9_14 -1 t_x9_15 -1 t_x14_15 +1 t_t9_14_15 >= -2
 andgate_781_operators: -1 t_x12_16 -1 t_x12_17 -1 t_x16_17 +3 t_t12_16_17 <= +0
 andgate_781_add: -1 t_x12_16 -1 t_x12_17 -1 t_x16_17 +1 t_t12_16_17 >= -2
 andgate_788_operators: -1 t_x12_14 -1 t_x12_15 -1 t_x14_15 +3 t_t12_14_15 <= +0
 andgate_788_add: -1 t_x12_14 -1 t_x12_15 -1 t_x14_15 +1 t_t12_14_15 >= -2
 andgate_629_operators: -1 t_x1_11 -1 t_x1_16 -1 t_x11_16 +3 t_t1_11_16 <= +0
 andgate_629_add: -1 t_x1_11 -1 t_x1_16 -1 t_x11_16 +1 t_t1_11_16 >= -2
 andgate_117_operators: -1 t_x7_11 -1 t_x7_13 -1 t_x11_13 +3 t_t7_11_13 <= +0
 andgate_117_add: -1 t_x7_11 -1 t_x7_13 -1 t_x11_13 +1 t_t7_11_13 >= -2
 andgate_164_operators: -1 t_x6_12 -1 t_x6_15 -1 t_x12_15 +3 t_t6_12_15 <= +0
 andgate_164_add: -1 t_x6_12 -1 t_x6_15 -1 t_x12_15 +1 t_t6_12_15 >= -2
 andgate_146_operators: -1 t_x6_17 -1 t_x6_18 -1 t_x17_18 +3 t_t6_17_18 <= +0
 andgate_146_add: -1 t_x6_17 -1 t_x6_18 -1 t_x17_18 +1 t_t6_17_18 >= -2
 andgate_473_operators: -1 t_x3_17 -1 t_x4_17 -1 t_t0_3_4 +3 t_t3_4_17 <= +0
 andgate_473_add: -1 t_x3_17 -1 t_x4_17 -1 t_t0_3_4 +1 t_t3_4_17 >= -2
 andgate_362_operators: -1 t_x4_12 -1 t_x6_12 -1 t_t0_4_6 +3 t_t4_6_12 <= +0
 andgate_362_add: -1 t_x4_12 -1 t_x6_12 -1 t_t0_4_6 +1 t_t4_6_12 >= -2
 andgate_537_operators: -1 t_x2_12 -1 t_x8_12 -1 t_t0_2_8 +3 t_t2_8_12 <= +0
 andgate_537_add: -1 t_x2_12 -1 t_x8_12 -1 t_t0_2_8 +1 t_t2_8_12 >= -2
 andgate_334_operators: -1 t_x4_9 -1 t_x4_10 -1 t_x9_10 +3 t_t4_9_10 <= +0
 andgate_334_add: -1 t_x4_9 -1 t_x4_10 -1 t_x9_10 +1 t_t4_9_10 >= -2
 andgate_339_operators: -1 t_x4_14 -1 t_x8_14 -1 t_t0_4_8 +3 t_t4_8_14 <= +0
 andgate_339_add: -1 t_x4_14 -1 t_x8_14 -1 t_t0_4_8 +1 t_t4_8_14 >= -2
 andgate_625_operators: -1 t_x1_12 -1 t_x1_14 -1 t_x12_14 +3 t_t1_12_14 <= +0
 andgate_625_add: -1 t_x1_12 -1 t_x1_14 -1 t_x12_14 +1 t_t1_12_14 >= -2
 andgate_633_operators: -1 t_x1_11 -1 t_x1_12 -1 t_x11_12 +3 t_t1_11_12 <= +0
 andgate_633_add: -1 t_x1_11 -1 t_x1_12 -1 t_x11_12 +1 t_t1_11_12 >= -2
 andgate_89_operators: -1 t_x8_9 -1 t_x8_11 -1 t_x9_11 +3 t_t8_9_11 <= +0
 andgate_89_add: -1 t_x8_9 -1 t_x8_11 -1 t_x9_11 +1 t_t8_9_11 >= -2
 andgate_636_operators: -1 t_x1_10 -1 t_x1_16 -1 t_x10_16 +3 t_t1_10_16 <= +0
 andgate_636_add: -1 t_x1_10 -1 t_x1_16 -1 t_x10_16 +1 t_t1_10_16 >= -2
 andgate_453_operators: -1 t_x3_12 -1 t_x6_12 -1 t_t0_3_6 +3 t_t3_6_12 <= +0
 andgate_453_add: -1 t_x3_12 -1 t_x6_12 -1 t_t0_3_6 +1 t_t3_6_12 >= -2
 andgate_389_operators: -1 t_x3_14 -1 t_x3_16 -1 t_x14_16 +3 t_t3_14_16 <= +0
 andgate_389_add: -1 t_x3_14 -1 t_x3_16 -1 t_x14_16 +1 t_t3_14_16 >= -2
 andgate_335_operators: -1 t_x4_18 -1 t_x8_18 -1 t_t0_4_8 +3 t_t4_8_18 <= +0
 andgate_335_add: -1 t_x4_18 -1 t_x8_18 -1 t_t0_4_8 +1 t_t4_8_18 >= -2
 andgate_685_operators: -1 t_x1_17 -1 t_x5_17 -1 t_t0_1_5 +3 t_t1_5_17 <= +0
 andgate_685_add: -1 t_x1_17 -1 t_x5_17 -1 t_t0_1_5 +1 t_t1_5_17 >= -2
 andgate_73_operators: -1 t_x8_11 -1 t_x8_12 -1 t_x11_12 +3 t_t8_11_12 <= +0
 andgate_73_add: -1 t_x8_11 -1 t_x8_12 -1 t_x11_12 +1 t_t8_11_12 >= -2
 andgate_50_operators: -1 t_x8_15 -1 t_x8_17 -1 t_x15_17 +3 t_t8_15_17 <= +0
 andgate_50_add: -1 t_x8_15 -1 t_x8_17 -1 t_x15_17 +1 t_t8_15_17 >= -2
 andgate_592_operators: -1 t_x2_17 -1 t_x3_17 -1 t_t0_2_3 +3 t_t2_3_17 <= +0
 andgate_592_add: -1 t_x2_17 -1 t_x3_17 -1 t_t0_2_3 +1 t_t2_3_17 >= -2
 andgate_8_operators: -1 t_x10_11 -1 t_x10_13 -1 t_x11_13 +3 t_t10_11_13 <= +0
 andgate_8_add: -1 t_x10_11 -1 t_x10_13 -1 t_x11_13 +1 t_t10_11_13 >= -2
 andgate_306_operators: -1 t_x4_12 -1 t_x4_17 -1 t_x12_17 +3 t_t4_12_17 <= +0
 andgate_306_add: -1 t_x4_12 -1 t_x4_17 -1 t_x12_17 +1 t_t4_12_17 >= -2
 andgate_786_operators: -1 t_x12_14 -1 t_x12_17 -1 t_x14_17 +3 t_t12_14_17 <= +0
 andgate_786_add: -1 t_x12_14 -1 t_x12_17 -1 t_x14_17 +1 t_t12_14_17 >= -2
 andgate_9_operators: -1 t_x10_11 -1 t_x10_12 -1 t_x11_12 +3 t_t10_11_12 <= +0
 andgate_9_add: -1 t_x10_11 -1 t_x10_12 -1 t_x11_12 +1 t_t10_11_12 >= -2
 andgate_401_operators: -1 t_x3_12 -1 t_x3_13 -1 t_x12_13 +3 t_t3_12_13 <= +0
 andgate_401_add: -1 t_x3_12 -1 t_x3_13 -1 t_x12_13 +1 t_t3_12_13 >= -2
 andgate_782_operators: -1 t_x12_15 -1 t_x12_18 -1 t_x15_18 +3 t_t12_15_18 <= +0
 andgate_782_add: -1 t_x12_15 -1 t_x12_18 -1 t_x15_18 +1 t_t12_15_18 >= -2
 andgate_155_operators: -1 t_x6_14 -1 t_x6_15 -1 t_x14_15 +3 t_t6_14_15 <= +0
 andgate_155_add: -1 t_x6_14 -1 t_x6_15 -1 t_x14_15 +1 t_t6_14_15 >= -2
 andgate_799_operators: -1 t_x11_16 -1 t_x11_17 -1 t_x16_17 +3 t_t11_16_17 <= +0
 andgate_799_add: -1 t_x11_16 -1 t_x11_17 -1 t_x16_17 +1 t_t11_16_17 >= -2
 andgate_337_operators: -1 t_x4_16 -1 t_x8_16 -1 t_t0_4_8 +3 t_t4_8_16 <= +0
 andgate_337_add: -1 t_x4_16 -1 t_x8_16 -1 t_t0_4_8 +1 t_t4_8_16 >= -2
 andgate_795_operators: -1 t_x12_13 -1 t_x12_14 -1 t_x13_14 +3 t_t12_13_14 <= +0
 andgate_795_add: -1 t_x12_13 -1 t_x12_14 -1 t_x13_14 +1 t_t12_13_14 >= -2
 andgate_172_operators: -1 t_x6_11 -1 t_x6_13 -1 t_x11_13 +3 t_t6_11_13 <= +0
 andgate_172_add: -1 t_x6_11 -1 t_x6_13 -1 t_x11_13 +1 t_t6_11_13 >= -2
 andgate_62_operators: -1 t_x8_12 -1 t_x8_17 -1 t_x12_17 +3 t_t8_12_17 <= +0
 andgate_62_add: -1 t_x8_12 -1 t_x8_17 -1 t_x12_17 +1 t_t8_12_17 >= -2
 andgate_381_operators: -1 t_x3_17 -1 t_x3_18 -1 t_x17_18 +3 t_t3_17_18 <= +0
 andgate_381_add: -1 t_x3_17 -1 t_x3_18 -1 t_x17_18 +1 t_t3_17_18 >= -2
 andgate_297_operators: -1 t_x4_14 -1 t_x4_17 -1 t_x14_17 +3 t_t4_14_17 <= +0
 andgate_297_add: -1 t_x4_14 -1 t_x4_17 -1 t_x14_17 +1 t_t4_14_17 >= -2
 andgate_806_operators: -1 t_x11_14 -1 t_x11_15 -1 t_x14_15 +3 t_t11_14_15 <= +0
 andgate_806_add: -1 t_x11_14 -1 t_x11_15 -1 t_x14_15 +1 t_t11_14_15 >= -2
 andgate_115_operators: -1 t_x7_11 -1 t_x7_15 -1 t_x11_15 +3 t_t7_11_15 <= +0
 andgate_115_add: -1 t_x7_11 -1 t_x7_15 -1 t_x11_15 +1 t_t7_11_15 >= -2
 andgate_341_operators: -1 t_x4_12 -1 t_x8_12 -1 t_t0_4_8 +3 t_t4_8_12 <= +0
 andgate_341_add: -1 t_x4_12 -1 t_x8_12 -1 t_t0_4_8 +1 t_t4_8_12 >= -2
 andgate_61_operators: -1 t_x8_12 -1 t_x8_18 -1 t_x12_18 +3 t_t8_12_18 <= +0
 andgate_61_add: -1 t_x8_12 -1 t_x8_18 -1 t_x12_18 +1 t_t8_12_18 >= -2
 andgate_581_operators: -1 t_x2_14 -1 t_x4_14 -1 t_t0_2_4 +3 t_t2_4_14 <= +0
 andgate_581_add: -1 t_x2_14 -1 t_x4_14 -1 t_t0_2_4 +1 t_t2_4_14 >= -2
 andgate_815_operators: -1 t_x11_13 -1 t_x11_14 -1 t_x13_14 +3 t_t11_13_14 <= +0
 andgate_815_add: -1 t_x11_13 -1 t_x11_14 -1 t_x13_14 +1 t_t11_13_14 >= -2
 andgate_466_operators: -1 t_x3_11 -1 t_x5_11 -1 t_t0_3_5 +3 t_t3_5_11 <= +0
 andgate_466_add: -1 t_x3_11 -1 t_x5_11 -1 t_t0_3_5 +1 t_t3_5_11 >= -2
 andgate_540_operators: -1 t_x2_9 -1 t_x8_9 -1 t_t0_2_8 +3 t_t2_8_9 <= +0
 andgate_540_add: -1 t_x2_9 -1 t_x8_9 -1 t_t0_2_8 +1 t_t2_8_9 >= -2
 andgate_415_operators: -1 t_x3_10 -1 t_x3_12 -1 t_x10_12 +3 t_t3_10_12 <= +0
 andgate_415_add: -1 t_x3_10 -1 t_x3_12 -1 t_x10_12 +1 t_t3_10_12 >= -2
 andgate_648_operators: -1 t_x1_9 -1 t_x1_12 -1 t_x9_12 +3 t_t1_9_12 <= +0
 andgate_648_add: -1 t_x1_9 -1 t_x1_12 -1 t_x9_12 +1 t_t1_9_12 >= -2
 andgate_286_operators: -1 t_x5_10 -1 t_x6_10 -1 t_t0_5_6 +3 t_t5_6_10 <= +0
 andgate_286_add: -1 t_x5_10 -1 t_x6_10 -1 t_t0_5_6 +1 t_t5_6_10 >= -2
 andgate_423_operators: -1 t_x3_9 -1 t_x3_12 -1 t_x9_12 +3 t_t3_9_12 <= +0
 andgate_423_add: -1 t_x3_9 -1 t_x3_12 -1 t_x9_12 +1 t_t3_9_12 >= -2
 andgate_809_operators: -1 t_x11_13 -1 t_x11_17 -1 t_x13_17 +3 t_t11_13_17 <= +0
 andgate_809_add: -1 t_x11_13 -1 t_x11_17 -1 t_x13_17 +1 t_t11_13_17 >= -2
 andgate_681_operators: -1 t_x1_9 -1 t_x6_9 -1 t_t0_1_6 +3 t_t1_6_9 <= +0
 andgate_681_add: -1 t_x1_9 -1 t_x6_9 -1 t_t0_1_6 +1 t_t1_6_9 >= -2
 andgate_623_operators: -1 t_x1_12 -1 t_x1_16 -1 t_x12_16 +3 t_t1_12_16 <= +0
 andgate_623_add: -1 t_x1_12 -1 t_x1_16 -1 t_x12_16 +1 t_t1_12_16 >= -2
 andgate_64_operators: -1 t_x8_12 -1 t_x8_15 -1 t_x12_15 +3 t_t8_12_15 <= +0
 andgate_64_add: -1 t_x8_12 -1 t_x8_15 -1 t_x12_15 +1 t_t8_12_15 >= -2
 andgate_24_operators: -1 t_x9_13 -1 t_x9_14 -1 t_x13_14 +3 t_t9_13_14 <= +0
 andgate_24_add: -1 t_x9_13 -1 t_x9_14 -1 t_x13_14 +1 t_t9_13_14 >= -2
 andgate_313_operators: -1 t_x4_11 -1 t_x4_16 -1 t_x11_16 +3 t_t4_11_16 <= +0
 andgate_313_add: -1 t_x4_11 -1 t_x4_16 -1 t_x11_16 +1 t_t4_11_16 >= -2
 andgate_27_operators: -1 t_x9_12 -1 t_x9_16 -1 t_x12_16 +3 t_t9_12_16 <= +0
 andgate_27_add: -1 t_x9_12 -1 t_x9_16 -1 t_x12_16 +1 t_t9_12_16 >= -2
 andgate_704_operators: -1 t_x1_11 -1 t_x4_11 -1 t_t0_1_4 +3 t_t1_4_11 <= +0
 andgate_704_add: -1 t_x1_11 -1 t_x4_11 -1 t_t0_1_4 +1 t_t1_4_11 >= -2
 andgate_539_operators: -1 t_x2_10 -1 t_x8_10 -1 t_t0_2_8 +3 t_t2_8_10 <= +0
 andgate_539_add: -1 t_x2_10 -1 t_x8_10 -1 t_t0_2_8 +1 t_t2_8_10 >= -2
 andgate_779_operators: -1 t_x12_16 -1 t_x12_18 -1 t_x16_18 +3 t_t12_16_18 <= +0
 andgate_779_add: -1 t_x12_16 -1 t_x12_18 -1 t_x16_18 +1 t_t12_16_18 >= -2
 andgate_583_operators: -1 t_x2_12 -1 t_x4_12 -1 t_t0_2_4 +3 t_t2_4_12 <= +0
 andgate_583_add: -1 t_x2_12 -1 t_x4_12 -1 t_t0_2_4 +1 t_t2_4_12 >= -2
 andgate_792_operators: -1 t_x10_16 -1 t_x10_18 -1 t_x16_18 +3 t_t10_16_18 <= +0
 andgate_792_add: -1 t_x10_16 -1 t_x10_18 -1 t_x16_18 +1 t_t10_16_18 >= -2
 andgate_70_operators: -1 t_x8_11 -1 t_x8_15 -1 t_x11_15 +3 t_t8_11_15 <= +0
 andgate_70_add: -1 t_x8_11 -1 t_x8_15 -1 t_x11_15 +1 t_t8_11_15 >= -2
 andgate_734_operators: -1 t_x1_10 -1 t_x2_10 -1 t_t0_1_2 +3 t_t1_2_10 <= +0
 andgate_734_add: -1 t_x1_10 -1 t_x2_10 -1 t_t0_1_2 +1 t_t1_2_10 >= -2
 andgate_60_operators: -1 t_x8_13 -1 t_x8_14 -1 t_x13_14 +3 t_t8_13_14 <= +0
 andgate_60_add: -1 t_x8_13 -1 t_x8_14 -1 t_x13_14 +1 t_t8_13_14 >= -2
 andgate_75_operators: -1 t_x8_10 -1 t_x8_17 -1 t_x10_17 +3 t_t8_10_17 <= +0
 andgate_75_add: -1 t_x8_10 -1 t_x8_17 -1 t_x10_17 +1 t_t8_10_17 >= -2
 andgate_364_operators: -1 t_x4_10 -1 t_x6_10 -1 t_t0_4_6 +3 t_t4_6_10 <= +0
 andgate_364_add: -1 t_x4_10 -1 t_x6_10 -1 t_t0_4_6 +1 t_t4_6_10 >= -2
 andgate_47_operators: -1 t_x8_16 -1 t_x8_18 -1 t_x16_18 +3 t_t8_16_18 <= +0
 andgate_47_add: -1 t_x8_16 -1 t_x8_18 -1 t_x16_18 +1 t_t8_16_18 >= -2
 andgate_480_operators: -1 t_x3_10 -1 t_x4_10 -1 t_t0_3_4 +3 t_t3_4_10 <= +0
 andgate_480_add: -1 t_x3_10 -1 t_x4_10 -1 t_t0_3_4 +1 t_t3_4_10 >= -2
 andgate_631_operators: -1 t_x1_11 -1 t_x1_14 -1 t_x11_14 +3 t_t1_11_14 <= +0
 andgate_631_add: -1 t_x1_11 -1 t_x1_14 -1 t_x11_14 +1 t_t1_11_14 >= -2
 andgate_662_operators: -1 t_x1_17 -1 t_x7_17 -1 t_t0_1_7 +3 t_t1_7_17 <= +0
 andgate_662_add: -1 t_x1_17 -1 t_x7_17 -1 t_t0_1_7 +1 t_t1_7_17 >= -2
 andgate_65_operators: -1 t_x8_12 -1 t_x8_14 -1 t_x12_14 +3 t_t8_12_14 <= +0
 andgate_65_add: -1 t_x8_12 -1 t_x8_14 -1 t_x12_14 +1 t_t8_12_14 >= -2
 andgate_458_operators: -1 t_t0_3_6 -1 t_t0_3_7 -1 t_t0_6_7 +3 t_t3_6_7 <= +0
 andgate_458_add: -1 t_t0_3_6 -1 t_t0_3_7 -1 t_t0_6_7 +1 t_t3_6_7 >= -2
 andgate_635_operators: -1 t_x1_10 -1 t_x1_17 -1 t_x10_17 +3 t_t1_10_17 <= +0
 andgate_635_add: -1 t_x1_10 -1 t_x1_17 -1 t_x10_17 +1 t_t1_10_17 >= -2
 andgate_228_operators: -1 t_x5_12 -1 t_x5_17 -1 t_x12_17 +3 t_t5_12_17 <= +0
 andgate_228_add: -1 t_x5_12 -1 t_x5_17 -1 t_x12_17 +1 t_t5_12_17 >= -2
 andgate_45_operators: -1 t_x9_10 -1 t_x9_11 -1 t_x10_11 +3 t_t9_10_11 <= +0
 andgate_45_add: -1 t_x9_10 -1 t_x9_11 -1 t_x10_11 +1 t_t9_10_11 >= -2
 andgate_493_operators: -1 t_x2_14 -1 t_x2_17 -1 t_x14_17 +3 t_t2_14_17 <= +0
 andgate_493_add: -1 t_x2_14 -1 t_x2_17 -1 t_x14_17 +1 t_t2_14_17 >= -2
 andgate_439_operators: -1 t_x3_15 -1 t_x7_15 -1 t_t0_3_7 +3 t_t3_7_15 <= +0
 andgate_439_add: -1 t_x3_15 -1 t_x7_15 -1 t_t0_3_7 +1 t_t3_7_15 >= -2
 andgate_80_operators: -1 t_x8_10 -1 t_x8_12 -1 t_x10_12 +3 t_t8_10_12 <= +0
 andgate_80_add: -1 t_x8_10 -1 t_x8_12 -1 t_x10_12 +1 t_t8_10_12 >= -2
 andgate_538_operators: -1 t_x2_11 -1 t_x8_11 -1 t_t0_2_8 +3 t_t2_8_11 <= +0
 andgate_538_add: -1 t_x2_11 -1 t_x8_11 -1 t_t0_2_8 +1 t_t2_8_11 >= -2
 andgate_422_operators: -1 t_x3_9 -1 t_x3_13 -1 t_x9_13 +3 t_t3_9_13 <= +0
 andgate_422_add: -1 t_x3_9 -1 t_x3_13 -1 t_x9_13 +1 t_t3_9_13 >= -2
 andgate_429_operators: -1 t_x3_15 -1 t_x8_15 -1 t_t0_3_8 +3 t_t3_8_15 <= +0
 andgate_429_add: -1 t_x3_15 -1 t_x8_15 -1 t_t0_3_8 +1 t_t3_8_15 >= -2
 andgate_113_operators: -1 t_x7_11 -1 t_x7_17 -1 t_x11_17 +3 t_t7_11_17 <= +0
 andgate_113_add: -1 t_x7_11 -1 t_x7_17 -1 t_x11_17 +1 t_t7_11_17 >= -2
 andgate_521_operators: -1 t_x2_10 -1 t_x2_11 -1 t_x10_11 +3 t_t2_10_11 <= +0
 andgate_521_add: -1 t_x2_10 -1 t_x2_11 -1 t_x10_11 +1 t_t2_10_11 >= -2
 andgate_71_operators: -1 t_x8_11 -1 t_x8_14 -1 t_x11_14 +3 t_t8_11_14 <= +0
 andgate_71_add: -1 t_x8_11 -1 t_x8_14 -1 t_x11_14 +1 t_t8_11_14 >= -2
 andgate_359_operators: -1 t_x4_15 -1 t_x6_15 -1 t_t0_4_6 +3 t_t4_6_15 <= +0
 andgate_359_add: -1 t_x4_15 -1 t_x6_15 -1 t_t0_4_6 +1 t_t4_6_15 >= -2
 andgate_81_operators: -1 t_x8_10 -1 t_x8_11 -1 t_x10_11 +3 t_t8_10_11 <= +0
 andgate_81_add: -1 t_x8_10 -1 t_x8_11 -1 t_x10_11 +1 t_t8_10_11 >= -2
 andgate_66_operators: -1 t_x8_12 -1 t_x8_13 -1 t_x12_13 +3 t_t8_12_13 <= +0
 andgate_66_add: -1 t_x8_12 -1 t_x8_13 -1 t_x12_13 +1 t_t8_12_13 >= -2
 andgate_325_operators: -1 t_x4_10 -1 t_x4_11 -1 t_x10_11 +3 t_t4_10_11 <= +0
 andgate_325_add: -1 t_x4_10 -1 t_x4_11 -1 t_x10_11 +1 t_t4_10_11 >= -2
 andgate_463_operators: -1 t_x3_14 -1 t_x5_14 -1 t_t0_3_5 +3 t_t3_5_14 <= +0
 andgate_463_add: -1 t_x3_14 -1 t_x5_14 -1 t_t0_3_5 +1 t_t3_5_14 >= -2
 andgate_35_operators: -1 t_x9_11 -1 t_x9_14 -1 t_x11_14 +3 t_t9_11_14 <= +0
 andgate_35_add: -1 t_x9_11 -1 t_x9_14 -1 t_x11_14 +1 t_t9_11_14 >= -2
 andgate_349_operators: -1 t_x4_14 -1 t_x7_14 -1 t_t0_4_7 +3 t_t4_7_14 <= +0
 andgate_349_add: -1 t_x4_14 -1 t_x7_14 -1 t_t0_4_7 +1 t_t4_7_14 >= -2
 andgate_320_operators: -1 t_x4_10 -1 t_x4_16 -1 t_x10_16 +3 t_t4_10_16 <= +0
 andgate_320_add: -1 t_x4_10 -1 t_x4_16 -1 t_x10_16 +1 t_t4_10_16 >= -2
 andgate_472_operators: -1 t_x3_18 -1 t_x4_18 -1 t_t0_3_4 +3 t_t3_4_18 <= +0
 andgate_472_add: -1 t_x3_18 -1 t_x4_18 -1 t_t0_3_4 +1 t_t3_4_18 >= -2
 andgate_132_operators: -1 t_x7_9 -1 t_x7_13 -1 t_x9_13 +3 t_t7_9_13 <= +0
 andgate_132_add: -1 t_x7_9 -1 t_x7_13 -1 t_x9_13 +1 t_t7_9_13 >= -2
 andgate_431_operators: -1 t_x3_13 -1 t_x8_13 -1 t_t0_3_8 +3 t_t3_8_13 <= +0
 andgate_431_add: -1 t_x3_13 -1 t_x8_13 -1 t_t0_3_8 +1 t_t3_8_13 >= -2
 andgate_477_operators: -1 t_x3_13 -1 t_x4_13 -1 t_t0_3_4 +3 t_t3_4_13 <= +0
 andgate_477_add: -1 t_x3_13 -1 t_x4_13 -1 t_t0_3_4 +1 t_t3_4_13 >= -2
 andgate_737_operators: -1 t_t0_1_2 -1 t_t0_1_7 -1 t_t0_2_7 +3 t_t1_2_7 <= +0
 andgate_737_add: -1 t_t0_1_2 -1 t_t0_1_7 -1 t_t0_2_7 +1 t_t1_2_7 >= -2
 andgate_203_operators: -1 t_x6_16 -1 t_x7_16 -1 t_t0_6_7 +3 t_t6_7_16 <= +0
 andgate_203_add: -1 t_x6_16 -1 t_x7_16 -1 t_t0_6_7 +1 t_t6_7_16 >= -2
 andgate_351_operators: -1 t_x4_12 -1 t_x7_12 -1 t_t0_4_7 +3 t_t4_7_12 <= +0
 andgate_351_add: -1 t_x4_12 -1 t_x7_12 -1 t_t0_4_7 +1 t_t4_7_12 >= -2
 andgate_645_operators: -1 t_x1_9 -1 t_x1_15 -1 t_x9_15 +3 t_t1_9_15 <= +0
 andgate_645_add: -1 t_x1_9 -1 t_x1_15 -1 t_x9_15 +1 t_t1_9_15 >= -2
 andgate_503_operators: -1 t_x2_12 -1 t_x2_16 -1 t_x12_16 +3 t_t2_12_16 <= +0
 andgate_503_add: -1 t_x2_12 -1 t_x2_16 -1 t_x12_16 +1 t_t2_12_16 >= -2
 andgate_376_operators: -1 t_x4_10 -1 t_x5_10 -1 t_t0_4_5 +3 t_t4_5_10 <= +0
 andgate_376_add: -1 t_x4_10 -1 t_x5_10 -1 t_t0_4_5 +1 t_t4_5_10 >= -2
 andgate_457_operators: -1 t_t0_3_6 -1 t_t0_3_8 -1 t_t0_6_8 +3 t_t3_6_8 <= +0
 andgate_457_add: -1 t_t0_3_6 -1 t_t0_3_8 -1 t_t0_6_8 +1 t_t3_6_8 >= -2
 andgate_4_operators: -1 t_x10_11 -1 t_x10_17 -1 t_x11_17 +3 t_t10_11_17 <= +0
 andgate_4_add: -1 t_x10_11 -1 t_x10_17 -1 t_x11_17 +1 t_t10_11_17 >= -2
 andgate_752_operators: -1 t_x10_13 -1 t_x10_18 -1 t_x13_18 +3 t_t10_13_18 <= +0
 andgate_752_add: -1 t_x10_13 -1 t_x10_18 -1 t_x13_18 +1 t_t10_13_18 >= -2
 andgate_798_operators: -1 t_x11_16 -1 t_x11_18 -1 t_x16_18 +3 t_t11_16_18 <= +0
 andgate_798_add: -1 t_x11_16 -1 t_x11_18 -1 t_x16_18 +1 t_t11_16_18 >= -2
 andgate_509_operators: -1 t_x2_11 -1 t_x2_16 -1 t_x11_16 +3 t_t2_11_16 <= +0
 andgate_509_add: -1 t_x2_11 -1 t_x2_16 -1 t_x11_16 +1 t_t2_11_16 >= -2
 andgate_319_operators: -1 t_x4_10 -1 t_x4_17 -1 t_x10_17 +3 t_t4_10_17 <= +0
 andgate_319_add: -1 t_x4_10 -1 t_x4_17 -1 t_x10_17 +1 t_t4_10_17 >= -2
 andgate_229_operators: -1 t_x5_12 -1 t_x5_16 -1 t_x12_16 +3 t_t5_12_16 <= +0
 andgate_229_add: -1 t_x5_12 -1 t_x5_16 -1 t_x12_16 +1 t_t5_12_16 >= -2
 andgate_746_operators: -1 t_x10_12 -1 t_x10_17 -1 t_x12_17 +3 t_t10_12_17 <= +0
 andgate_746_add: -1 t_x10_12 -1 t_x10_17 -1 t_x12_17 +1 t_t10_12_17 >= -2
 andgate_3_operators: -1 t_x10_11 -1 t_x10_18 -1 t_x11_18 +3 t_t10_11_18 <= +0
 andgate_3_add: -1 t_x10_11 -1 t_x10_18 -1 t_x11_18 +1 t_t10_11_18 >= -2
 andgate_278_operators: -1 t_x5_18 -1 t_x6_18 -1 t_t0_5_6 +3 t_t5_6_18 <= +0
 andgate_278_add: -1 t_x5_18 -1 t_x6_18 -1 t_t0_5_6 +1 t_t5_6_18 >= -2
 andgate_363_operators: -1 t_x4_11 -1 t_x6_11 -1 t_t0_4_6 +3 t_t4_6_11 <= +0
 andgate_363_add: -1 t_x4_11 -1 t_x6_11 -1 t_t0_4_6 +1 t_t4_6_11 >= -2
 andgate_318_operators: -1 t_x4_10 -1 t_x4_18 -1 t_x10_18 +3 t_t4_10_18 <= +0
 andgate_318_add: -1 t_x4_10 -1 t_x4_18 -1 t_x10_18 +1 t_t4_10_18 >= -2
 andgate_221_operators: -1 t_x5_14 -1 t_x5_15 -1 t_x14_15 +3 t_t5_14_15 <= +0
 andgate_221_add: -1 t_x5_14 -1 t_x5_15 -1 t_x14_15 +1 t_t5_14_15 >= -2
 andgate_181_operators: -1 t_x6_10 -1 t_x6_11 -1 t_x10_11 +3 t_t6_10_11 <= +0
 andgate_181_add: -1 t_x6_10 -1 t_x6_11 -1 t_x10_11 +1 t_t6_10_11 >= -2
 andgate_577_operators: -1 t_x2_18 -1 t_x4_18 -1 t_t0_2_4 +3 t_t2_4_18 <= +0
 andgate_577_add: -1 t_x2_18 -1 t_x4_18 -1 t_t0_2_4 +1 t_t2_4_18 >= -2
 andgate_354_operators: -1 t_x4_9 -1 t_x7_9 -1 t_t0_4_7 +3 t_t4_7_9 <= +0
 andgate_354_add: -1 t_x4_9 -1 t_x7_9 -1 t_t0_4_7 +1 t_t4_7_9 >= -2
 andgate_755_operators: -1 t_x16_17 -1 t_x16_18 -1 t_x17_18 +3 t_t16_17_18 <= +0
 andgate_755_add: -1 t_x16_17 -1 t_x16_18 -1 t_x17_18 +1 t_t16_17_18 >= -2
 andgate_508_operators: -1 t_x2_11 -1 t_x2_17 -1 t_x11_17 +3 t_t2_11_17 <= +0
 andgate_508_add: -1 t_x2_11 -1 t_x2_17 -1 t_x11_17 +1 t_t2_11_17 >= -2
 andgate_671_operators: -1 t_t0_1_7 -1 t_t0_1_8 -1 t_t0_7_8 +3 t_t1_7_8 <= +0
 andgate_671_add: -1 t_t0_1_7 -1 t_t0_1_8 -1 t_t0_7_8 +1 t_t1_7_8 >= -2
 andgate_49_operators: -1 t_x8_15 -1 t_x8_18 -1 t_x15_18 +3 t_t8_15_18 <= +0
 andgate_49_add: -1 t_x8_15 -1 t_x8_18 -1 t_x15_18 +1 t_t8_15_18 >= -2
 andgate_661_operators: -1 t_x1_18 -1 t_x7_18 -1 t_t0_1_7 +3 t_t1_7_18 <= +0
 andgate_661_add: -1 t_x1_18 -1 t_x7_18 -1 t_t0_1_7 +1 t_t1_7_18 >= -2
 andgate_488_operators: -1 t_x2_16 -1 t_x2_17 -1 t_x16_17 +3 t_t2_16_17 <= +0
 andgate_488_add: -1 t_x2_16 -1 t_x2_17 -1 t_x16_17 +1 t_t2_16_17 >= -2
 andgate_496_operators: -1 t_x2_13 -1 t_x2_18 -1 t_x13_18 +3 t_t2_13_18 <= +0
 andgate_496_add: -1 t_x2_13 -1 t_x2_18 -1 t_x13_18 +1 t_t2_13_18 >= -2
 andgate_72_operators: -1 t_x8_11 -1 t_x8_13 -1 t_x11_13 +3 t_t8_11_13 <= +0
 andgate_72_add: -1 t_x8_11 -1 t_x8_13 -1 t_x11_13 +1 t_t8_11_13 >= -2
 andgate_212_operators: -1 t_x5_17 -1 t_x5_18 -1 t_x17_18 +3 t_t5_17_18 <= +0
 andgate_212_add: -1 t_x5_17 -1 t_x5_18 -1 t_x17_18 +1 t_t5_17_18 >= -2
 andgate_599_operators: -1 t_x2_10 -1 t_x3_10 -1 t_t0_2_3 +3 t_t2_3_10 <= +0
 andgate_599_add: -1 t_x2_10 -1 t_x3_10 -1 t_t0_2_3 +1 t_t2_3_10 >= -2
 andgate_5_operators: -1 t_x10_11 -1 t_x10_16 -1 t_x11_16 +3 t_t10_11_16 <= +0
 andgate_5_add: -1 t_x10_11 -1 t_x10_16 -1 t_x11_16 +1 t_t10_11_16 >= -2
 andgate_33_operators: -1 t_x9_11 -1 t_x9_16 -1 t_x11_16 +3 t_t9_11_16 <= +0
 andgate_33_add: -1 t_x9_11 -1 t_x9_16 -1 t_x11_16 +1 t_t9_11_16 >= -2
 andgate_369_operators: -1 t_x4_17 -1 t_x5_17 -1 t_t0_4_5 +3 t_t4_5_17 <= +0
 andgate_369_add: -1 t_x4_17 -1 t_x5_17 -1 t_t0_4_5 +1 t_t4_5_17 >= -2
 andgate_312_operators: -1 t_x4_11 -1 t_x4_17 -1 t_x11_17 +3 t_t4_11_17 <= +0
 andgate_312_add: -1 t_x4_11 -1 t_x4_17 -1 t_x11_17 +1 t_t4_11_17 >= -2
 andgate_15_operators: -1 t_x9_15 -1 t_x9_16 -1 t_x15_16 +3 t_t9_15_16 <= +0
 andgate_15_add: -1 t_x9_15 -1 t_x9_16 -1 t_x15_16 +1 t_t9_15_16 >= -2
 andgate_258_operators: -1 t_x5_17 -1 t_x8_17 -1 t_t0_5_8 +3 t_t5_8_17 <= +0
 andgate_258_add: -1 t_x5_17 -1 t_x8_17 -1 t_t0_5_8 +1 t_t5_8_17 >= -2
 andgate_198_operators: -1 t_x6_11 -1 t_x8_11 -1 t_t0_6_8 +3 t_t6_8_11 <= +0
 andgate_198_add: -1 t_x6_11 -1 t_x8_11 -1 t_t0_6_8 +1 t_t6_8_11 >= -2
 andgate_293_operators: -1 t_x4_15 -1 t_x4_18 -1 t_x15_18 +3 t_t4_15_18 <= +0
 andgate_293_add: -1 t_x4_15 -1 t_x4_18 -1 t_x15_18 +1 t_t4_15_18 >= -2
 andgate_280_operators: -1 t_x5_16 -1 t_x6_16 -1 t_t0_5_6 +3 t_t5_6_16 <= +0
 andgate_280_add: -1 t_x5_16 -1 t_x6_16 -1 t_t0_5_6 +1 t_t5_6_16 >= -2
 andgate_424_operators: -1 t_x3_9 -1 t_x3_11 -1 t_x9_11 +3 t_t3_9_11 <= +0
 andgate_424_add: -1 t_x3_9 -1 t_x3_11 -1 t_x9_11 +1 t_t3_9_11 >= -2
 andgate_744_operators: -1 t_x11_12 -1 t_x11_18 -1 t_x12_18 +3 t_t11_12_18 <= +0
 andgate_744_add: -1 t_x11_12 -1 t_x11_18 -1 t_x12_18 +1 t_t11_12_18 >= -2
 andgate_307_operators: -1 t_x4_12 -1 t_x4_16 -1 t_x12_16 +3 t_t4_12_16 <= +0
 andgate_307_add: -1 t_x4_12 -1 t_x4_16 -1 t_x12_16 +1 t_t4_12_16 >= -2
 andgate_330_operators: -1 t_x4_9 -1 t_x4_14 -1 t_x9_14 +3 t_t4_9_14 <= +0
 andgate_330_add: -1 t_x4_9 -1 t_x4_14 -1 t_x9_14 +1 t_t4_9_14 >= -2
 andgate_754_operators: -1 t_x11_12 -1 t_x11_16 -1 t_x12_16 +3 t_t11_12_16 <= +0
 andgate_754_add: -1 t_x11_12 -1 t_x11_16 -1 t_x12_16 +1 t_t11_12_16 >= -2
 andgate_502_operators: -1 t_x2_12 -1 t_x2_17 -1 t_x12_17 +3 t_t2_12_17 <= +0
 andgate_502_add: -1 t_x2_12 -1 t_x2_17 -1 t_x12_17 +1 t_t2_12_17 >= -2
 andgate_385_operators: -1 t_x3_15 -1 t_x3_17 -1 t_x15_17 +3 t_t3_15_17 <= +0
 andgate_385_add: -1 t_x3_15 -1 t_x3_17 -1 t_x15_17 +1 t_t3_15_17 >= -2
 andgate_130_operators: -1 t_x7_9 -1 t_x7_15 -1 t_x9_15 +3 t_t7_9_15 <= +0
 andgate_130_add: -1 t_x7_9 -1 t_x7_15 -1 t_x9_15 +1 t_t7_9_15 >= -2
 andgate_395_operators: -1 t_x3_13 -1 t_x3_14 -1 t_x13_14 +3 t_t3_13_14 <= +0
 andgate_395_add: -1 t_x3_13 -1 t_x3_14 -1 t_x13_14 +1 t_t3_13_14 >= -2
 andgate_257_operators: -1 t_x5_18 -1 t_x8_18 -1 t_t0_5_8 +3 t_t5_8_18 <= +0
 andgate_257_add: -1 t_x5_18 -1 t_x8_18 -1 t_t0_5_8 +1 t_t5_8_18 >= -2
 andgate_245_operators: -1 t_x5_10 -1 t_x5_13 -1 t_x10_13 +3 t_t5_10_13 <= +0
 andgate_245_add: -1 t_x5_10 -1 t_x5_13 -1 t_x10_13 +1 t_t5_10_13 >= -2
 andgate_208_operators: -1 t_x6_11 -1 t_x7_11 -1 t_t0_6_7 +3 t_t6_7_11 <= +0
 andgate_208_add: -1 t_x6_11 -1 t_x7_11 -1 t_t0_6_7 +1 t_t6_7_11 >= -2
 andgate_255_operators: -1 t_x5_9 -1 t_x5_11 -1 t_x9_11 +3 t_t5_9_11 <= +0
 andgate_255_add: -1 t_x5_9 -1 t_x5_11 -1 t_x9_11 +1 t_t5_9_11 >= -2
 andgate_513_operators: -1 t_x2_11 -1 t_x2_12 -1 t_x11_12 +3 t_t2_11_12 <= +0
 andgate_513_add: -1 t_x2_11 -1 t_x2_12 -1 t_x11_12 +1 t_t2_11_12 >= -2
 andgate_348_operators: -1 t_x4_15 -1 t_x7_15 -1 t_t0_4_7 +3 t_t4_7_15 <= +0
 andgate_348_add: -1 t_x4_15 -1 t_x7_15 -1 t_t0_4_7 +1 t_t4_7_15 >= -2
 andgate_97_operators: -1 t_x7_14 -1 t_x7_18 -1 t_x14_18 +3 t_t7_14_18 <= +0
 andgate_97_add: -1 t_x7_14 -1 t_x7_18 -1 t_x14_18 +1 t_t7_14_18 >= -2
 andgate_393_operators: -1 t_x3_13 -1 t_x3_16 -1 t_x13_16 +3 t_t3_13_16 <= +0
 andgate_393_add: -1 t_x3_13 -1 t_x3_16 -1 t_x13_16 +1 t_t3_13_16 >= -2
 andgate_214_operators: -1 t_x5_16 -1 t_x5_17 -1 t_x16_17 +3 t_t5_16_17 <= +0
 andgate_214_add: -1 t_x5_16 -1 t_x5_17 -1 t_x16_17 +1 t_t5_16_17 >= -2
 andgate_44_operators: -1 t_x9_10 -1 t_x9_12 -1 t_x10_12 +3 t_t9_10_12 <= +0
 andgate_44_add: -1 t_x9_10 -1 t_x9_12 -1 t_x10_12 +1 t_t9_10_12 >= -2
 andgate_37_operators: -1 t_x9_11 -1 t_x9_12 -1 t_x11_12 +3 t_t9_11_12 <= +0
 andgate_37_add: -1 t_x9_11 -1 t_x9_12 -1 t_x11_12 +1 t_t9_11_12 >= -2
 andgate_135_operators: -1 t_x7_9 -1 t_x7_10 -1 t_x9_10 +3 t_t7_9_10 <= +0
 andgate_135_add: -1 t_x7_9 -1 t_x7_10 -1 t_x9_10 +1 t_t7_9_10 >= -2
 andgate_533_operators: -1 t_x2_16 -1 t_x8_16 -1 t_t0_2_8 +3 t_t2_8_16 <= +0
 andgate_533_add: -1 t_x2_16 -1 t_x8_16 -1 t_t0_2_8 +1 t_t2_8_16 >= -2
 andgate_200_operators: -1 t_x6_9 -1 t_x8_9 -1 t_t0_6_8 +3 t_t6_8_9 <= +0
 andgate_200_add: -1 t_x6_9 -1 t_x8_9 -1 t_t0_6_8 +1 t_t6_8_9 >= -2
 andgate_171_operators: -1 t_x6_11 -1 t_x6_14 -1 t_x11_14 +3 t_t6_11_14 <= +0
 andgate_171_add: -1 t_x6_11 -1 t_x6_14 -1 t_x11_14 +1 t_t6_11_14 >= -2
 andgate_500_operators: -1 t_x2_13 -1 t_x2_14 -1 t_x13_14 +3 t_t2_13_14 <= +0
 andgate_500_add: -1 t_x2_13 -1 t_x2_14 -1 t_x13_14 +1 t_t2_13_14 >= -2
 andgate_90_operators: -1 t_x8_9 -1 t_x8_10 -1 t_x9_10 +3 t_t8_9_10 <= +0
 andgate_90_add: -1 t_x8_9 -1 t_x8_10 -1 t_x9_10 +1 t_t8_9_10 >= -2
 andgate_333_operators: -1 t_x4_9 -1 t_x4_11 -1 t_x9_11 +3 t_t4_9_11 <= +0
 andgate_333_add: -1 t_x4_9 -1 t_x4_11 -1 t_x9_11 +1 t_t4_9_11 >= -2
 andgate_524_operators: -1 t_x2_9 -1 t_x2_16 -1 t_x9_16 +3 t_t2_9_16 <= +0
 andgate_524_add: -1 t_x2_9 -1 t_x2_16 -1 t_x9_16 +1 t_t2_9_16 >= -2
 andgate_414_operators: -1 t_x3_10 -1 t_x3_13 -1 t_x10_13 +3 t_t3_10_13 <= +0
 andgate_414_add: -1 t_x3_10 -1 t_x3_13 -1 t_x10_13 +1 t_t3_10_13 >= -2
 andgate_187_operators: -1 t_x6_9 -1 t_x6_13 -1 t_x9_13 +3 t_t6_9_13 <= +0
 andgate_187_add: -1 t_x6_9 -1 t_x6_13 -1 t_x9_13 +1 t_t6_9_13 >= -2
 andgate_235_operators: -1 t_x5_11 -1 t_x5_16 -1 t_x11_16 +3 t_t5_11_16 <= +0
 andgate_235_add: -1 t_x5_11 -1 t_x5_16 -1 t_x11_16 +1 t_t5_11_16 >= -2
 andgate_18_operators: -1 t_x9_14 -1 t_x9_16 -1 t_x14_16 +3 t_t9_14_16 <= +0
 andgate_18_add: -1 t_x9_14 -1 t_x9_16 -1 t_x14_16 +1 t_t9_14_16 >= -2
 andgate_68_operators: -1 t_x8_11 -1 t_x8_17 -1 t_x11_17 +3 t_t8_11_17 <= +0
 andgate_68_add: -1 t_x8_11 -1 t_x8_17 -1 t_x11_17 +1 t_t8_11_17 >= -2
 andgate_342_operators: -1 t_x4_11 -1 t_x8_11 -1 t_t0_4_8 +3 t_t4_8_11 <= +0
 andgate_342_add: -1 t_x4_11 -1 t_x8_11 -1 t_t0_4_8 +1 t_t4_8_11 >= -2
 andgate_251_operators: -1 t_x5_9 -1 t_x5_15 -1 t_x9_15 +3 t_t5_9_15 <= +0
 andgate_251_add: -1 t_x5_9 -1 t_x5_15 -1 t_x9_15 +1 t_t5_9_15 >= -2
 andgate_54_operators: -1 t_x8_14 -1 t_x8_16 -1 t_x14_16 +3 t_t8_14_16 <= +0
 andgate_54_add: -1 t_x8_14 -1 t_x8_16 -1 t_x14_16 +1 t_t8_14_16 >= -2
 andgate_443_operators: -1 t_x3_11 -1 t_x7_11 -1 t_t0_3_7 +3 t_t3_7_11 <= +0
 andgate_443_add: -1 t_x3_11 -1 t_x7_11 -1 t_t0_3_7 +1 t_t3_7_11 >= -2
 andgate_474_operators: -1 t_x3_16 -1 t_x4_16 -1 t_t0_3_4 +3 t_t3_4_16 <= +0
 andgate_474_add: -1 t_x3_16 -1 t_x4_16 -1 t_t0_3_4 +1 t_t3_4_16 >= -2
 andgate_750_operators: -1 t_x10_13 -1 t_x10_16 -1 t_x13_16 +3 t_t10_13_16 <= +0
 andgate_750_add: -1 t_x10_13 -1 t_x10_16 -1 t_x13_16 +1 t_t10_13_16 >= -2
 andgate_618_operators: -1 t_x1_13 -1 t_x1_16 -1 t_x13_16 +3 t_t1_13_16 <= +0
 andgate_618_add: -1 t_x1_13 -1 t_x1_16 -1 t_x13_16 +1 t_t1_13_16 >= -2
 andgate_764_operators: -1 t_x11_12 -1 t_x11_15 -1 t_x12_15 +3 t_t11_12_15 <= +0
 andgate_764_add: -1 t_x11_12 -1 t_x11_15 -1 t_x12_15 +1 t_t11_12_15 >= -2
 andgate_281_operators: -1 t_x5_15 -1 t_x6_15 -1 t_t0_5_6 +3 t_t5_6_15 <= +0
 andgate_281_add: -1 t_x5_15 -1 t_x6_15 -1 t_t0_5_6 +1 t_t5_6_15 >= -2
 andgate_101_operators: -1 t_x7_13 -1 t_x7_18 -1 t_x13_18 +3 t_t7_13_18 <= +0
 andgate_101_add: -1 t_x7_13 -1 t_x7_18 -1 t_x13_18 +1 t_t7_13_18 >= -2
 andgate_169_operators: -1 t_x6_11 -1 t_x6_16 -1 t_x11_16 +3 t_t6_11_16 <= +0
 andgate_169_add: -1 t_x6_11 -1 t_x6_16 -1 t_x11_16 +1 t_t6_11_16 >= -2
 andgate_628_operators: -1 t_x1_11 -1 t_x1_17 -1 t_x11_17 +3 t_t1_11_17 <= +0
 andgate_628_add: -1 t_x1_11 -1 t_x1_17 -1 t_x11_17 +1 t_t1_11_17 >= -2
 andgate_640_operators: -1 t_x1_10 -1 t_x1_12 -1 t_x10_12 +3 t_t1_10_12 <= +0
 andgate_640_add: -1 t_x1_10 -1 t_x1_12 -1 t_x10_12 +1 t_t1_10_12 >= -2
 andgate_578_operators: -1 t_x2_17 -1 t_x4_17 -1 t_t0_2_4 +3 t_t2_4_17 <= +0
 andgate_578_add: -1 t_x2_17 -1 t_x4_17 -1 t_t0_2_4 +1 t_t2_4_17 >= -2
 andgate_336_operators: -1 t_x4_17 -1 t_x8_17 -1 t_t0_4_8 +3 t_t4_8_17 <= +0
 andgate_336_add: -1 t_x4_17 -1 t_x8_17 -1 t_t0_4_8 +1 t_t4_8_17 >= -2
 andgate_612_operators: -1 t_x1_14 -1 t_x1_18 -1 t_x14_18 +3 t_t1_14_18 <= +0
 andgate_612_add: -1 t_x1_14 -1 t_x1_18 -1 t_x14_18 +1 t_t1_14_18 >= -2
 andgate_778_operators: -1 t_x11_12 -1 t_x11_13 -1 t_x12_13 +3 t_t11_12_13 <= +0
 andgate_778_add: -1 t_x11_12 -1 t_x11_13 -1 t_x12_13 +1 t_t11_12_13 >= -2
 andgate_294_operators: -1 t_x4_15 -1 t_x4_17 -1 t_x15_17 +3 t_t4_15_17 <= +0
 andgate_294_add: -1 t_x4_15 -1 t_x4_17 -1 t_x15_17 +1 t_t4_15_17 >= -2
 andgate_515_operators: -1 t_x2_10 -1 t_x2_17 -1 t_x10_17 +3 t_t2_10_17 <= +0
 andgate_515_add: -1 t_x2_10 -1 t_x2_17 -1 t_x10_17 +1 t_t2_10_17 >= -2
 andgate_92_operators: -1 t_x7_16 -1 t_x7_18 -1 t_x16_18 +3 t_t7_16_18 <= +0
 andgate_92_add: -1 t_x7_16 -1 t_x7_18 -1 t_x16_18 +1 t_t7_16_18 >= -2
 andgate_154_operators: -1 t_x6_14 -1 t_x6_16 -1 t_x14_16 +3 t_t6_14_16 <= +0
 andgate_154_add: -1 t_x6_14 -1 t_x6_16 -1 t_x14_16 +1 t_t6_14_16 >= -2
 andgate_787_operators: -1 t_x12_14 -1 t_x12_16 -1 t_x14_16 +3 t_t12_14_16 <= +0
 andgate_787_add: -1 t_x12_14 -1 t_x12_16 -1 t_x14_16 +1 t_t12_14_16 >= -2
 andgate_616_operators: -1 t_x1_13 -1 t_x1_18 -1 t_x13_18 +3 t_t1_13_18 <= +0
 andgate_616_add: -1 t_x1_13 -1 t_x1_18 -1 t_x13_18 +1 t_t1_13_18 >= -2
 andgate_527_operators: -1 t_x2_9 -1 t_x2_13 -1 t_x9_13 +3 t_t2_9_13 <= +0
 andgate_527_add: -1 t_x2_9 -1 t_x2_13 -1 t_x9_13 +1 t_t2_9_13 >= -2
 andgate_134_operators: -1 t_x7_9 -1 t_x7_11 -1 t_x9_11 +3 t_t7_9_11 <= +0
 andgate_134_add: -1 t_x7_9 -1 t_x7_11 -1 t_x9_11 +1 t_t7_9_11 >= -2
 andgate_34_operators: -1 t_x9_11 -1 t_x9_15 -1 t_x11_15 +3 t_t9_11_15 <= +0
 andgate_34_add: -1 t_x9_11 -1 t_x9_15 -1 t_x11_15 +1 t_t9_11_15 >= -2
 andgate_366_operators: -1 t_t0_4_6 -1 t_t0_4_8 -1 t_t0_6_8 +3 t_t4_6_8 <= +0
 andgate_366_add: -1 t_t0_4_6 -1 t_t0_4_8 -1 t_t0_6_8 +1 t_t4_6_8 >= -2
 andgate_260_operators: -1 t_x5_15 -1 t_x8_15 -1 t_t0_5_8 +3 t_t5_8_15 <= +0
 andgate_260_add: -1 t_x5_15 -1 t_x8_15 -1 t_t0_5_8 +1 t_t5_8_15 >= -2
 andgate_560_operators: -1 t_x2_10 -1 t_x6_10 -1 t_t0_2_6 +3 t_t2_6_10 <= +0
 andgate_560_add: -1 t_x2_10 -1 t_x6_10 -1 t_t0_2_6 +1 t_t2_6_10 >= -2
 andgate_451_operators: -1 t_x3_14 -1 t_x6_14 -1 t_t0_3_6 +3 t_t3_6_14 <= +0
 andgate_451_add: -1 t_x3_14 -1 t_x6_14 -1 t_t0_3_6 +1 t_t3_6_14 >= -2
 andgate_800_operators: -1 t_x11_15 -1 t_x11_18 -1 t_x15_18 +3 t_t11_15_18 <= +0
 andgate_800_add: -1 t_x11_15 -1 t_x11_18 -1 t_x15_18 +1 t_t11_15_18 >= -2
 andgate_745_operators: -1 t_x10_12 -1 t_x10_16 -1 t_x12_16 +3 t_t10_12_16 <= +0
 andgate_745_add: -1 t_x10_12 -1 t_x10_16 -1 t_x12_16 +1 t_t10_12_16 >= -2
 andgate_445_operators: -1 t_x3_9 -1 t_x7_9 -1 t_t0_3_7 +3 t_t3_7_9 <= +0
 andgate_445_add: -1 t_x3_9 -1 t_x7_9 -1 t_t0_3_7 +1 t_t3_7_9 >= -2
 andgate_553_operators: -1 t_x2_17 -1 t_x6_17 -1 t_t0_2_6 +3 t_t2_6_17 <= +0
 andgate_553_add: -1 t_x2_17 -1 t_x6_17 -1 t_t0_2_6 +1 t_t2_6_17 >= -2
 andgate_133_operators: -1 t_x7_9 -1 t_x7_12 -1 t_x9_12 +3 t_t7_9_12 <= +0
 andgate_133_add: -1 t_x7_9 -1 t_x7_12 -1 t_x9_12 +1 t_t7_9_12 >= -2
 andgate_2_operators: -1 t_x10_12 -1 t_x10_13 -1 t_x12_13 +3 t_t10_12_13 <= +0
 andgate_2_add: -1 t_x10_12 -1 t_x10_13 -1 t_x12_13 +1 t_t10_12_13 >= -2
 andgate_256_operators: -1 t_x5_9 -1 t_x5_10 -1 t_x9_10 +3 t_t5_9_10 <= +0
 andgate_256_add: -1 t_x5_9 -1 t_x5_10 -1 t_x9_10 +1 t_t5_9_10 >= -2
 andgate_434_operators: -1 t_x3_10 -1 t_x8_10 -1 t_t0_3_8 +3 t_t3_8_10 <= +0
 andgate_434_add: -1 t_x3_10 -1 t_x8_10 -1 t_t0_3_8 +1 t_t3_8_10 >= -2
 andgate_98_operators: -1 t_x7_14 -1 t_x7_17 -1 t_x14_17 +3 t_t7_14_17 <= +0
 andgate_98_add: -1 t_x7_14 -1 t_x7_17 -1 t_x14_17 +1 t_t7_14_17 >= -2
 andgate_188_operators: -1 t_x6_9 -1 t_x6_12 -1 t_x9_12 +3 t_t6_9_12 <= +0
 andgate_188_add: -1 t_x6_9 -1 t_x6_12 -1 t_x9_12 +1 t_t6_9_12 >= -2
 andgate_28_operators: -1 t_x9_12 -1 t_x9_15 -1 t_x12_15 +3 t_t9_12_15 <= +0
 andgate_28_add: -1 t_x9_12 -1 t_x9_15 -1 t_x12_15 +1 t_t9_12_15 >= -2
 andgate_520_operators: -1 t_x2_10 -1 t_x2_12 -1 t_x10_12 +3 t_t2_10_12 <= +0
 andgate_520_add: -1 t_x2_10 -1 t_x2_12 -1 t_x10_12 +1 t_t2_10_12 >= -2
 andgate_647_operators: -1 t_x1_9 -1 t_x1_13 -1 t_x9_13 +3 t_t1_9_13 <= +0
 andgate_647_add: -1 t_x1_9 -1 t_x1_13 -1 t_x9_13 +1 t_t1_9_13 >= -2
 andgate_600_operators: -1 t_x2_9 -1 t_x3_9 -1 t_t0_2_3 +3 t_t2_3_9 <= +0
 andgate_600_add: -1 t_x2_9 -1 t_x3_9 -1 t_t0_2_3 +1 t_t2_3_9 >= -2
 andgate_176_operators: -1 t_x6_10 -1 t_x6_16 -1 t_x10_16 +3 t_t6_10_16 <= +0
 andgate_176_add: -1 t_x6_10 -1 t_x6_16 -1 t_x10_16 +1 t_t6_10_16 >= -2
 andgate_479_operators: -1 t_x3_11 -1 t_x4_11 -1 t_t0_3_4 +3 t_t3_4_11 <= +0
 andgate_479_add: -1 t_x3_11 -1 t_x4_11 -1 t_t0_3_4 +1 t_t3_4_11 >= -2
 andgate_607_operators: -1 t_x1_16 -1 t_x1_18 -1 t_x16_18 +3 t_t1_16_18 <= +0
 andgate_607_add: -1 t_x1_16 -1 t_x1_18 -1 t_x16_18 +1 t_t1_16_18 >= -2
 andgate_528_operators: -1 t_x2_9 -1 t_x2_12 -1 t_x9_12 +3 t_t2_9_12 <= +0
 andgate_528_add: -1 t_x2_9 -1 t_x2_12 -1 t_x9_12 +1 t_t2_9_12 >= -2
 andgate_58_operators: -1 t_x8_13 -1 t_x8_16 -1 t_x13_16 +3 t_t8_13_16 <= +0
 andgate_58_add: -1 t_x8_13 -1 t_x8_16 -1 t_x13_16 +1 t_t8_13_16 >= -2
 andgate_658_operators: -1 t_x1_11 -1 t_x8_11 -1 t_t0_1_8 +3 t_t1_8_11 <= +0
 andgate_658_add: -1 t_x1_11 -1 t_x8_11 -1 t_t0_1_8 +1 t_t1_8_11 >= -2
 andgate_804_operators: -1 t_x11_14 -1 t_x11_17 -1 t_x14_17 +3 t_t11_14_17 <= +0
 andgate_804_add: -1 t_x11_14 -1 t_x11_17 -1 t_x14_17 +1 t_t11_14_17 >= -2
 andgate_365_operators: -1 t_x4_9 -1 t_x6_9 -1 t_t0_4_6 +3 t_t4_6_9 <= +0
 andgate_365_add: -1 t_x4_9 -1 t_x6_9 -1 t_t0_4_6 +1 t_t4_6_9 >= -2
 andgate_29_operators: -1 t_x9_12 -1 t_x9_14 -1 t_x12_14 +3 t_t9_12_14 <= +0
 andgate_29_add: -1 t_x9_12 -1 t_x9_14 -1 t_x12_14 +1 t_t9_12_14 >= -2
 andgate_131_operators: -1 t_x7_9 -1 t_x7_14 -1 t_x9_14 +3 t_t7_9_14 <= +0
 andgate_131_add: -1 t_x7_9 -1 t_x7_14 -1 t_x9_14 +1 t_t7_9_14 >= -2
 andgate_526_operators: -1 t_x2_9 -1 t_x2_14 -1 t_x9_14 +3 t_t2_9_14 <= +0
 andgate_526_add: -1 t_x2_9 -1 t_x2_14 -1 t_x9_14 +1 t_t2_9_14 >= -2
 andgate_76_operators: -1 t_x8_10 -1 t_x8_16 -1 t_x10_16 +3 t_t8_10_16 <= +0
 andgate_76_add: -1 t_x8_10 -1 t_x8_16 -1 t_x10_16 +1 t_t8_10_16 >= -2
 andgate_338_operators: -1 t_x4_15 -1 t_x8_15 -1 t_t0_4_8 +3 t_t4_8_15 <= +0
 andgate_338_add: -1 t_x4_15 -1 t_x8_15 -1 t_t0_4_8 +1 t_t4_8_15 >= -2
 andgate_197_operators: -1 t_x6_12 -1 t_x8_12 -1 t_t0_6_8 +3 t_t6_8_12 <= +0
 andgate_197_add: -1 t_x6_12 -1 t_x8_12 -1 t_t0_6_8 +1 t_t6_8_12 >= -2
 andgate_63_operators: -1 t_x8_12 -1 t_x8_16 -1 t_x12_16 +3 t_t8_12_16 <= +0
 andgate_63_add: -1 t_x8_12 -1 t_x8_16 -1 t_x12_16 +1 t_t8_12_16 >= -2
 andgate_747_operators: -1 t_x10_12 -1 t_x10_18 -1 t_x12_18 +3 t_t10_12_18 <= +0
 andgate_747_add: -1 t_x10_12 -1 t_x10_18 -1 t_x12_18 +1 t_t10_12_18 >= -2
 andgate_811_operators: -1 t_x11_13 -1 t_x11_16 -1 t_x13_16 +3 t_t11_13_16 <= +0
 andgate_811_add: -1 t_x11_13 -1 t_x11_16 -1 t_x13_16 +1 t_t11_13_16 >= -2
 andgate_86_operators: -1 t_x8_9 -1 t_x8_14 -1 t_x9_14 +3 t_t8_9_14 <= +0
 andgate_86_add: -1 t_x8_9 -1 t_x8_14 -1 t_x9_14 +1 t_t8_9_14 >= -2
 andgate_247_operators: -1 t_x5_10 -1 t_x5_11 -1 t_x10_11 +3 t_t5_10_11 <= +0
 andgate_247_add: -1 t_x5_10 -1 t_x5_11 -1 t_x10_11 +1 t_t5_10_11 >= -2
 andgate_481_operators: -1 t_x3_9 -1 t_x4_9 -1 t_t0_3_4 +3 t_t3_4_9 <= +0
 andgate_481_add: -1 t_x3_9 -1 t_x4_9 -1 t_t0_3_4 +1 t_t3_4_9 >= -2
 andgate_360_operators: -1 t_x4_14 -1 t_x6_14 -1 t_t0_4_6 +3 t_t4_6_14 <= +0
 andgate_360_add: -1 t_x4_14 -1 t_x6_14 -1 t_t0_4_6 +1 t_t4_6_14 >= -2
 andgate_462_operators: -1 t_x3_15 -1 t_x5_15 -1 t_t0_3_5 +3 t_t3_5_15 <= +0
 andgate_462_add: -1 t_x3_15 -1 t_x5_15 -1 t_t0_3_5 +1 t_t3_5_15 >= -2
 andgate_478_operators: -1 t_x3_12 -1 t_x4_12 -1 t_t0_3_4 +3 t_t3_4_12 <= +0
 andgate_478_add: -1 t_x3_12 -1 t_x4_12 -1 t_t0_3_4 +1 t_t3_4_12 >= -2
 andgate_436_operators: -1 t_x3_18 -1 t_x7_18 -1 t_t0_3_7 +3 t_t3_7_18 <= +0
 andgate_436_add: -1 t_x3_18 -1 t_x7_18 -1 t_t0_3_7 +1 t_t3_7_18 >= -2
 andgate_440_operators: -1 t_x3_14 -1 t_x7_14 -1 t_t0_3_7 +3 t_t3_7_14 <= +0
 andgate_440_add: -1 t_x3_14 -1 t_x7_14 -1 t_t0_3_7 +1 t_t3_7_14 >= -2
 andgate_791_operators: -1 t_x12_13 -1 t_x12_16 -1 t_x13_16 +3 t_t12_13_16 <= +0
 andgate_791_add: -1 t_x12_13 -1 t_x12_16 -1 t_x13_16 +1 t_t12_13_16 >= -2
 andgate_411_operators: -1 t_x3_10 -1 t_x3_16 -1 t_x10_16 +3 t_t3_10_16 <= +0
 andgate_411_add: -1 t_x3_10 -1 t_x3_16 -1 t_x10_16 +1 t_t3_10_16 >= -2
 andgate_370_operators: -1 t_x4_16 -1 t_x5_16 -1 t_t0_4_5 +3 t_t4_5_16 <= +0
 andgate_370_add: -1 t_x4_16 -1 t_x5_16 -1 t_t0_4_5 +1 t_t4_5_16 >= -2
 andgate_220_operators: -1 t_x5_14 -1 t_x5_16 -1 t_x14_16 +3 t_t5_14_16 <= +0
 andgate_220_add: -1 t_x5_14 -1 t_x5_16 -1 t_x14_16 +1 t_t5_14_16 >= -2
 andgate_94_operators: -1 t_x7_15 -1 t_x7_18 -1 t_x15_18 +3 t_t7_15_18 <= +0
 andgate_94_add: -1 t_x7_15 -1 t_x7_18 -1 t_x15_18 +1 t_t7_15_18 >= -2
 andgate_74_operators: -1 t_x8_10 -1 t_x8_18 -1 t_x10_18 +3 t_t8_10_18 <= +0
 andgate_74_add: -1 t_x8_10 -1 t_x8_18 -1 t_x10_18 +1 t_t8_10_18 >= -2
 andgate_765_operators: -1 t_x14_15 -1 t_x14_16 -1 t_x15_16 +3 t_t14_15_16 <= +0
 andgate_765_add: -1 t_x14_15 -1 t_x14_16 -1 t_x15_16 +1 t_t14_15_16 >= -2
 andgate_79_operators: -1 t_x8_10 -1 t_x8_13 -1 t_x10_13 +3 t_t8_10_13 <= +0
 andgate_79_add: -1 t_x8_10 -1 t_x8_13 -1 t_x10_13 +1 t_t8_10_13 >= -2
 andgate_216_operators: -1 t_x5_15 -1 t_x5_17 -1 t_x15_17 +3 t_t5_15_17 <= +0
 andgate_216_add: -1 t_x5_15 -1 t_x5_17 -1 t_x15_17 +1 t_t5_15_17 >= -2
 andgate_449_operators: -1 t_x3_16 -1 t_x6_16 -1 t_t0_3_6 +3 t_t3_6_16 <= +0
 andgate_449_add: -1 t_x3_16 -1 t_x6_16 -1 t_t0_3_6 +1 t_t3_6_16 >= -2
 andgate_420_operators: -1 t_x3_9 -1 t_x3_15 -1 t_x9_15 +3 t_t3_9_15 <= +0
 andgate_420_add: -1 t_x3_9 -1 t_x3_15 -1 t_x9_15 +1 t_t3_9_15 >= -2
 andgate_535_operators: -1 t_x2_14 -1 t_x8_14 -1 t_t0_2_8 +3 t_t2_8_14 <= +0
 andgate_535_add: -1 t_x2_14 -1 t_x8_14 -1 t_t0_2_8 +1 t_t2_8_14 >= -2
 andgate_324_operators: -1 t_x4_10 -1 t_x4_12 -1 t_x10_12 +3 t_t4_10_12 <= +0
 andgate_324_add: -1 t_x4_10 -1 t_x4_12 -1 t_x10_12 +1 t_t4_10_12 >= -2
 andgate_532_operators: -1 t_x2_17 -1 t_x8_17 -1 t_t0_2_8 +3 t_t2_8_17 <= +0
 andgate_532_add: -1 t_x2_17 -1 t_x8_17 -1 t_t0_2_8 +1 t_t2_8_17 >= -2
 andgate_586_operators: -1 t_x2_9 -1 t_x4_9 -1 t_t0_2_4 +3 t_t2_4_9 <= +0
 andgate_586_add: -1 t_x2_9 -1 t_x4_9 -1 t_t0_2_4 +1 t_t2_4_9 >= -2
 andgate_308_operators: -1 t_x4_12 -1 t_x4_15 -1 t_x12_15 +3 t_t4_12_15 <= +0
 andgate_308_add: -1 t_x4_12 -1 t_x4_15 -1 t_x12_15 +1 t_t4_12_15 >= -2
 andgate_487_operators: -1 t_x2_16 -1 t_x2_18 -1 t_x16_18 +3 t_t2_16_18 <= +0
 andgate_487_add: -1 t_x2_16 -1 t_x2_18 -1 t_x16_18 +1 t_t2_16_18 >= -2
 andgate_807_operators: -1 t_x11_13 -1 t_x11_18 -1 t_x13_18 +3 t_t11_13_18 <= +0
 andgate_807_add: -1 t_x11_13 -1 t_x11_18 -1 t_x13_18 +1 t_t11_13_18 >= -2
 andgate_650_operators: -1 t_x1_9 -1 t_x1_10 -1 t_x9_10 +3 t_t1_9_10 <= +0
 andgate_650_add: -1 t_x1_9 -1 t_x1_10 -1 t_x9_10 +1 t_t1_9_10 >= -2
 andgate_124_operators: -1 t_x7_10 -1 t_x7_13 -1 t_x10_13 +3 t_t7_10_13 <= +0
 andgate_124_add: -1 t_x7_10 -1 t_x7_13 -1 t_x10_13 +1 t_t7_10_13 >= -2
 andgate_476_operators: -1 t_x3_14 -1 t_x4_14 -1 t_t0_3_4 +3 t_t3_4_14 <= +0
 andgate_476_add: -1 t_x3_14 -1 t_x4_14 -1 t_t0_3_4 +1 t_t3_4_14 >= -2
 andgate_108_operators: -1 t_x7_12 -1 t_x7_16 -1 t_x12_16 +3 t_t7_12_16 <= +0
 andgate_108_add: -1 t_x7_12 -1 t_x7_16 -1 t_x12_16 +1 t_t7_12_16 >= -2
 andgate_279_operators: -1 t_x5_17 -1 t_x6_17 -1 t_t0_5_6 +3 t_t5_6_17 <= +0
 andgate_279_add: -1 t_x5_17 -1 t_x6_17 -1 t_t0_5_6 +1 t_t5_6_17 >= -2
 andgate_739_operators: -1 t_t0_1_2 -1 t_t0_1_5 -1 t_t0_2_5 +3 t_t1_2_5 <= +0
 andgate_739_add: -1 t_t0_1_2 -1 t_t0_1_5 -1 t_t0_2_5 +1 t_t1_2_5 >= -2
 andgate_40_operators: -1 t_x9_10 -1 t_x9_16 -1 t_x10_16 +3 t_t9_10_16 <= +0
 andgate_40_add: -1 t_x9_10 -1 t_x9_16 -1 t_x10_16 +1 t_t9_10_16 >= -2
 andgate_292_operators: -1 t_x4_16 -1 t_x4_17 -1 t_x16_17 +3 t_t4_16_17 <= +0
 andgate_292_add: -1 t_x4_16 -1 t_x4_17 -1 t_x16_17 +1 t_t4_16_17 >= -2
 andgate_329_operators: -1 t_x4_9 -1 t_x4_15 -1 t_x9_15 +3 t_t4_9_15 <= +0
 andgate_329_add: -1 t_x4_9 -1 t_x4_15 -1 t_x9_15 +1 t_t4_9_15 >= -2
 andgate_179_operators: -1 t_x6_10 -1 t_x6_13 -1 t_x10_13 +3 t_t6_10_13 <= +0
 andgate_179_add: -1 t_x6_10 -1 t_x6_13 -1 t_x10_13 +1 t_t6_10_13 >= -2
 andgate_557_operators: -1 t_x2_13 -1 t_x6_13 -1 t_t0_2_6 +3 t_t2_6_13 <= +0
 andgate_557_add: -1 t_x2_13 -1 t_x6_13 -1 t_t0_2_6 +1 t_t2_6_13 >= -2
 andgate_608_operators: -1 t_x1_16 -1 t_x1_17 -1 t_x16_17 +3 t_t1_16_17 <= +0
 andgate_608_add: -1 t_x1_16 -1 t_x1_17 -1 t_x16_17 +1 t_t1_16_17 >= -2
 andgate_160_operators: -1 t_x6_13 -1 t_x6_14 -1 t_x13_14 +3 t_t6_13_14 <= +0
 andgate_160_add: -1 t_x6_13 -1 t_x6_14 -1 t_x13_14 +1 t_t6_13_14 >= -2
 andgate_167_operators: -1 t_x6_11 -1 t_x6_18 -1 t_x11_18 +3 t_t6_11_18 <= +0
 andgate_167_add: -1 t_x6_11 -1 t_x6_18 -1 t_x11_18 +1 t_t6_11_18 >= -2
 andgate_805_operators: -1 t_x11_14 -1 t_x11_16 -1 t_x14_16 +3 t_t11_14_16 <= +0
 andgate_805_add: -1 t_x11_14 -1 t_x11_16 -1 t_x14_16 +1 t_t11_14_16 >= -2
 andgate_733_operators: -1 t_x1_11 -1 t_x2_11 -1 t_t0_1_2 +3 t_t1_2_11 <= +0
 andgate_733_add: -1 t_x1_11 -1 t_x2_11 -1 t_t0_1_2 +1 t_t1_2_11 >= -2
 andgate_149_operators: -1 t_x6_15 -1 t_x6_18 -1 t_x15_18 +3 t_t6_15_18 <= +0
 andgate_149_add: -1 t_x6_15 -1 t_x6_18 -1 t_x15_18 +1 t_t6_15_18 >= -2
 andgate_377_operators: -1 t_x4_9 -1 t_x5_9 -1 t_t0_4_5 +3 t_t4_5_9 <= +0
 andgate_377_add: -1 t_x4_9 -1 t_x5_9 -1 t_t0_4_5 +1 t_t4_5_9 >= -2
 andgate_766_operators: -1 t_x11_12 -1 t_x11_14 -1 t_x12_14 +3 t_t11_12_14 <= +0
 andgate_766_add: -1 t_x11_12 -1 t_x11_14 -1 t_x12_14 +1 t_t11_12_14 >= -2
 andgate_158_operators: -1 t_x6_13 -1 t_x6_16 -1 t_x13_16 +3 t_t6_13_16 <= +0
 andgate_158_add: -1 t_x6_13 -1 t_x6_16 -1 t_x13_16 +1 t_t6_13_16 >= -2
 andgate_482_operators: -1 t_t0_3_4 -1 t_t0_3_8 -1 t_t0_4_8 +3 t_t3_4_8 <= +0
 andgate_482_add: -1 t_t0_3_4 -1 t_t0_3_8 -1 t_t0_4_8 +1 t_t3_4_8 >= -2
 andgate_375_operators: -1 t_x4_11 -1 t_x5_11 -1 t_t0_4_5 +3 t_t4_5_11 <= +0
 andgate_375_add: -1 t_x4_11 -1 t_x5_11 -1 t_t0_4_5 +1 t_t4_5_11 >= -2
 andgate_100_operators: -1 t_x7_14 -1 t_x7_15 -1 t_x14_15 +3 t_t7_14_15 <= +0
 andgate_100_add: -1 t_x7_14 -1 t_x7_15 -1 t_x14_15 +1 t_t7_14_15 >= -2
 andgate_626_operators: -1 t_x1_12 -1 t_x1_13 -1 t_x12_13 +3 t_t1_12_13 <= +0
 andgate_626_add: -1 t_x1_12 -1 t_x1_13 -1 t_x12_13 +1 t_t1_12_13 >= -2
 andgate_406_operators: -1 t_x3_11 -1 t_x3_14 -1 t_x11_14 +3 t_t3_11_14 <= +0
 andgate_406_add: -1 t_x3_11 -1 t_x3_14 -1 t_x11_14 +1 t_t3_11_14 >= -2
 andgate_701_operators: -1 t_x1_14 -1 t_x4_14 -1 t_t0_1_4 +3 t_t1_4_14 <= +0
 andgate_701_add: -1 t_x1_14 -1 t_x4_14 -1 t_t0_1_4 +1 t_t1_4_14 >= -2
 andgate_447_operators: -1 t_x3_18 -1 t_x6_18 -1 t_t0_3_6 +3 t_t3_6_18 <= +0
 andgate_447_add: -1 t_x3_18 -1 t_x6_18 -1 t_t0_3_6 +1 t_t3_6_18 >= -2
 andgate_751_operators: -1 t_x10_13 -1 t_x10_17 -1 t_x13_17 +3 t_t10_13_17 <= +0
 andgate_751_add: -1 t_x10_13 -1 t_x10_17 -1 t_x13_17 +1 t_t10_13_17 >= -2
 andgate_111_operators: -1 t_x7_12 -1 t_x7_13 -1 t_x12_13 +3 t_t7_12_13 <= +0
 andgate_111_add: -1 t_x7_12 -1 t_x7_13 -1 t_x12_13 +1 t_t7_12_13 >= -2
 andgate_345_operators: -1 t_x4_18 -1 t_x7_18 -1 t_t0_4_7 +3 t_t4_7_18 <= +0
 andgate_345_add: -1 t_x4_18 -1 t_x7_18 -1 t_t0_4_7 +1 t_t4_7_18 >= -2
 andgate_735_operators: -1 t_x1_9 -1 t_x2_9 -1 t_t0_1_2 +3 t_t1_2_9 <= +0
 andgate_735_add: -1 t_x1_9 -1 t_x2_9 -1 t_t0_1_2 +1 t_t1_2_9 >= -2
 andgate_783_operators: -1 t_x12_15 -1 t_x12_17 -1 t_x15_17 +3 t_t12_15_17 <= +0
 andgate_783_add: -1 t_x12_15 -1 t_x12_17 -1 t_x15_17 +1 t_t12_15_17 >= -2
 andgate_382_operators: -1 t_x3_16 -1 t_x3_18 -1 t_x16_18 +3 t_t3_16_18 <= +0
 andgate_382_add: -1 t_x3_16 -1 t_x3_18 -1 t_x16_18 +1 t_t3_16_18 >= -2
 andgate_468_operators: -1 t_x3_9 -1 t_x5_9 -1 t_t0_3_5 +3 t_t3_5_9 <= +0
 andgate_468_add: -1 t_x3_9 -1 t_x5_9 -1 t_t0_3_5 +1 t_t3_5_9 >= -2
 andgate_397_operators: -1 t_x3_12 -1 t_x3_17 -1 t_x12_17 +3 t_t3_12_17 <= +0
 andgate_397_add: -1 t_x3_12 -1 t_x3_17 -1 t_x12_17 +1 t_t3_12_17 >= -2
 andgate_87_operators: -1 t_x8_9 -1 t_x8_13 -1 t_x9_13 +3 t_t8_9_13 <= +0
 andgate_87_add: -1 t_x8_9 -1 t_x8_13 -1 t_x9_13 +1 t_t8_9_13 >= -2
 andgate_396_operators: -1 t_x3_12 -1 t_x3_18 -1 t_x12_18 +3 t_t3_12_18 <= +0
 andgate_396_add: -1 t_x3_12 -1 t_x3_18 -1 t_x12_18 +1 t_t3_12_18 >= -2
 andgate_753_operators: -1 t_x11_12 -1 t_x11_17 -1 t_x12_17 +3 t_t11_12_17 <= +0
 andgate_753_add: -1 t_x11_12 -1 t_x11_17 -1 t_x12_17 +1 t_t11_12_17 >= -2
 andgate_311_operators: -1 t_x4_11 -1 t_x4_18 -1 t_x11_18 +3 t_t4_11_18 <= +0
 andgate_311_add: -1 t_x4_11 -1 t_x4_18 -1 t_x11_18 +1 t_t4_11_18 >= -2
 andgate_217_operators: -1 t_x5_15 -1 t_x5_16 -1 t_x15_16 +3 t_t5_15_16 <= +0
 andgate_217_add: -1 t_x5_15 -1 t_x5_16 -1 t_x15_16 +1 t_t5_15_16 >= -2
 andgate_387_operators: -1 t_x3_14 -1 t_x3_18 -1 t_x14_18 +3 t_t3_14_18 <= +0
 andgate_387_add: -1 t_x3_14 -1 t_x3_18 -1 t_x14_18 +1 t_t3_14_18 >= -2
 andgate_622_operators: -1 t_x1_12 -1 t_x1_17 -1 t_x12_17 +3 t_t1_12_17 <= +0
 andgate_622_add: -1 t_x1_12 -1 t_x1_17 -1 t_x12_17 +1 t_t1_12_17 >= -2
 andgate_51_operators: -1 t_x8_15 -1 t_x8_16 -1 t_x15_16 +3 t_t8_15_16 <= +0
 andgate_51_add: -1 t_x8_15 -1 t_x8_16 -1 t_x15_16 +1 t_t8_15_16 >= -2
 andgate_332_operators: -1 t_x4_9 -1 t_x4_12 -1 t_x9_12 +3 t_t4_9_12 <= +0
 andgate_332_add: -1 t_x4_9 -1 t_x4_12 -1 t_x9_12 +1 t_t4_9_12 >= -2
 andgate_794_operators: -1 t_x10_16 -1 t_x10_17 -1 t_x16_17 +3 t_t10_16_17 <= +0
 andgate_794_add: -1 t_x10_16 -1 t_x10_17 -1 t_x16_17 +1 t_t10_16_17 >= -2
 andgate_584_operators: -1 t_x2_11 -1 t_x4_11 -1 t_t0_2_4 +3 t_t2_4_11 <= +0
 andgate_584_add: -1 t_x2_11 -1 t_x4_11 -1 t_t0_2_4 +1 t_t2_4_11 >= -2
 andgate_22_operators: -1 t_x9_13 -1 t_x9_16 -1 t_x13_16 +3 t_t9_13_16 <= +0
 andgate_22_add: -1 t_x9_13 -1 t_x9_16 -1 t_x13_16 +1 t_t9_13_16 >= -2
 andgate_428_operators: -1 t_x3_16 -1 t_x8_16 -1 t_t0_3_8 +3 t_t3_8_16 <= +0
 andgate_428_add: -1 t_x3_16 -1 t_x8_16 -1 t_t0_3_8 +1 t_t3_8_16 >= -2
 andgate_295_operators: -1 t_x4_15 -1 t_x4_16 -1 t_x15_16 +3 t_t4_15_16 <= +0
 andgate_295_add: -1 t_x4_15 -1 t_x4_16 -1 t_x15_16 +1 t_t4_15_16 >= -2
 andgate_714_operators: -1 t_x1_15 -1 t_x3_15 -1 t_t0_1_3 +3 t_t1_3_15 <= +0
 andgate_714_add: -1 t_x1_15 -1 t_x3_15 -1 t_t0_1_3 +1 t_t1_3_15 >= -2
 andgate_494_operators: -1 t_x2_14 -1 t_x2_16 -1 t_x14_16 +3 t_t2_14_16 <= +0
 andgate_494_add: -1 t_x2_14 -1 t_x2_16 -1 t_x14_16 +1 t_t2_14_16 >= -2
 andgate_585_operators: -1 t_x2_10 -1 t_x4_10 -1 t_t0_2_4 +3 t_t2_4_10 <= +0
 andgate_585_add: -1 t_x2_10 -1 t_x4_10 -1 t_t0_2_4 +1 t_t2_4_10 >= -2
 andgate_168_operators: -1 t_x6_11 -1 t_x6_17 -1 t_x11_17 +3 t_t6_11_17 <= +0
 andgate_168_add: -1 t_x6_11 -1 t_x6_17 -1 t_x11_17 +1 t_t6_11_17 >= -2
 andgate_120_operators: -1 t_x7_10 -1 t_x7_17 -1 t_x10_17 +3 t_t7_10_17 <= +0
 andgate_120_add: -1 t_x7_10 -1 t_x7_17 -1 t_x10_17 +1 t_t7_10_17 >= -2
 andgate_265_operators: -1 t_x5_10 -1 t_x8_10 -1 t_t0_5_8 +3 t_t5_8_10 <= +0
 andgate_265_add: -1 t_x5_10 -1 t_x8_10 -1 t_t0_5_8 +1 t_t5_8_10 >= -2
 andgate_264_operators: -1 t_x5_11 -1 t_x8_11 -1 t_t0_5_8 +3 t_t5_8_11 <= +0
 andgate_264_add: -1 t_x5_11 -1 t_x8_11 -1 t_t0_5_8 +1 t_t5_8_11 >= -2
 andgate_801_operators: -1 t_x11_15 -1 t_x11_17 -1 t_x15_17 +3 t_t11_15_17 <= +0
 andgate_801_add: -1 t_x11_15 -1 t_x11_17 -1 t_x15_17 +1 t_t11_15_17 >= -2
 andgate_485_operators: -1 t_t0_3_4 -1 t_t0_3_5 -1 t_t0_4_5 +3 t_t3_4_5 <= +0
 andgate_485_add: -1 t_t0_3_4 -1 t_t0_3_5 -1 t_t0_4_5 +1 t_t3_4_5 >= -2
 andgate_185_operators: -1 t_x6_9 -1 t_x6_15 -1 t_x9_15 +3 t_t6_9_15 <= +0
 andgate_185_add: -1 t_x6_9 -1 t_x6_15 -1 t_x9_15 +1 t_t6_9_15 >= -2
 andgate_328_operators: -1 t_x4_9 -1 t_x4_16 -1 t_x9_16 +3 t_t4_9_16 <= +0
 andgate_328_add: -1 t_x4_9 -1 t_x4_16 -1 t_x9_16 +1 t_t4_9_16 >= -2
 andgate_193_operators: -1 t_x6_16 -1 t_x8_16 -1 t_t0_6_8 +3 t_t6_8_16 <= +0
 andgate_193_add: -1 t_x6_16 -1 t_x8_16 -1 t_t0_6_8 +1 t_t6_8_16 >= -2
 andgate_611_operators: -1 t_x1_15 -1 t_x1_16 -1 t_x15_16 +3 t_t1_15_16 <= +0
 andgate_611_add: -1 t_x1_15 -1 t_x1_16 -1 t_x15_16 +1 t_t1_15_16 >= -2
 andgate_483_operators: -1 t_t0_3_4 -1 t_t0_3_7 -1 t_t0_4_7 +3 t_t3_4_7 <= +0
 andgate_483_add: -1 t_t0_3_4 -1 t_t0_3_7 -1 t_t0_4_7 +1 t_t3_4_7 >= -2
 andgate_46_operators: -1 t_x8_17 -1 t_x8_18 -1 t_x17_18 +3 t_t8_17_18 <= +0
 andgate_46_add: -1 t_x8_17 -1 t_x8_18 -1 t_x17_18 +1 t_t8_17_18 >= -2
 andgate_371_operators: -1 t_x4_15 -1 t_x5_15 -1 t_t0_4_5 +3 t_t4_5_15 <= +0
 andgate_371_add: -1 t_x4_15 -1 t_x5_15 -1 t_t0_4_5 +1 t_t4_5_15 >= -2
 andgate_148_operators: -1 t_x6_16 -1 t_x6_17 -1 t_x16_17 +3 t_t6_16_17 <= +0
 andgate_148_add: -1 t_x6_16 -1 t_x6_17 -1 t_x16_17 +1 t_t6_16_17 >= -2
 andgate_651_operators: -1 t_x1_18 -1 t_x8_18 -1 t_t0_1_8 +3 t_t1_8_18 <= +0
 andgate_651_add: -1 t_x1_18 -1 t_x8_18 -1 t_t0_1_8 +1 t_t1_8_18 >= -2
 andgate_697_operators: -1 t_x1_18 -1 t_x4_18 -1 t_t0_1_4 +3 t_t1_4_18 <= +0
 andgate_697_add: -1 t_x1_18 -1 t_x4_18 -1 t_t0_1_4 +1 t_t1_4_18 >= -2
 andgate_69_operators: -1 t_x8_11 -1 t_x8_16 -1 t_x11_16 +3 t_t8_11_16 <= +0
 andgate_69_add: -1 t_x8_11 -1 t_x8_16 -1 t_x11_16 +1 t_t8_11_16 >= -2
 andgate_136_operators: -1 t_x7_18 -1 t_x8_18 -1 t_t0_7_8 +3 t_t7_8_18 <= +0
 andgate_136_add: -1 t_x7_18 -1 t_x8_18 -1 t_t0_7_8 +1 t_t7_8_18 >= -2
 andgate_323_operators: -1 t_x4_10 -1 t_x4_13 -1 t_x10_13 +3 t_t4_10_13 <= +0
 andgate_323_add: -1 t_x4_10 -1 t_x4_13 -1 t_x10_13 +1 t_t4_10_13 >= -2
 andgate_505_operators: -1 t_x2_12 -1 t_x2_14 -1 t_x12_14 +3 t_t2_12_14 <= +0
 andgate_505_add: -1 t_x2_12 -1 t_x2_14 -1 t_x12_14 +1 t_t2_12_14 >= -2
 andgate_43_operators: -1 t_x9_10 -1 t_x9_13 -1 t_x10_13 +3 t_t9_10_13 <= +0
 andgate_43_add: -1 t_x9_10 -1 t_x9_13 -1 t_x10_13 +1 t_t9_10_13 >= -2
 andgate_761_operators: -1 t_x14_16 -1 t_x14_17 -1 t_x16_17 +3 t_t14_16_17 <= +0
 andgate_761_add: -1 t_x14_16 -1 t_x14_17 -1 t_x16_17 +1 t_t14_16_17 >= -2
 andgate_656_operators: -1 t_x1_13 -1 t_x8_13 -1 t_t0_1_8 +3 t_t1_8_13 <= +0
 andgate_656_add: -1 t_x1_13 -1 t_x8_13 -1 t_t0_1_8 +1 t_t1_8_13 >= -2
 andgate_201_operators: -1 t_x6_18 -1 t_x7_18 -1 t_t0_6_7 +3 t_t6_7_18 <= +0
 andgate_201_add: -1 t_x6_18 -1 t_x7_18 -1 t_t0_6_7 +1 t_t6_7_18 >= -2
 andgate_165_operators: -1 t_x6_12 -1 t_x6_14 -1 t_x12_14 +3 t_t6_12_14 <= +0
 andgate_165_add: -1 t_x6_12 -1 t_x6_14 -1 t_x12_14 +1 t_t6_12_14 >= -2
 andgate_579_operators: -1 t_x2_16 -1 t_x4_16 -1 t_t0_2_4 +3 t_t2_4_16 <= +0
 andgate_579_add: -1 t_x2_16 -1 t_x4_16 -1 t_t0_2_4 +1 t_t2_4_16 >= -2
 andgate_536_operators: -1 t_x2_13 -1 t_x8_13 -1 t_t0_2_8 +3 t_t2_8_13 <= +0
 andgate_536_add: -1 t_x2_13 -1 t_x8_13 -1 t_t0_2_8 +1 t_t2_8_13 >= -2
 andgate_402_operators: -1 t_x3_11 -1 t_x3_18 -1 t_x11_18 +3 t_t3_11_18 <= +0
 andgate_402_add: -1 t_x3_11 -1 t_x3_18 -1 t_x11_18 +1 t_t3_11_18 >= -2
 andgate_426_operators: -1 t_x3_18 -1 t_x8_18 -1 t_t0_3_8 +3 t_t3_8_18 <= +0
 andgate_426_add: -1 t_x3_18 -1 t_x8_18 -1 t_t0_3_8 +1 t_t3_8_18 >= -2
 andgate_261_operators: -1 t_x5_14 -1 t_x8_14 -1 t_t0_5_8 +3 t_t5_8_14 <= +0
 andgate_261_add: -1 t_x5_14 -1 t_x8_14 -1 t_t0_5_8 +1 t_t5_8_14 >= -2
 andgate_290_operators: -1 t_x4_17 -1 t_x4_18 -1 t_x17_18 +3 t_t4_17_18 <= +0
 andgate_290_add: -1 t_x4_17 -1 t_x4_18 -1 t_x17_18 +1 t_t4_17_18 >= -2
 andgate_358_operators: -1 t_x4_16 -1 t_x6_16 -1 t_t0_4_6 +3 t_t4_6_16 <= +0
 andgate_358_add: -1 t_x4_16 -1 t_x6_16 -1 t_t0_4_6 +1 t_t4_6_16 >= -2
 andgate_144_operators: -1 t_x7_10 -1 t_x8_10 -1 t_t0_7_8 +3 t_t7_8_10 <= +0
 andgate_144_add: -1 t_x7_10 -1 t_x8_10 -1 t_t0_7_8 +1 t_t7_8_10 >= -2
 andgate_452_operators: -1 t_x3_13 -1 t_x6_13 -1 t_t0_3_6 +3 t_t3_6_13 <= +0
 andgate_452_add: -1 t_x3_13 -1 t_x6_13 -1 t_t0_3_6 +1 t_t3_6_13 >= -2
 andgate_419_operators: -1 t_x3_9 -1 t_x3_16 -1 t_x9_16 +3 t_t3_9_16 <= +0
 andgate_419_add: -1 t_x3_9 -1 t_x3_16 -1 t_x9_16 +1 t_t3_9_16 >= -2
 andgate_760_operators: -1 t_x14_16 -1 t_x14_18 -1 t_x16_18 +3 t_t14_16_18 <= +0
 andgate_760_add: -1 t_x14_16 -1 t_x14_18 -1 t_x16_18 +1 t_t14_16_18 >= -2
 andgate_757_operators: -1 t_x15_16 -1 t_x15_18 -1 t_x16_18 +3 t_t15_16_18 <= +0
 andgate_757_add: -1 t_x15_16 -1 t_x15_18 -1 t_x16_18 +1 t_t15_16_18 >= -2
 andgate_67_operators: -1 t_x8_11 -1 t_x8_18 -1 t_x11_18 +3 t_t8_11_18 <= +0
 andgate_67_add: -1 t_x8_11 -1 t_x8_18 -1 t_x11_18 +1 t_t8_11_18 >= -2
 andgate_55_operators: -1 t_x8_14 -1 t_x8_15 -1 t_x14_15 +3 t_t8_14_15 <= +0
 andgate_55_add: -1 t_x8_14 -1 t_x8_15 -1 t_x14_15 +1 t_t8_14_15 >= -2
 andgate_174_operators: -1 t_x6_10 -1 t_x6_18 -1 t_x10_18 +3 t_t6_10_18 <= +0
 andgate_174_add: -1 t_x6_10 -1 t_x6_18 -1 t_x10_18 +1 t_t6_10_18 >= -2
 andgate_726_operators: -1 t_x1_18 -1 t_x2_18 -1 t_t0_1_2 +3 t_t1_2_18 <= +0
 andgate_726_add: -1 t_x1_18 -1 t_x2_18 -1 t_t0_1_2 +1 t_t1_2_18 >= -2
 andgate_48_operators: -1 t_x8_16 -1 t_x8_17 -1 t_x16_17 +3 t_t8_16_17 <= +0
 andgate_48_add: -1 t_x8_16 -1 t_x8_17 -1 t_x16_17 +1 t_t8_16_17 >= -2
 andgate_784_operators: -1 t_x12_15 -1 t_x12_16 -1 t_x15_16 +3 t_t12_15_16 <= +0
 andgate_784_add: -1 t_x12_15 -1 t_x12_16 -1 t_x15_16 +1 t_t12_15_16 >= -2
 andgate_601_operators: -1 t_t0_2_3 -1 t_t0_2_8 -1 t_t0_3_8 +3 t_t2_3_8 <= +0
 andgate_601_add: -1 t_t0_2_3 -1 t_t0_2_8 -1 t_t0_3_8 +1 t_t2_3_8 >= -2
 andgate_727_operators: -1 t_x1_17 -1 t_x2_17 -1 t_t0_1_2 +3 t_t1_2_17 <= +0
 andgate_727_add: -1 t_x1_17 -1 t_x2_17 -1 t_t0_1_2 +1 t_t1_2_17 >= -2
 andgate_708_operators: -1 t_t0_1_4 -1 t_t0_1_7 -1 t_t0_4_7 +3 t_t1_4_7 <= +0
 andgate_708_add: -1 t_t0_1_4 -1 t_t0_1_7 -1 t_t0_4_7 +1 t_t1_4_7 >= -2
 andgate_237_operators: -1 t_x5_11 -1 t_x5_14 -1 t_x11_14 +3 t_t5_11_14 <= +0
 andgate_237_add: -1 t_x5_11 -1 t_x5_14 -1 t_x11_14 +1 t_t5_11_14 >= -2
 andgate_511_operators: -1 t_x2_11 -1 t_x2_14 -1 t_x11_14 +3 t_t2_11_14 <= +0
 andgate_511_add: -1 t_x2_11 -1 t_x2_14 -1 t_x11_14 +1 t_t2_11_14 >= -2
 andgate_102_operators: -1 t_x7_13 -1 t_x7_17 -1 t_x13_17 +3 t_t7_13_17 <= +0
 andgate_102_add: -1 t_x7_13 -1 t_x7_17 -1 t_x13_17 +1 t_t7_13_17 >= -2
 andgate_430_operators: -1 t_x3_14 -1 t_x8_14 -1 t_t0_3_8 +3 t_t3_8_14 <= +0
 andgate_430_add: -1 t_x3_14 -1 t_x8_14 -1 t_t0_3_8 +1 t_t3_8_14 >= -2
 andgate_664_operators: -1 t_x1_15 -1 t_x7_15 -1 t_t0_1_7 +3 t_t1_7_15 <= +0
 andgate_664_add: -1 t_x1_15 -1 t_x7_15 -1 t_t0_1_7 +1 t_t1_7_15 >= -2
 andgate_409_operators: -1 t_x3_10 -1 t_x3_18 -1 t_x10_18 +3 t_t3_10_18 <= +0
 andgate_409_add: -1 t_x3_10 -1 t_x3_18 -1 t_x10_18 +1 t_t3_10_18 >= -2
 andgate_558_operators: -1 t_x2_12 -1 t_x6_12 -1 t_t0_2_6 +3 t_t2_6_12 <= +0
 andgate_558_add: -1 t_x2_12 -1 t_x6_12 -1 t_t0_2_6 +1 t_t2_6_12 >= -2
 andgate_114_operators: -1 t_x7_11 -1 t_x7_16 -1 t_x11_16 +3 t_t7_11_16 <= +0
 andgate_114_add: -1 t_x7_11 -1 t_x7_16 -1 t_x11_16 +1 t_t7_11_16 >= -2
 andgate_777_operators: -1 t_x12_17 -1 t_x12_18 -1 t_x17_18 +3 t_t12_17_18 <= +0
 andgate_777_add: -1 t_x12_17 -1 t_x12_18 -1 t_x17_18 +1 t_t12_17_18 >= -2
 andgate_238_operators: -1 t_x5_11 -1 t_x5_13 -1 t_x11_13 +3 t_t5_11_13 <= +0
 andgate_238_add: -1 t_x5_11 -1 t_x5_13 -1 t_x11_13 +1 t_t5_11_13 >= -2
 andgate_266_operators: -1 t_x5_9 -1 t_x8_9 -1 t_t0_5_8 +3 t_t5_8_9 <= +0
 andgate_266_add: -1 t_x5_9 -1 t_x8_9 -1 t_t0_5_8 +1 t_t5_8_9 >= -2
 andgate_88_operators: -1 t_x8_9 -1 t_x8_12 -1 t_x9_12 +3 t_t8_9_12 <= +0
 andgate_88_add: -1 t_x8_9 -1 t_x8_12 -1 t_x9_12 +1 t_t8_9_12 >= -2
 andgate_785_operators: -1 t_x12_14 -1 t_x12_18 -1 t_x14_18 +3 t_t12_14_18 <= +0
 andgate_785_add: -1 t_x12_14 -1 t_x12_18 -1 t_x14_18 +1 t_t12_14_18 >= -2
 andgate_605_operators: -1 t_t0_2_3 -1 t_t0_2_4 -1 t_t0_3_4 +3 t_t2_3_4 <= +0
 andgate_605_add: -1 t_t0_2_3 -1 t_t0_2_4 -1 t_t0_3_4 +1 t_t2_3_4 >= -2
 andgate_722_operators: -1 t_t0_1_3 -1 t_t0_1_7 -1 t_t0_3_7 +3 t_t1_3_7 <= +0
 andgate_722_add: -1 t_t0_1_3 -1 t_t0_1_7 -1 t_t0_3_7 +1 t_t1_3_7 >= -2
 andgate_53_operators: -1 t_x8_14 -1 t_x8_17 -1 t_x14_17 +3 t_t8_14_17 <= +0
 andgate_53_add: -1 t_x8_14 -1 t_x8_17 -1 t_x14_17 +1 t_t8_14_17 >= -2
 andgate_373_operators: -1 t_x4_13 -1 t_x5_13 -1 t_t0_4_5 +3 t_t4_5_13 <= +0
 andgate_373_add: -1 t_x4_13 -1 t_x5_13 -1 t_t0_4_5 +1 t_t4_5_13 >= -2
 andgate_455_operators: -1 t_x3_10 -1 t_x6_10 -1 t_t0_3_6 +3 t_t3_6_10 <= +0
 andgate_455_add: -1 t_x3_10 -1 t_x6_10 -1 t_t0_3_6 +1 t_t3_6_10 >= -2
 andgate_593_operators: -1 t_x2_16 -1 t_x3_16 -1 t_t0_2_3 +3 t_t2_3_16 <= +0
 andgate_593_add: -1 t_x2_16 -1 t_x3_16 -1 t_t0_2_3 +1 t_t2_3_16 >= -2
 andgate_712_operators: -1 t_x1_17 -1 t_x3_17 -1 t_t0_1_3 +3 t_t1_3_17 <= +0
 andgate_712_add: -1 t_x1_17 -1 t_x3_17 -1 t_t0_1_3 +1 t_t1_3_17 >= -2
 andgate_668_operators: -1 t_x1_11 -1 t_x7_11 -1 t_t0_1_7 +3 t_t1_7_11 <= +0
 andgate_668_add: -1 t_x1_11 -1 t_x7_11 -1 t_t0_1_7 +1 t_t1_7_11 >= -2
 andgate_450_operators: -1 t_x3_15 -1 t_x6_15 -1 t_t0_3_6 +3 t_t3_6_15 <= +0
 andgate_450_add: -1 t_x3_15 -1 t_x6_15 -1 t_t0_3_6 +1 t_t3_6_15 >= -2
 andgate_105_operators: -1 t_x7_13 -1 t_x7_14 -1 t_x13_14 +3 t_t7_13_14 <= +0
 andgate_105_add: -1 t_x7_13 -1 t_x7_14 -1 t_x13_14 +1 t_t7_13_14 >= -2
 andgate_663_operators: -1 t_x1_16 -1 t_x7_16 -1 t_t0_1_7 +3 t_t1_7_16 <= +0
 andgate_663_add: -1 t_x1_16 -1 t_x7_16 -1 t_t0_1_7 +1 t_t1_7_16 >= -2
 andgate_314_operators: -1 t_x4_11 -1 t_x4_15 -1 t_x11_15 +3 t_t4_11_15 <= +0
 andgate_314_add: -1 t_x4_11 -1 t_x4_15 -1 t_x11_15 +1 t_t4_11_15 >= -2
 andgate_190_operators: -1 t_x6_9 -1 t_x6_10 -1 t_x9_10 +3 t_t6_9_10 <= +0
 andgate_190_add: -1 t_x6_9 -1 t_x6_10 -1 t_x9_10 +1 t_t6_9_10 >= -2
 andgate_305_operators: -1 t_x4_12 -1 t_x4_18 -1 t_x12_18 +3 t_t4_12_18 <= +0
 andgate_305_add: -1 t_x4_12 -1 t_x4_18 -1 t_x12_18 +1 t_t4_12_18 >= -2
 andgate_425_operators: -1 t_x3_9 -1 t_x3_10 -1 t_x9_10 +3 t_t3_9_10 <= +0
 andgate_425_add: -1 t_x3_9 -1 t_x3_10 -1 t_x9_10 +1 t_t3_9_10 >= -2
 andgate_350_operators: -1 t_x4_13 -1 t_x7_13 -1 t_t0_4_7 +3 t_t4_7_13 <= +0
 andgate_350_add: -1 t_x4_13 -1 t_x7_13 -1 t_t0_4_7 +1 t_t4_7_13 >= -2
 andgate_246_operators: -1 t_x5_10 -1 t_x5_12 -1 t_x10_12 +3 t_t5_10_12 <= +0
 andgate_246_add: -1 t_x5_10 -1 t_x5_12 -1 t_x10_12 +1 t_t5_10_12 >= -2
 andgate_758_operators: -1 t_x15_16 -1 t_x15_17 -1 t_x16_17 +3 t_t15_16_17 <= +0
 andgate_758_add: -1 t_x15_16 -1 t_x15_17 -1 t_x16_17 +1 t_t15_16_17 >= -2
 andgate_529_operators: -1 t_x2_9 -1 t_x2_11 -1 t_x9_11 +3 t_t2_9_11 <= +0
 andgate_529_add: -1 t_x2_9 -1 t_x2_11 -1 t_x9_11 +1 t_t2_9_11 >= -2
 andgate_142_operators: -1 t_x7_12 -1 t_x8_12 -1 t_t0_7_8 +3 t_t7_8_12 <= +0
 andgate_142_add: -1 t_x7_12 -1 t_x8_12 -1 t_t0_7_8 +1 t_t7_8_12 >= -2
 andgate_236_operators: -1 t_x5_11 -1 t_x5_15 -1 t_x11_15 +3 t_t5_11_15 <= +0
 andgate_236_add: -1 t_x5_11 -1 t_x5_15 -1 t_x11_15 +1 t_t5_11_15 >= -2
 andgate_621_operators: -1 t_x1_12 -1 t_x1_18 -1 t_x12_18 +3 t_t1_12_18 <= +0
 andgate_621_add: -1 t_x1_12 -1 t_x1_18 -1 t_x12_18 +1 t_t1_12_18 >= -2
 andgate_222_operators: -1 t_x5_13 -1 t_x5_18 -1 t_x13_18 +3 t_t5_13_18 <= +0
 andgate_222_add: -1 t_x5_13 -1 t_x5_18 -1 t_x13_18 +1 t_t5_13_18 >= -2
 andgate_475_operators: -1 t_x3_15 -1 t_x4_15 -1 t_t0_3_4 +3 t_t3_4_15 <= +0
 andgate_475_add: -1 t_x3_15 -1 t_x4_15 -1 t_t0_3_4 +1 t_t3_4_15 >= -2
 andgate_291_operators: -1 t_x4_16 -1 t_x4_18 -1 t_x16_18 +3 t_t4_16_18 <= +0
 andgate_291_add: -1 t_x4_16 -1 t_x4_18 -1 t_x16_18 +1 t_t4_16_18 >= -2
 andgate_666_operators: -1 t_x1_13 -1 t_x7_13 -1 t_t0_1_7 +3 t_t1_7_13 <= +0
 andgate_666_add: -1 t_x1_13 -1 t_x7_13 -1 t_t0_1_7 +1 t_t1_7_13 >= -2
 andgate_180_operators: -1 t_x6_10 -1 t_x6_12 -1 t_x10_12 +3 t_t6_10_12 <= +0
 andgate_180_add: -1 t_x6_10 -1 t_x6_12 -1 t_x10_12 +1 t_t6_10_12 >= -2
 andgate_767_operators: -1 t_x13_17 -1 t_x13_18 -1 t_x17_18 +3 t_t13_17_18 <= +0
 andgate_767_add: -1 t_x13_17 -1 t_x13_18 -1 t_x17_18 +1 t_t13_17_18 >= -2
 andgate_85_operators: -1 t_x8_9 -1 t_x8_15 -1 t_x9_15 +3 t_t8_9_15 <= +0
 andgate_85_add: -1 t_x8_9 -1 t_x8_15 -1 t_x9_15 +1 t_t8_9_15 >= -2
 andgate_467_operators: -1 t_x3_10 -1 t_x5_10 -1 t_t0_3_5 +3 t_t3_5_10 <= +0
 andgate_467_add: -1 t_x3_10 -1 t_x5_10 -1 t_t0_3_5 +1 t_t3_5_10 >= -2
 andgate_262_operators: -1 t_x5_13 -1 t_x8_13 -1 t_t0_5_8 +3 t_t5_8_13 <= +0
 andgate_262_add: -1 t_x5_13 -1 t_x8_13 -1 t_t0_5_8 +1 t_t5_8_13 >= -2
 andgate_315_operators: -1 t_x4_11 -1 t_x4_14 -1 t_x11_14 +3 t_t4_11_14 <= +0
 andgate_315_add: -1 t_x4_11 -1 t_x4_14 -1 t_x11_14 +1 t_t4_11_14 >= -2
 andgate_302_operators: -1 t_x4_13 -1 t_x4_16 -1 t_x13_16 +3 t_t4_13_16 <= +0
 andgate_302_add: -1 t_x4_13 -1 t_x4_16 -1 t_x13_16 +1 t_t4_13_16 >= -2
 andgate_421_operators: -1 t_x3_9 -1 t_x3_14 -1 t_x9_14 +3 t_t3_9_14 <= +0
 andgate_421_add: -1 t_x3_9 -1 t_x3_14 -1 t_x9_14 +1 t_t3_9_14 >= -2
 andgate_206_operators: -1 t_x6_13 -1 t_x7_13 -1 t_t0_6_7 +3 t_t6_7_13 <= +0
 andgate_206_add: -1 t_x6_13 -1 t_x7_13 -1 t_t0_6_7 +1 t_t6_7_13 >= -2
 andgate_802_operators: -1 t_x11_15 -1 t_x11_16 -1 t_x15_16 +3 t_t11_15_16 <= +0
 andgate_802_add: -1 t_x11_15 -1 t_x11_16 -1 t_x15_16 +1 t_t11_15_16 >= -2
 andgate_641_operators: -1 t_x1_10 -1 t_x1_11 -1 t_x10_11 +3 t_t1_10_11 <= +0
 andgate_641_add: -1 t_x1_10 -1 t_x1_11 -1 t_x10_11 +1 t_t1_10_11 >= -2
 andgate_437_operators: -1 t_x3_17 -1 t_x7_17 -1 t_t0_3_7 +3 t_t3_7_17 <= +0
 andgate_437_add: -1 t_x3_17 -1 t_x7_17 -1 t_t0_3_7 +1 t_t3_7_17 >= -2
 andgate_435_operators: -1 t_x3_9 -1 t_x8_9 -1 t_t0_3_8 +3 t_t3_8_9 <= +0
 andgate_435_add: -1 t_x3_9 -1 t_x8_9 -1 t_t0_3_8 +1 t_t3_8_9 >= -2
 andgate_803_operators: -1 t_x11_14 -1 t_x11_18 -1 t_x14_18 +3 t_t11_14_18 <= +0
 andgate_803_add: -1 t_x11_14 -1 t_x11_18 -1 t_x14_18 +1 t_t11_14_18 >= -2
 andgate_634_operators: -1 t_x1_10 -1 t_x1_18 -1 t_x10_18 +3 t_t1_10_18 <= +0
 andgate_634_add: -1 t_x1_10 -1 t_x1_18 -1 t_x10_18 +1 t_t1_10_18 >= -2
 andgate_655_operators: -1 t_x1_14 -1 t_x8_14 -1 t_t0_1_8 +3 t_t1_8_14 <= +0
 andgate_655_add: -1 t_x1_14 -1 t_x8_14 -1 t_t0_1_8 +1 t_t1_8_14 >= -2
 andgate_736_operators: -1 t_t0_1_2 -1 t_t0_1_8 -1 t_t0_2_8 +3 t_t1_2_8 <= +0
 andgate_736_add: -1 t_t0_1_2 -1 t_t0_1_8 -1 t_t0_2_8 +1 t_t1_2_8 >= -2
 andgate_196_operators: -1 t_x6_13 -1 t_x8_13 -1 t_t0_6_8 +3 t_t6_8_13 <= +0
 andgate_196_add: -1 t_x6_13 -1 t_x8_13 -1 t_t0_6_8 +1 t_t6_8_13 >= -2
 andgate_304_operators: -1 t_x4_13 -1 t_x4_14 -1 t_x13_14 +3 t_t4_13_14 <= +0
 andgate_304_add: -1 t_x4_13 -1 t_x4_14 -1 t_x13_14 +1 t_t4_13_14 >= -2
 andgate_138_operators: -1 t_x7_16 -1 t_x8_16 -1 t_t0_7_8 +3 t_t7_8_16 <= +0
 andgate_138_add: -1 t_x7_16 -1 t_x8_16 -1 t_t0_7_8 +1 t_t7_8_16 >= -2
 andgate_227_operators: -1 t_x5_12 -1 t_x5_18 -1 t_x12_18 +3 t_t5_12_18 <= +0
 andgate_227_add: -1 t_x5_12 -1 t_x5_18 -1 t_x12_18 +1 t_t5_12_18 >= -2
 andgate_728_operators: -1 t_x1_16 -1 t_x2_16 -1 t_t0_1_2 +3 t_t1_2_16 <= +0
 andgate_728_add: -1 t_x1_16 -1 t_x2_16 -1 t_t0_1_2 +1 t_t1_2_16 >= -2
 andgate_121_operators: -1 t_x7_10 -1 t_x7_16 -1 t_x10_16 +3 t_t7_10_16 <= +0
 andgate_121_add: -1 t_x7_10 -1 t_x7_16 -1 t_x10_16 +1 t_t7_10_16 >= -2
 andgate_492_operators: -1 t_x2_14 -1 t_x2_18 -1 t_x14_18 +3 t_t2_14_18 <= +0
 andgate_492_add: -1 t_x2_14 -1 t_x2_18 -1 t_x14_18 +1 t_t2_14_18 >= -2
 andgate_768_operators: -1 t_x13_16 -1 t_x13_18 -1 t_x16_18 +3 t_t13_16_18 <= +0
 andgate_768_add: -1 t_x13_16 -1 t_x13_18 -1 t_x16_18 +1 t_t13_16_18 >= -2
 andgate_250_operators: -1 t_x5_9 -1 t_x5_16 -1 t_x9_16 +3 t_t5_9_16 <= +0
 andgate_250_add: -1 t_x5_9 -1 t_x5_16 -1 t_x9_16 +1 t_t5_9_16 >= -2
 andgate_461_operators: -1 t_x3_16 -1 t_x5_16 -1 t_t0_3_5 +3 t_t3_5_16 <= +0
 andgate_461_add: -1 t_x3_16 -1 t_x5_16 -1 t_t0_3_5 +1 t_t3_5_16 >= -2
 andgate_285_operators: -1 t_x5_11 -1 t_x6_11 -1 t_t0_5_6 +3 t_t5_6_11 <= +0
 andgate_285_add: -1 t_x5_11 -1 t_x6_11 -1 t_t0_5_6 +1 t_t5_6_11 >= -2
 andgate_331_operators: -1 t_x4_9 -1 t_x4_13 -1 t_x9_13 +3 t_t4_9_13 <= +0
 andgate_331_add: -1 t_x4_9 -1 t_x4_13 -1 t_x9_13 +1 t_t4_9_13 >= -2
 andgate_729_operators: -1 t_x1_15 -1 t_x2_15 -1 t_t0_1_2 +3 t_t1_2_15 <= +0
 andgate_729_add: -1 t_x1_15 -1 t_x2_15 -1 t_t0_1_2 +1 t_t1_2_15 >= -2
 andgate_386_operators: -1 t_x3_15 -1 t_x3_16 -1 t_x15_16 +3 t_t3_15_16 <= +0
 andgate_386_add: -1 t_x3_15 -1 t_x3_16 -1 t_x15_16 +1 t_t3_15_16 >= -2
 andgate_170_operators: -1 t_x6_11 -1 t_x6_15 -1 t_x11_15 +3 t_t6_11_15 <= +0
 andgate_170_add: -1 t_x6_11 -1 t_x6_15 -1 t_x11_15 +1 t_t6_11_15 >= -2
 andgate_199_operators: -1 t_x6_10 -1 t_x8_10 -1 t_t0_6_8 +3 t_t6_8_10 <= +0
 andgate_199_add: -1 t_x6_10 -1 t_x8_10 -1 t_t0_6_8 +1 t_t6_8_10 >= -2
 andgate_613_operators: -1 t_x1_14 -1 t_x1_17 -1 t_x14_17 +3 t_t1_14_17 <= +0
 andgate_613_add: -1 t_x1_14 -1 t_x1_17 -1 t_x14_17 +1 t_t1_14_17 >= -2
 andgate_516_operators: -1 t_x2_10 -1 t_x2_16 -1 t_x10_16 +3 t_t2_10_16 <= +0
 andgate_516_add: -1 t_x2_10 -1 t_x2_16 -1 t_x10_16 +1 t_t2_10_16 >= -2
 andgate_556_operators: -1 t_x2_14 -1 t_x6_14 -1 t_t0_2_6 +3 t_t2_6_14 <= +0
 andgate_556_add: -1 t_x2_14 -1 t_x6_14 -1 t_t0_2_6 +1 t_t2_6_14 >= -2
 andgate_52_operators: -1 t_x8_14 -1 t_x8_18 -1 t_x14_18 +3 t_t8_14_18 <= +0
 andgate_52_add: -1 t_x8_14 -1 t_x8_18 -1 t_x14_18 +1 t_t8_14_18 >= -2
 andgate_259_operators: -1 t_x5_16 -1 t_x8_16 -1 t_t0_5_8 +3 t_t5_8_16 <= +0
 andgate_259_add: -1 t_x5_16 -1 t_x8_16 -1 t_t0_5_8 +1 t_t5_8_16 >= -2
 andgate_405_operators: -1 t_x3_11 -1 t_x3_15 -1 t_x11_15 +3 t_t3_11_15 <= +0
 andgate_405_add: -1 t_x3_11 -1 t_x3_15 -1 t_x11_15 +1 t_t3_11_15 >= -2
 andgate_310_operators: -1 t_x4_12 -1 t_x4_13 -1 t_x12_13 +3 t_t4_12_13 <= +0
 andgate_310_add: -1 t_x4_12 -1 t_x4_13 -1 t_x12_13 +1 t_t4_12_13 >= -2
 andgate_595_operators: -1 t_x2_14 -1 t_x3_14 -1 t_t0_2_3 +3 t_t2_3_14 <= +0
 andgate_595_add: -1 t_x2_14 -1 t_x3_14 -1 t_t0_2_3 +1 t_t2_3_14 >= -2
 andgate_347_operators: -1 t_x4_16 -1 t_x7_16 -1 t_t0_4_7 +3 t_t4_7_16 <= +0
 andgate_347_add: -1 t_x4_16 -1 t_x7_16 -1 t_t0_4_7 +1 t_t4_7_16 >= -2
 andgate_263_operators: -1 t_x5_12 -1 t_x8_12 -1 t_t0_5_8 +3 t_t5_8_12 <= +0
 andgate_263_add: -1 t_x5_12 -1 t_x8_12 -1 t_t0_5_8 +1 t_t5_8_12 >= -2
 andgate_525_operators: -1 t_x2_9 -1 t_x2_15 -1 t_x9_15 +3 t_t2_9_15 <= +0
 andgate_525_add: -1 t_x2_9 -1 t_x2_15 -1 t_x9_15 +1 t_t2_9_15 >= -2
 andgate_163_operators: -1 t_x6_12 -1 t_x6_16 -1 t_x12_16 +3 t_t6_12_16 <= +0
 andgate_163_add: -1 t_x6_12 -1 t_x6_16 -1 t_x12_16 +1 t_t6_12_16 >= -2
 andgate_137_operators: -1 t_x7_17 -1 t_x8_17 -1 t_t0_7_8 +3 t_t7_8_17 <= +0
 andgate_137_add: -1 t_x7_17 -1 t_x8_17 -1 t_t0_7_8 +1 t_t7_8_17 >= -2
 andgate_730_operators: -1 t_x1_14 -1 t_x2_14 -1 t_t0_1_2 +3 t_t1_2_14 <= +0
 andgate_730_add: -1 t_x1_14 -1 t_x2_14 -1 t_t0_1_2 +1 t_t1_2_14 >= -2
 andgate_740_operators: -1 t_t0_1_2 -1 t_t0_1_4 -1 t_t0_2_4 +3 t_t1_2_4 <= +0
 andgate_740_add: -1 t_t0_1_2 -1 t_t0_1_4 -1 t_t0_2_4 +1 t_t1_2_4 >= -2
 andgate_486_operators: -1 t_x2_17 -1 t_x2_18 -1 t_x17_18 +3 t_t2_17_18 <= +0
 andgate_486_add: -1 t_x2_17 -1 t_x2_18 -1 t_x17_18 +1 t_t2_17_18 >= -2
 andgate_207_operators: -1 t_x6_12 -1 t_x7_12 -1 t_t0_6_7 +3 t_t6_7_12 <= +0
 andgate_207_add: -1 t_x6_12 -1 t_x7_12 -1 t_t0_6_7 +1 t_t6_7_12 >= -2
 andgate_161_operators: -1 t_x6_12 -1 t_x6_18 -1 t_x12_18 +3 t_t6_12_18 <= +0
 andgate_161_add: -1 t_x6_12 -1 t_x6_18 -1 t_x12_18 +1 t_t6_12_18 >= -2
 andgate_173_operators: -1 t_x6_11 -1 t_x6_12 -1 t_x11_12 +3 t_t6_11_12 <= +0
 andgate_173_add: -1 t_x6_11 -1 t_x6_12 -1 t_x11_12 +1 t_t6_11_12 >= -2
 andgate_239_operators: -1 t_x5_11 -1 t_x5_12 -1 t_x11_12 +3 t_t5_11_12 <= +0
 andgate_239_add: -1 t_x5_11 -1 t_x5_12 -1 t_x11_12 +1 t_t5_11_12 >= -2
 andgate_96_operators: -1 t_x7_15 -1 t_x7_16 -1 t_x15_16 +3 t_t7_15_16 <= +0
 andgate_96_add: -1 t_x7_15 -1 t_x7_16 -1 t_x15_16 +1 t_t7_15_16 >= -2
 andgate_166_operators: -1 t_x6_12 -1 t_x6_13 -1 t_x12_13 +3 t_t6_12_13 <= +0
 andgate_166_add: -1 t_x6_12 -1 t_x6_13 -1 t_x12_13 +1 t_t6_12_13 >= -2
 andgate_498_operators: -1 t_x2_13 -1 t_x2_16 -1 t_x13_16 +3 t_t2_13_16 <= +0
 andgate_498_add: -1 t_x2_13 -1 t_x2_16 -1 t_x13_16 +1 t_t2_13_16 >= -2
 andgate_596_operators: -1 t_x2_13 -1 t_x3_13 -1 t_t0_2_3 +3 t_t2_3_13 <= +0
 andgate_596_add: -1 t_x2_13 -1 t_x3_13 -1 t_t0_2_3 +1 t_t2_3_13 >= -2
 andgate_531_operators: -1 t_x2_18 -1 t_x8_18 -1 t_t0_2_8 +3 t_t2_8_18 <= +0
 andgate_531_add: -1 t_x2_18 -1 t_x8_18 -1 t_t0_2_8 +1 t_t2_8_18 >= -2
 andgate_390_operators: -1 t_x3_14 -1 t_x3_15 -1 t_x14_15 +3 t_t3_14_15 <= +0
 andgate_390_add: -1 t_x3_14 -1 t_x3_15 -1 t_x14_15 +1 t_t3_14_15 >= -2
 andgate_763_operators: -1 t_x14_15 -1 t_x14_17 -1 t_x15_17 +3 t_t14_15_17 <= +0
 andgate_763_add: -1 t_x14_15 -1 t_x14_17 -1 t_x15_17 +1 t_t14_15_17 >= -2
 andgate_741_operators: -1 t_t0_1_2 -1 t_t0_1_3 -1 t_t0_2_3 +3 t_t1_2_3 <= +0
 andgate_741_add: -1 t_t0_1_2 -1 t_t0_1_3 -1 t_t0_2_3 +1 t_t1_2_3 >= -2
 andgate_224_operators: -1 t_x5_13 -1 t_x5_16 -1 t_x13_16 +3 t_t5_13_16 <= +0
 andgate_224_add: -1 t_x5_13 -1 t_x5_16 -1 t_x13_16 +1 t_t5_13_16 >= -2
 andgate_465_operators: -1 t_x3_12 -1 t_x5_12 -1 t_t0_3_5 +3 t_t3_5_12 <= +0
 andgate_465_add: -1 t_x3_12 -1 t_x5_12 -1 t_t0_3_5 +1 t_t3_5_12 >= -2
 andgate_30_operators: -1 t_x9_12 -1 t_x9_13 -1 t_x12_13 +3 t_t9_12_13 <= +0
 andgate_30_add: -1 t_x9_12 -1 t_x9_13 -1 t_x12_13 +1 t_t9_12_13 >= -2
 andgate_670_operators: -1 t_x1_9 -1 t_x7_9 -1 t_t0_1_7 +3 t_t1_7_9 <= +0
 andgate_670_add: -1 t_x1_9 -1 t_x7_9 -1 t_t0_1_7 +1 t_t1_7_9 >= -2
 andgate_464_operators: -1 t_x3_13 -1 t_x5_13 -1 t_t0_3_5 +3 t_t3_5_13 <= +0
 andgate_464_add: -1 t_x3_13 -1 t_x5_13 -1 t_t0_3_5 +1 t_t3_5_13 >= -2
 andgate_506_operators: -1 t_x2_12 -1 t_x2_13 -1 t_x12_13 +3 t_t2_12_13 <= +0
 andgate_506_add: -1 t_x2_12 -1 t_x2_13 -1 t_x12_13 +1 t_t2_12_13 >= -2
 andgate_673_operators: -1 t_x1_17 -1 t_x6_17 -1 t_t0_1_6 +3 t_t1_6_17 <= +0
 andgate_673_add: -1 t_x1_17 -1 t_x6_17 -1 t_t0_1_6 +1 t_t1_6_17 >= -2
 andgate_519_operators: -1 t_x2_10 -1 t_x2_13 -1 t_x10_13 +3 t_t2_10_13 <= +0
 andgate_519_add: -1 t_x2_10 -1 t_x2_13 -1 t_x10_13 +1 t_t2_10_13 >= -2
 andgate_695_operators: -1 t_t0_1_5 -1 t_t0_1_7 -1 t_t0_5_7 +3 t_t1_5_7 <= +0
 andgate_695_add: -1 t_t0_1_5 -1 t_t0_1_7 -1 t_t0_5_7 +1 t_t1_5_7 >= -2
 andgate_762_operators: -1 t_x14_15 -1 t_x14_18 -1 t_x15_18 +3 t_t14_15_18 <= +0
 andgate_762_add: -1 t_x14_15 -1 t_x14_18 -1 t_x15_18 +1 t_t14_15_18 >= -2
 andgate_340_operators: -1 t_x4_13 -1 t_x8_13 -1 t_t0_4_8 +3 t_t4_8_13 <= +0
 andgate_340_add: -1 t_x4_13 -1 t_x8_13 -1 t_t0_4_8 +1 t_t4_8_13 >= -2
 andgate_693_operators: -1 t_x1_9 -1 t_x5_9 -1 t_t0_1_5 +3 t_t1_5_9 <= +0
 andgate_693_add: -1 t_x1_9 -1 t_x5_9 -1 t_t0_1_5 +1 t_t1_5_9 >= -2
 andgate_233_operators: -1 t_x5_11 -1 t_x5_18 -1 t_x11_18 +3 t_t5_11_18 <= +0
 andgate_233_add: -1 t_x5_11 -1 t_x5_18 -1 t_x11_18 +1 t_t5_11_18 >= -2
 andgate_534_operators: -1 t_x2_15 -1 t_x8_15 -1 t_t0_2_8 +3 t_t2_8_15 <= +0
 andgate_534_add: -1 t_x2_15 -1 t_x8_15 -1 t_t0_2_8 +1 t_t2_8_15 >= -2
 andgate_226_operators: -1 t_x5_13 -1 t_x5_14 -1 t_x13_14 +3 t_t5_13_14 <= +0
 andgate_226_add: -1 t_x5_13 -1 t_x5_14 -1 t_x13_14 +1 t_t5_13_14 >= -2
 andgate_252_operators: -1 t_x5_9 -1 t_x5_14 -1 t_x9_14 +3 t_t5_9_14 <= +0
 andgate_252_add: -1 t_x5_9 -1 t_x5_14 -1 t_x9_14 +1 t_t5_9_14 >= -2
 andgate_454_operators: -1 t_x3_11 -1 t_x6_11 -1 t_t0_3_6 +3 t_t3_6_11 <= +0
 andgate_454_add: -1 t_x3_11 -1 t_x6_11 -1 t_t0_3_6 +1 t_t3_6_11 >= -2
 andgate_404_operators: -1 t_x3_11 -1 t_x3_16 -1 t_x11_16 +3 t_t3_11_16 <= +0
 andgate_404_add: -1 t_x3_11 -1 t_x3_16 -1 t_x11_16 +1 t_t3_11_16 >= -2
 andgate_407_operators: -1 t_x3_11 -1 t_x3_13 -1 t_x11_13 +3 t_t3_11_13 <= +0
 andgate_407_add: -1 t_x3_11 -1 t_x3_13 -1 t_x11_13 +1 t_t3_11_13 >= -2
 andgate_416_operators: -1 t_x3_10 -1 t_x3_11 -1 t_x10_11 +3 t_t3_10_11 <= +0
 andgate_416_add: -1 t_x3_10 -1 t_x3_11 -1 t_x10_11 +1 t_t3_10_11 >= -2
 andgate_433_operators: -1 t_x3_11 -1 t_x8_11 -1 t_t0_3_8 +3 t_t3_8_11 <= +0
 andgate_433_add: -1 t_x3_11 -1 t_x8_11 -1 t_t0_3_8 +1 t_t3_8_11 >= -2
 andgate_732_operators: -1 t_x1_12 -1 t_x2_12 -1 t_t0_1_2 +3 t_t1_2_12 <= +0
 andgate_732_add: -1 t_x1_12 -1 t_x2_12 -1 t_t0_1_2 +1 t_t1_2_12 >= -2
 andgate_372_operators: -1 t_x4_14 -1 t_x5_14 -1 t_t0_4_5 +3 t_t4_5_14 <= +0
 andgate_372_add: -1 t_x4_14 -1 t_x5_14 -1 t_t0_4_5 +1 t_t4_5_14 >= -2
 andgate_652_operators: -1 t_x1_17 -1 t_x8_17 -1 t_t0_1_8 +3 t_t1_8_17 <= +0
 andgate_652_add: -1 t_x1_17 -1 t_x8_17 -1 t_t0_1_8 +1 t_t1_8_17 >= -2
 andgate_775_operators: -1 t_x13_14 -1 t_x13_16 -1 t_x14_16 +3 t_t13_14_16 <= +0
 andgate_775_add: -1 t_x13_14 -1 t_x13_16 -1 t_x14_16 +1 t_t13_14_16 >= -2
 andgate_610_operators: -1 t_x1_15 -1 t_x1_17 -1 t_x15_17 +3 t_t1_15_17 <= +0
 andgate_610_add: -1 t_x1_15 -1 t_x1_17 -1 t_x15_17 +1 t_t1_15_17 >= -2
 andgate_231_operators: -1 t_x5_12 -1 t_x5_14 -1 t_x12_14 +3 t_t5_12_14 <= +0
 andgate_231_add: -1 t_x5_12 -1 t_x5_14 -1 t_x12_14 +1 t_t5_12_14 >= -2
 andgate_36_operators: -1 t_x9_11 -1 t_x9_13 -1 t_x11_13 +3 t_t9_11_13 <= +0
 andgate_36_add: -1 t_x9_11 -1 t_x9_13 -1 t_x11_13 +1 t_t9_11_13 >= -2
 andgate_797_operators: -1 t_x11_17 -1 t_x11_18 -1 t_x17_18 +3 t_t11_17_18 <= +0
 andgate_797_add: -1 t_x11_17 -1 t_x11_18 -1 t_x17_18 +1 t_t11_17_18 >= -2
 andgate_460_operators: -1 t_x3_17 -1 t_x5_17 -1 t_t0_3_5 +3 t_t3_5_17 <= +0
 andgate_460_add: -1 t_x3_17 -1 t_x5_17 -1 t_t0_3_5 +1 t_t3_5_17 >= -2
 andgate_202_operators: -1 t_x6_17 -1 t_x7_17 -1 t_t0_6_7 +3 t_t6_7_17 <= +0
 andgate_202_add: -1 t_x6_17 -1 t_x7_17 -1 t_t0_6_7 +1 t_t6_7_17 >= -2
 andgate_119_operators: -1 t_x7_10 -1 t_x7_18 -1 t_x10_18 +3 t_t7_10_18 <= +0
 andgate_119_add: -1 t_x7_10 -1 t_x7_18 -1 t_x10_18 +1 t_t7_10_18 >= -2
 andgate_589_operators: -1 t_t0_2_4 -1 t_t0_2_6 -1 t_t0_4_6 +3 t_t2_4_6 <= +0
 andgate_589_add: -1 t_t0_2_4 -1 t_t0_2_6 -1 t_t0_4_6 +1 t_t2_4_6 >= -2
 andgate_126_operators: -1 t_x7_10 -1 t_x7_11 -1 t_x10_11 +3 t_t7_10_11 <= +0
 andgate_126_add: -1 t_x7_10 -1 t_x7_11 -1 t_x10_11 +1 t_t7_10_11 >= -2
 andgate_110_operators: -1 t_x7_12 -1 t_x7_14 -1 t_x12_14 +3 t_t7_12_14 <= +0
 andgate_110_add: -1 t_x7_12 -1 t_x7_14 -1 t_x12_14 +1 t_t7_12_14 >= -2
 andgate_118_operators: -1 t_x7_11 -1 t_x7_12 -1 t_x11_12 +3 t_t7_11_12 <= +0
 andgate_118_add: -1 t_x7_11 -1 t_x7_12 -1 t_x11_12 +1 t_t7_11_12 >= -2
 andgate_614_operators: -1 t_x1_14 -1 t_x1_16 -1 t_x14_16 +3 t_t1_14_16 <= +0
 andgate_614_add: -1 t_x1_14 -1 t_x1_16 -1 t_x14_16 +1 t_t1_14_16 >= -2
 andgate_352_operators: -1 t_x4_11 -1 t_x7_11 -1 t_t0_4_7 +3 t_t4_7_11 <= +0
 andgate_352_add: -1 t_x4_11 -1 t_x7_11 -1 t_t0_4_7 +1 t_t4_7_11 >= -2
 andgate_116_operators: -1 t_x7_11 -1 t_x7_14 -1 t_x11_14 +3 t_t7_11_14 <= +0
 andgate_116_add: -1 t_x7_11 -1 t_x7_14 -1 t_x11_14 +1 t_t7_11_14 >= -2
 andgate_112_operators: -1 t_x7_11 -1 t_x7_18 -1 t_x11_18 +3 t_t7_11_18 <= +0
 andgate_112_add: -1 t_x7_11 -1 t_x7_18 -1 t_x11_18 +1 t_t7_11_18 >= -2
 andgate_361_operators: -1 t_x4_13 -1 t_x6_13 -1 t_t0_4_6 +3 t_t4_6_13 <= +0
 andgate_361_add: -1 t_x4_13 -1 t_x6_13 -1 t_t0_4_6 +1 t_t4_6_13 >= -2
 andgate_316_operators: -1 t_x4_11 -1 t_x4_13 -1 t_x11_13 +3 t_t4_11_13 <= +0
 andgate_316_add: -1 t_x4_11 -1 t_x4_13 -1 t_x11_13 +1 t_t4_11_13 >= -2
 andgate_254_operators: -1 t_x5_9 -1 t_x5_12 -1 t_x9_12 +3 t_t5_9_12 <= +0
 andgate_254_add: -1 t_x5_9 -1 t_x5_12 -1 t_x9_12 +1 t_t5_9_12 >= -2
 andgate_106_operators: -1 t_x7_12 -1 t_x7_18 -1 t_x12_18 +3 t_t7_12_18 <= +0
 andgate_106_add: -1 t_x7_12 -1 t_x7_18 -1 t_x12_18 +1 t_t7_12_18 >= -2
 andgate_125_operators: -1 t_x7_10 -1 t_x7_12 -1 t_x10_12 +3 t_t7_10_12 <= +0
 andgate_125_add: -1 t_x7_10 -1 t_x7_12 -1 t_x10_12 +1 t_t7_10_12 >= -2
 andgate_298_operators: -1 t_x4_14 -1 t_x4_16 -1 t_x14_16 +3 t_t4_14_16 <= +0
 andgate_298_add: -1 t_x4_14 -1 t_x4_16 -1 t_x14_16 +1 t_t4_14_16 >= -2
 andgate_606_operators: -1 t_x1_17 -1 t_x1_18 -1 t_x17_18 +3 t_t1_17_18 <= +0
 andgate_606_add: -1 t_x1_17 -1 t_x1_18 -1 t_x17_18 +1 t_t1_17_18 >= -2
 andgate_384_operators: -1 t_x3_15 -1 t_x3_18 -1 t_x15_18 +3 t_t3_15_18 <= +0
 andgate_384_add: -1 t_x3_15 -1 t_x3_18 -1 t_x15_18 +1 t_t3_15_18 >= -2
 andgate_554_operators: -1 t_x2_16 -1 t_x6_16 -1 t_t0_2_6 +3 t_t2_6_16 <= +0
 andgate_554_add: -1 t_x2_16 -1 t_x6_16 -1 t_t0_2_6 +1 t_t2_6_16 >= -2
 andgate_699_operators: -1 t_x1_16 -1 t_x4_16 -1 t_t0_1_4 +3 t_t1_4_16 <= +0
 andgate_699_add: -1 t_x1_16 -1 t_x4_16 -1 t_t0_1_4 +1 t_t1_4_16 >= -2
 andgate_353_operators: -1 t_x4_10 -1 t_x7_10 -1 t_t0_4_7 +3 t_t4_7_10 <= +0
 andgate_353_add: -1 t_x4_10 -1 t_x7_10 -1 t_t0_4_7 +1 t_t4_7_10 >= -2
 andgate_587_operators: -1 t_t0_2_4 -1 t_t0_2_8 -1 t_t0_4_8 +3 t_t2_4_8 <= +0
 andgate_587_add: -1 t_t0_2_4 -1 t_t0_2_8 -1 t_t0_4_8 +1 t_t2_4_8 >= -2
 andgate_317_operators: -1 t_x4_11 -1 t_x4_12 -1 t_x11_12 +3 t_t4_11_12 <= +0
 andgate_317_add: -1 t_x4_11 -1 t_x4_12 -1 t_x11_12 +1 t_t4_11_12 >= -2
 andgate_374_operators: -1 t_x4_12 -1 t_x5_12 -1 t_t0_4_5 +3 t_t4_5_12 <= +0
 andgate_374_add: -1 t_x4_12 -1 t_x5_12 -1 t_t0_4_5 +1 t_t4_5_12 >= -2
 andgate_93_operators: -1 t_x7_16 -1 t_x7_17 -1 t_x16_17 +3 t_t7_16_17 <= +0
 andgate_93_add: -1 t_x7_16 -1 t_x7_17 -1 t_x16_17 +1 t_t7_16_17 >= -2
 andgate_107_operators: -1 t_x7_12 -1 t_x7_17 -1 t_x12_17 +3 t_t7_12_17 <= +0
 andgate_107_add: -1 t_x7_12 -1 t_x7_17 -1 t_x12_17 +1 t_t7_12_17 >= -2
 andgate_731_operators: -1 t_x1_13 -1 t_x2_13 -1 t_t0_1_2 +3 t_t1_2_13 <= +0
 andgate_731_add: -1 t_x1_13 -1 t_x2_13 -1 t_t0_1_2 +1 t_t1_2_13 >= -2
 andgate_343_operators: -1 t_x4_10 -1 t_x8_10 -1 t_t0_4_8 +3 t_t4_8_10 <= +0
 andgate_343_add: -1 t_x4_10 -1 t_x8_10 -1 t_t0_4_8 +1 t_t4_8_10 >= -2
 andgate_598_operators: -1 t_x2_11 -1 t_x3_11 -1 t_t0_2_3 +3 t_t2_3_11 <= +0
 andgate_598_add: -1 t_x2_11 -1 t_x3_11 -1 t_t0_2_3 +1 t_t2_3_11 >= -2
 andgate_530_operators: -1 t_x2_9 -1 t_x2_10 -1 t_x9_10 +3 t_t2_9_10 <= +0
 andgate_530_add: -1 t_x2_9 -1 t_x2_10 -1 t_x9_10 +1 t_t2_9_10 >= -2
 andgate_253_operators: -1 t_x5_9 -1 t_x5_13 -1 t_x9_13 +3 t_t5_9_13 <= +0
 andgate_253_add: -1 t_x5_9 -1 t_x5_13 -1 t_x9_13 +1 t_t5_9_13 >= -2
 andgate_659_operators: -1 t_x1_10 -1 t_x8_10 -1 t_t0_1_8 +3 t_t1_8_10 <= +0
 andgate_659_add: -1 t_x1_10 -1 t_x8_10 -1 t_t0_1_8 +1 t_t1_8_10 >= -2
 andgate_99_operators: -1 t_x7_14 -1 t_x7_16 -1 t_x14_16 +3 t_t7_14_16 <= +0
 andgate_99_add: -1 t_x7_14 -1 t_x7_16 -1 t_x14_16 +1 t_t7_14_16 >= -2
 andgate_230_operators: -1 t_x5_12 -1 t_x5_15 -1 t_x12_15 +3 t_t5_12_15 <= +0
 andgate_230_add: -1 t_x5_12 -1 t_x5_15 -1 t_x12_15 +1 t_t5_12_15 >= -2
 andgate_84_operators: -1 t_x8_9 -1 t_x8_16 -1 t_x9_16 +3 t_t8_9_16 <= +0
 andgate_84_add: -1 t_x8_9 -1 t_x8_16 -1 t_x9_16 +1 t_t8_9_16 >= -2
 andgate_151_operators: -1 t_x6_15 -1 t_x6_16 -1 t_x15_16 +3 t_t6_15_16 <= +0
 andgate_151_add: -1 t_x6_15 -1 t_x6_16 -1 t_x15_16 +1 t_t6_15_16 >= -2
 andgate_444_operators: -1 t_x3_10 -1 t_x7_10 -1 t_t0_3_7 +3 t_t3_7_10 <= +0
 andgate_444_add: -1 t_x3_10 -1 t_x7_10 -1 t_t0_3_7 +1 t_t3_7_10 >= -2
 andgate_344_operators: -1 t_x4_9 -1 t_x8_9 -1 t_t0_4_8 +3 t_t4_8_9 <= +0
 andgate_344_add: -1 t_x4_9 -1 t_x8_9 -1 t_t0_4_8 +1 t_t4_8_9 >= -2
 andgate_109_operators: -1 t_x7_12 -1 t_x7_15 -1 t_x12_15 +3 t_t7_12_15 <= +0
 andgate_109_add: -1 t_x7_12 -1 t_x7_15 -1 t_x12_15 +1 t_t7_12_15 >= -2
 andgate_309_operators: -1 t_x4_12 -1 t_x4_14 -1 t_x12_14 +3 t_t4_12_14 <= +0
 andgate_309_add: -1 t_x4_12 -1 t_x4_14 -1 t_x12_14 +1 t_t4_12_14 >= -2
 andgate_683_operators: -1 t_t0_1_6 -1 t_t0_1_7 -1 t_t0_6_7 +3 t_t1_6_7 <= +0
 andgate_683_add: -1 t_t0_1_6 -1 t_t0_1_7 -1 t_t0_6_7 +1 t_t1_6_7 >= -2
 andgate_559_operators: -1 t_x2_11 -1 t_x6_11 -1 t_t0_2_6 +3 t_t2_6_11 <= +0
 andgate_559_add: -1 t_x2_11 -1 t_x6_11 -1 t_t0_2_6 +1 t_t2_6_11 >= -2
 andgate_299_operators: -1 t_x4_14 -1 t_x4_15 -1 t_x14_15 +3 t_t4_14_15 <= +0
 andgate_299_add: -1 t_x4_14 -1 t_x4_15 -1 t_x14_15 +1 t_t4_14_15 >= -2
 andgate_95_operators: -1 t_x7_15 -1 t_x7_17 -1 t_x15_17 +3 t_t7_15_17 <= +0
 andgate_95_add: -1 t_x7_15 -1 t_x7_17 -1 t_x15_17 +1 t_t7_15_17 >= -2
 andgate_383_operators: -1 t_x3_16 -1 t_x3_17 -1 t_x16_17 +3 t_t3_16_17 <= +0
 andgate_383_add: -1 t_x3_16 -1 t_x3_17 -1 t_x16_17 +1 t_t3_16_17 >= -2
 andgate_403_operators: -1 t_x3_11 -1 t_x3_17 -1 t_x11_17 +3 t_t3_11_17 <= +0
 andgate_403_add: -1 t_x3_11 -1 t_x3_17 -1 t_x11_17 +1 t_t3_11_17 >= -2
 andgate_388_operators: -1 t_x3_14 -1 t_x3_17 -1 t_x14_17 +3 t_t3_14_17 <= +0
 andgate_388_add: -1 t_x3_14 -1 t_x3_17 -1 t_x14_17 +1 t_t3_14_17 >= -2
 andgate_296_operators: -1 t_x4_14 -1 t_x4_18 -1 t_x14_18 +3 t_t4_14_18 <= +0
 andgate_296_add: -1 t_x4_14 -1 t_x4_18 -1 t_x14_18 +1 t_t4_14_18 >= -2
 andgate_562_operators: -1 t_t0_2_6 -1 t_t0_2_8 -1 t_t0_6_8 +3 t_t2_6_8 <= +0
 andgate_562_add: -1 t_t0_2_6 -1 t_t0_2_8 -1 t_t0_6_8 +1 t_t2_6_8 >= -2
 andgate_410_operators: -1 t_x3_10 -1 t_x3_17 -1 t_x10_17 +3 t_t3_10_17 <= +0
 andgate_410_add: -1 t_x3_10 -1 t_x3_17 -1 t_x10_17 +1 t_t3_10_17 >= -2
 andgate_427_operators: -1 t_x3_17 -1 t_x8_17 -1 t_t0_3_8 +3 t_t3_8_17 <= +0
 andgate_427_add: -1 t_x3_17 -1 t_x8_17 -1 t_t0_3_8 +1 t_t3_8_17 >= -2
 andgate_232_operators: -1 t_x5_12 -1 t_x5_13 -1 t_x12_13 +3 t_t5_12_13 <= +0
 andgate_232_add: -1 t_x5_12 -1 t_x5_13 -1 t_x12_13 +1 t_t5_12_13 >= -2
 andgate_300_operators: -1 t_x4_13 -1 t_x4_18 -1 t_x13_18 +3 t_t4_13_18 <= +0
 andgate_300_add: -1 t_x4_13 -1 t_x4_18 -1 t_x13_18 +1 t_t4_13_18 >= -2
 andgate_555_operators: -1 t_x2_15 -1 t_x6_15 -1 t_t0_2_6 +3 t_t2_6_15 <= +0
 andgate_555_add: -1 t_x2_15 -1 t_x6_15 -1 t_t0_2_6 +1 t_t2_6_15 >= -2
 andgate_242_operators: -1 t_x5_10 -1 t_x5_16 -1 t_x10_16 +3 t_t5_10_16 <= +0
 andgate_242_add: -1 t_x5_10 -1 t_x5_16 -1 t_x10_16 +1 t_t5_10_16 >= -2
 andgate_191_operators: -1 t_x6_18 -1 t_x8_18 -1 t_t0_6_8 +3 t_t6_8_18 <= +0
 andgate_191_add: -1 t_x6_18 -1 t_x8_18 -1 t_t0_6_8 +1 t_t6_8_18 >= -2
 andgate_211_operators: -1 t_t0_6_7 -1 t_t0_6_8 -1 t_t0_7_8 +3 t_t6_7_8 <= +0
 andgate_211_add: -1 t_t0_6_7 -1 t_t0_6_8 -1 t_t0_7_8 +1 t_t6_7_8 >= -2
 andgate_705_operators: -1 t_x1_10 -1 t_x4_10 -1 t_t0_1_4 +3 t_t1_4_10 <= +0
 andgate_705_add: -1 t_x1_10 -1 t_x4_10 -1 t_t0_1_4 +1 t_t1_4_10 >= -2
 andgate_609_operators: -1 t_x1_15 -1 t_x1_18 -1 t_x15_18 +3 t_t1_15_18 <= +0
 andgate_609_add: -1 t_x1_15 -1 t_x1_18 -1 t_x15_18 +1 t_t1_15_18 >= -2
 andgate_582_operators: -1 t_x2_13 -1 t_x4_13 -1 t_t0_2_4 +3 t_t2_4_13 <= +0
 andgate_582_add: -1 t_x2_13 -1 t_x4_13 -1 t_t0_2_4 +1 t_t2_4_13 >= -2
 andgate_624_operators: -1 t_x1_12 -1 t_x1_15 -1 t_x12_15 +3 t_t1_12_15 <= +0
 andgate_624_add: -1 t_x1_12 -1 t_x1_15 -1 t_x12_15 +1 t_t1_12_15 >= -2
 andgate_209_operators: -1 t_x6_10 -1 t_x7_10 -1 t_t0_6_7 +3 t_t6_7_10 <= +0
 andgate_209_add: -1 t_x6_10 -1 t_x7_10 -1 t_t0_6_7 +1 t_t6_7_10 >= -2
 andgate_615_operators: -1 t_x1_14 -1 t_x1_15 -1 t_x14_15 +3 t_t1_14_15 <= +0
 andgate_615_add: -1 t_x1_14 -1 t_x1_15 -1 t_x14_15 +1 t_t1_14_15 >= -2
 andgate_630_operators: -1 t_x1_11 -1 t_x1_15 -1 t_x11_15 +3 t_t1_11_15 <= +0
 andgate_630_add: -1 t_x1_11 -1 t_x1_15 -1 t_x11_15 +1 t_t1_11_15 >= -2
 andgate_442_operators: -1 t_x3_12 -1 t_x7_12 -1 t_t0_3_7 +3 t_t3_7_12 <= +0
 andgate_442_add: -1 t_x3_12 -1 t_x7_12 -1 t_t0_3_7 +1 t_t3_7_12 >= -2
 andgate_432_operators: -1 t_x3_12 -1 t_x8_12 -1 t_t0_3_8 +3 t_t3_8_12 <= +0
 andgate_432_add: -1 t_x3_12 -1 t_x8_12 -1 t_t0_3_8 +1 t_t3_8_12 >= -2
 andgate_205_operators: -1 t_x6_14 -1 t_x7_14 -1 t_t0_6_7 +3 t_t6_7_14 <= +0
 andgate_205_add: -1 t_x6_14 -1 t_x7_14 -1 t_t0_6_7 +1 t_t6_7_14 >= -2
 andgate_398_operators: -1 t_x3_12 -1 t_x3_16 -1 t_x12_16 +3 t_t3_12_16 <= +0
 andgate_398_add: -1 t_x3_12 -1 t_x3_16 -1 t_x12_16 +1 t_t3_12_16 >= -2
 andgate_399_operators: -1 t_x3_12 -1 t_x3_15 -1 t_x12_15 +3 t_t3_12_15 <= +0
 andgate_399_add: -1 t_x3_12 -1 t_x3_15 -1 t_x12_15 +1 t_t3_12_15 >= -2
 andgate_400_operators: -1 t_x3_12 -1 t_x3_14 -1 t_x12_14 +3 t_t3_12_14 <= +0
 andgate_400_add: -1 t_x3_12 -1 t_x3_14 -1 t_x12_14 +1 t_t3_12_14 >= -2
 andgate_356_operators: -1 t_x4_18 -1 t_x6_18 -1 t_t0_4_6 +3 t_t4_6_18 <= +0
 andgate_356_add: -1 t_x4_18 -1 t_x6_18 -1 t_t0_4_6 +1 t_t4_6_18 >= -2
 andgate_597_operators: -1 t_x2_12 -1 t_x3_12 -1 t_t0_2_3 +3 t_t2_3_12 <= +0
 andgate_597_add: -1 t_x2_12 -1 t_x3_12 -1 t_t0_2_3 +1 t_t2_3_12 >= -2
 andgate_408_operators: -1 t_x3_11 -1 t_x3_12 -1 t_x11_12 +3 t_t3_11_12 <= +0
 andgate_408_add: -1 t_x3_11 -1 t_x3_12 -1 t_x11_12 +1 t_t3_11_12 >= -2
 andgate_689_operators: -1 t_x1_13 -1 t_x5_13 -1 t_t0_1_5 +3 t_t1_5_13 <= +0
 andgate_689_add: -1 t_x1_13 -1 t_x5_13 -1 t_t0_1_5 +1 t_t1_5_13 >= -2
 andgate_156_operators: -1 t_x6_13 -1 t_x6_18 -1 t_x13_18 +3 t_t6_13_18 <= +0
 andgate_156_add: -1 t_x6_13 -1 t_x6_18 -1 t_x13_18 +1 t_t6_13_18 >= -2
 andgate_694_operators: -1 t_t0_1_5 -1 t_t0_1_8 -1 t_t0_5_8 +3 t_t1_5_8 <= +0
 andgate_694_add: -1 t_t0_1_5 -1 t_t0_1_8 -1 t_t0_5_8 +1 t_t1_5_8 >= -2
 andgate_57_operators: -1 t_x8_13 -1 t_x8_17 -1 t_x13_17 +3 t_t8_13_17 <= +0
 andgate_57_add: -1 t_x8_13 -1 t_x8_17 -1 t_x13_17 +1 t_t8_13_17 >= -2
 andgate_234_operators: -1 t_x5_11 -1 t_x5_17 -1 t_x11_17 +3 t_t5_11_17 <= +0
 andgate_234_add: -1 t_x5_11 -1 t_x5_17 -1 t_x11_17 +1 t_t5_11_17 >= -2
 andgate_627_operators: -1 t_x1_11 -1 t_x1_18 -1 t_x11_18 +3 t_t1_11_18 <= +0
 andgate_627_add: -1 t_x1_11 -1 t_x1_18 -1 t_x11_18 +1 t_t1_11_18 >= -2
 andgate_512_operators: -1 t_x2_11 -1 t_x2_13 -1 t_x11_13 +3 t_t2_11_13 <= +0
 andgate_512_add: -1 t_x2_11 -1 t_x2_13 -1 t_x11_13 +1 t_t2_11_13 >= -2
 andgate_720_operators: -1 t_x1_9 -1 t_x3_9 -1 t_t0_1_3 +3 t_t1_3_9 <= +0
 andgate_720_add: -1 t_x1_9 -1 t_x3_9 -1 t_t0_1_3 +1 t_t1_3_9 >= -2
 andgate_690_operators: -1 t_x1_12 -1 t_x5_12 -1 t_t0_1_5 +3 t_t1_5_12 <= +0
 andgate_690_add: -1 t_x1_12 -1 t_x5_12 -1 t_t0_1_5 +1 t_t1_5_12 >= -2
 andgate_484_operators: -1 t_t0_3_4 -1 t_t0_3_6 -1 t_t0_4_6 +3 t_t3_4_6 <= +0
 andgate_484_add: -1 t_t0_3_4 -1 t_t0_3_6 -1 t_t0_4_6 +1 t_t3_4_6 >= -2
 andgate_594_operators: -1 t_x2_15 -1 t_x3_15 -1 t_t0_2_3 +3 t_t2_3_15 <= +0
 andgate_594_add: -1 t_x2_15 -1 t_x3_15 -1 t_t0_2_3 +1 t_t2_3_15 >= -2
 andgate_357_operators: -1 t_x4_17 -1 t_x6_17 -1 t_t0_4_6 +3 t_t4_6_17 <= +0
 andgate_357_add: -1 t_x4_17 -1 t_x6_17 -1 t_t0_4_6 +1 t_t4_6_17 >= -2
 andgate_448_operators: -1 t_x3_17 -1 t_x6_17 -1 t_t0_3_6 +3 t_t3_6_17 <= +0
 andgate_448_add: -1 t_x3_17 -1 t_x6_17 -1 t_t0_3_6 +1 t_t3_6_17 >= -2
 andgate_510_operators: -1 t_x2_11 -1 t_x2_15 -1 t_x11_15 +3 t_t2_11_15 <= +0
 andgate_510_add: -1 t_x2_11 -1 t_x2_15 -1 t_x11_15 +1 t_t2_11_15 >= -2
 andgate_162_operators: -1 t_x6_12 -1 t_x6_17 -1 t_x12_17 +3 t_t6_12_17 <= +0
 andgate_162_add: -1 t_x6_12 -1 t_x6_17 -1 t_x12_17 +1 t_t6_12_17 >= -2
 andgate_790_operators: -1 t_x12_13 -1 t_x12_17 -1 t_x13_17 +3 t_t12_13_17 <= +0
 andgate_790_add: -1 t_x12_13 -1 t_x12_17 -1 t_x13_17 +1 t_t12_13_17 >= -2
 andgate_175_operators: -1 t_x6_10 -1 t_x6_17 -1 t_x10_17 +3 t_t6_10_17 <= +0
 andgate_175_add: -1 t_x6_10 -1 t_x6_17 -1 t_x10_17 +1 t_t6_10_17 >= -2
 andgate_769_operators: -1 t_x13_16 -1 t_x13_17 -1 t_x16_17 +3 t_t13_16_17 <= +0
 andgate_769_add: -1 t_x13_16 -1 t_x13_17 -1 t_x16_17 +1 t_t13_16_17 >= -2
 andgate_288_operators: -1 t_t0_5_6 -1 t_t0_5_8 -1 t_t0_6_8 +3 t_t5_6_8 <= +0
 andgate_288_add: -1 t_t0_5_6 -1 t_t0_5_8 -1 t_t0_6_8 +1 t_t5_6_8 >= -2
 andgate_346_operators: -1 t_x4_17 -1 t_x7_17 -1 t_t0_4_7 +3 t_t4_7_17 <= +0
 andgate_346_add: -1 t_x4_17 -1 t_x7_17 -1 t_t0_4_7 +1 t_t4_7_17 >= -2
 andgate_150_operators: -1 t_x6_15 -1 t_x6_17 -1 t_x15_17 +3 t_t6_15_17 <= +0
 andgate_150_add: -1 t_x6_15 -1 t_x6_17 -1 t_x15_17 +1 t_t6_15_17 >= -2
 andgate_367_operators: -1 t_t0_4_6 -1 t_t0_4_7 -1 t_t0_6_7 +3 t_t4_6_7 <= +0
 andgate_367_add: -1 t_t0_4_6 -1 t_t0_4_7 -1 t_t0_6_7 +1 t_t4_6_7 >= -2
 andgate_153_operators: -1 t_x6_14 -1 t_x6_17 -1 t_x14_17 +3 t_t6_14_17 <= +0
 andgate_153_add: -1 t_x6_14 -1 t_x6_17 -1 t_x14_17 +1 t_t6_14_17 >= -2
 andgate_724_operators: -1 t_t0_1_3 -1 t_t0_1_5 -1 t_t0_3_5 +3 t_t1_3_5 <= +0
 andgate_724_add: -1 t_t0_1_3 -1 t_t0_1_5 -1 t_t0_3_5 +1 t_t1_3_5 >= -2
 andgate_773_operators: -1 t_x13_14 -1 t_x13_18 -1 t_x14_18 +3 t_t13_14_18 <= +0
 andgate_773_add: -1 t_x13_14 -1 t_x13_18 -1 t_x14_18 +1 t_t13_14_18 >= -2
 andgate_103_operators: -1 t_x7_13 -1 t_x7_16 -1 t_x13_16 +3 t_t7_13_16 <= +0
 andgate_103_add: -1 t_x7_13 -1 t_x7_16 -1 t_x13_16 +1 t_t7_13_16 >= -2
 andgate_210_operators: -1 t_x6_9 -1 t_x7_9 -1 t_t0_6_7 +3 t_t6_7_9 <= +0
 andgate_210_add: -1 t_x6_9 -1 t_x7_9 -1 t_t0_6_7 +1 t_t6_7_9 >= -2
 andgate_204_operators: -1 t_x6_15 -1 t_x7_15 -1 t_t0_6_7 +3 t_t6_7_15 <= +0
 andgate_204_add: -1 t_x6_15 -1 t_x7_15 -1 t_t0_6_7 +1 t_t6_7_15 >= -2
 andgate_287_operators: -1 t_x5_9 -1 t_x6_9 -1 t_t0_5_6 +3 t_t5_6_9 <= +0
 andgate_287_add: -1 t_x5_9 -1 t_x6_9 -1 t_t0_5_6 +1 t_t5_6_9 >= -2
 andgate_456_operators: -1 t_x3_9 -1 t_x6_9 -1 t_t0_3_6 +3 t_t3_6_9 <= +0
 andgate_456_add: -1 t_x3_9 -1 t_x6_9 -1 t_t0_3_6 +1 t_t3_6_9 >= -2
 andgate_692_operators: -1 t_x1_10 -1 t_x5_10 -1 t_t0_1_5 +3 t_t1_5_10 <= +0
 andgate_692_add: -1 t_x1_10 -1 t_x5_10 -1 t_t0_1_5 +1 t_t1_5_10 >= -2
 andgate_184_operators: -1 t_x6_9 -1 t_x6_16 -1 t_x9_16 +3 t_t6_9_16 <= +0
 andgate_184_add: -1 t_x6_9 -1 t_x6_16 -1 t_x9_16 +1 t_t6_9_16 >= -2
 andgate_283_operators: -1 t_x5_13 -1 t_x6_13 -1 t_t0_5_6 +3 t_t5_6_13 <= +0
 andgate_283_add: -1 t_x5_13 -1 t_x6_13 -1 t_t0_5_6 +1 t_t5_6_13 >= -2
 andgate_240_operators: -1 t_x5_10 -1 t_x5_18 -1 t_x10_18 +3 t_t5_10_18 <= +0
 andgate_240_add: -1 t_x5_10 -1 t_x5_18 -1 t_x10_18 +1 t_t5_10_18 >= -2
 andgate_189_operators: -1 t_x6_9 -1 t_x6_11 -1 t_x9_11 +3 t_t6_9_11 <= +0
 andgate_189_add: -1 t_x6_9 -1 t_x6_11 -1 t_x9_11 +1 t_t6_9_11 >= -2
 andgate_186_operators: -1 t_x6_9 -1 t_x6_14 -1 t_x9_14 +3 t_t6_9_14 <= +0
 andgate_186_add: -1 t_x6_9 -1 t_x6_14 -1 t_x9_14 +1 t_t6_9_14 >= -2
 andgate_438_operators: -1 t_x3_16 -1 t_x7_16 -1 t_t0_3_7 +3 t_t3_7_16 <= +0
 andgate_438_add: -1 t_x3_16 -1 t_x7_16 -1 t_t0_3_7 +1 t_t3_7_16 >= -2
 andgate_682_operators: -1 t_t0_1_6 -1 t_t0_1_8 -1 t_t0_6_8 +3 t_t1_6_8 <= +0
 andgate_682_add: -1 t_t0_1_6 -1 t_t0_1_8 -1 t_t0_6_8 +1 t_t1_6_8 >= -2
 andgate_504_operators: -1 t_x2_12 -1 t_x2_15 -1 t_x12_15 +3 t_t2_12_15 <= +0
 andgate_504_add: -1 t_x2_12 -1 t_x2_15 -1 t_x12_15 +1 t_t2_12_15 >= -2
 andgate_192_operators: -1 t_x6_17 -1 t_x8_17 -1 t_t0_6_8 +3 t_t6_8_17 <= +0
 andgate_192_add: -1 t_x6_17 -1 t_x8_17 -1 t_t0_6_8 +1 t_t6_8_17 >= -2
 andgate_789_operators: -1 t_x12_13 -1 t_x12_18 -1 t_x13_18 +3 t_t12_13_18 <= +0
 andgate_789_add: -1 t_x12_13 -1 t_x12_18 -1 t_x13_18 +1 t_t12_13_18 >= -2
 andgate_380_operators: -1 t_t0_4_5 -1 t_t0_4_6 -1 t_t0_5_6 +3 t_t4_5_6 <= +0
 andgate_380_add: -1 t_t0_4_5 -1 t_t0_4_6 -1 t_t0_5_6 +1 t_t4_5_6 >= -2
 andgate_780_operators: -1 t_x10_17 -1 t_x10_18 -1 t_x17_18 +3 t_t10_17_18 <= +0
 andgate_780_add: -1 t_x10_17 -1 t_x10_18 -1 t_x17_18 +1 t_t10_17_18 >= -2
 andgate_223_operators: -1 t_x5_13 -1 t_x5_17 -1 t_x13_17 +3 t_t5_13_17 <= +0
 andgate_223_add: -1 t_x5_13 -1 t_x5_17 -1 t_x13_17 +1 t_t5_13_17 >= -2
 andgate_147_operators: -1 t_x6_16 -1 t_x6_18 -1 t_x16_18 +3 t_t6_16_18 <= +0
 andgate_147_add: -1 t_x6_16 -1 t_x6_18 -1 t_x16_18 +1 t_t6_16_18 >= -2
 andgate_489_operators: -1 t_x2_15 -1 t_x2_18 -1 t_x15_18 +3 t_t2_15_18 <= +0
 andgate_489_add: -1 t_x2_15 -1 t_x2_18 -1 t_x15_18 +1 t_t2_15_18 >= -2
 andgate_157_operators: -1 t_x6_13 -1 t_x6_17 -1 t_x13_17 +3 t_t6_13_17 <= +0
 andgate_157_add: -1 t_x6_13 -1 t_x6_17 -1 t_x13_17 +1 t_t6_13_17 >= -2
 andgate_759_operators: -1 t_x14_17 -1 t_x14_18 -1 t_x17_18 +3 t_t14_17_18 <= +0
 andgate_759_add: -1 t_x14_17 -1 t_x14_18 -1 t_x17_18 +1 t_t14_17_18 >= -2
 andgate_675_operators: -1 t_x1_15 -1 t_x6_15 -1 t_t0_1_6 +3 t_t1_6_15 <= +0
 andgate_675_add: -1 t_x1_15 -1 t_x6_15 -1 t_t0_1_6 +1 t_t1_6_15 >= -2
 andgate_552_operators: -1 t_x2_18 -1 t_x6_18 -1 t_t0_2_6 +3 t_t2_6_18 <= +0
 andgate_552_add: -1 t_x2_18 -1 t_x6_18 -1 t_t0_2_6 +1 t_t2_6_18 >= -2
 andgate_490_operators: -1 t_x2_15 -1 t_x2_17 -1 t_x15_17 +3 t_t2_15_17 <= +0
 andgate_490_add: -1 t_x2_15 -1 t_x2_17 -1 t_x15_17 +1 t_t2_15_17 >= -2
 andgate_441_operators: -1 t_x3_13 -1 t_x7_13 -1 t_t0_3_7 +3 t_t3_7_13 <= +0
 andgate_441_add: -1 t_x3_13 -1 t_x7_13 -1 t_t0_3_7 +1 t_t3_7_13 >= -2
 andgate_91_operators: -1 t_x7_17 -1 t_x7_18 -1 t_x17_18 +3 t_t7_17_18 <= +0
 andgate_91_add: -1 t_x7_17 -1 t_x7_18 -1 t_x17_18 +1 t_t7_17_18 >= -2
 andgate_561_operators: -1 t_x2_9 -1 t_x6_9 -1 t_t0_2_6 +3 t_t2_6_9 <= +0
 andgate_561_add: -1 t_x2_9 -1 t_x6_9 -1 t_t0_2_6 +1 t_t2_6_9 >= -2
 andgate_215_operators: -1 t_x5_15 -1 t_x5_18 -1 t_x15_18 +3 t_t5_15_18 <= +0
 andgate_215_add: -1 t_x5_15 -1 t_x5_18 -1 t_x15_18 +1 t_t5_15_18 >= -2
 andgate_632_operators: -1 t_x1_11 -1 t_x1_13 -1 t_x11_13 +3 t_t1_11_13 <= +0
 andgate_632_add: -1 t_x1_11 -1 t_x1_13 -1 t_x11_13 +1 t_t1_11_13 >= -2
 andgate_639_operators: -1 t_x1_10 -1 t_x1_13 -1 t_x10_13 +3 t_t1_10_13 <= +0
 andgate_639_add: -1 t_x1_10 -1 t_x1_13 -1 t_x10_13 +1 t_t1_10_13 >= -2
 andgate_644_operators: -1 t_x1_9 -1 t_x1_16 -1 t_x9_16 +3 t_t1_9_16 <= +0
 andgate_644_add: -1 t_x1_9 -1 t_x1_16 -1 t_x9_16 +1 t_t1_9_16 >= -2
 andgate_687_operators: -1 t_x1_15 -1 t_x5_15 -1 t_t0_1_5 +3 t_t1_5_15 <= +0
 andgate_687_add: -1 t_x1_15 -1 t_x5_15 -1 t_t0_1_5 +1 t_t1_5_15 >= -2
 andgate_392_operators: -1 t_x3_13 -1 t_x3_17 -1 t_x13_17 +3 t_t3_13_17 <= +0
 andgate_392_add: -1 t_x3_13 -1 t_x3_17 -1 t_x13_17 +1 t_t3_13_17 >= -2
 andgate_368_operators: -1 t_x4_18 -1 t_x5_18 -1 t_t0_4_5 +3 t_t4_5_18 <= +0
 andgate_368_add: -1 t_x4_18 -1 t_x5_18 -1 t_t0_4_5 +1 t_t4_5_18 >= -2
 andgate_603_operators: -1 t_t0_2_3 -1 t_t0_2_6 -1 t_t0_3_6 +3 t_t2_3_6 <= +0
 andgate_603_add: -1 t_t0_2_3 -1 t_t0_2_6 -1 t_t0_3_6 +1 t_t2_3_6 >= -2
 andgate_195_operators: -1 t_x6_14 -1 t_x8_14 -1 t_t0_6_8 +3 t_t6_8_14 <= +0
 andgate_195_add: -1 t_x6_14 -1 t_x8_14 -1 t_t0_6_8 +1 t_t6_8_14 >= -2
 andgate_507_operators: -1 t_x2_11 -1 t_x2_18 -1 t_x11_18 +3 t_t2_11_18 <= +0
 andgate_507_add: -1 t_x2_11 -1 t_x2_18 -1 t_x11_18 +1 t_t2_11_18 >= -2
 andgate_301_operators: -1 t_x4_13 -1 t_x4_17 -1 t_x13_17 +3 t_t4_13_17 <= +0
 andgate_301_add: -1 t_x4_13 -1 t_x4_17 -1 t_x13_17 +1 t_t4_13_17 >= -2
 andgate_491_operators: -1 t_x2_15 -1 t_x2_16 -1 t_x15_16 +3 t_t2_15_16 <= +0
 andgate_491_add: -1 t_x2_15 -1 t_x2_16 -1 t_x15_16 +1 t_t2_15_16 >= -2
 andgate_495_operators: -1 t_x2_14 -1 t_x2_15 -1 t_x14_15 +3 t_t2_14_15 <= +0
 andgate_495_add: -1 t_x2_14 -1 t_x2_15 -1 t_x14_15 +1 t_t2_14_15 >= -2
 andgate_591_operators: -1 t_x2_18 -1 t_x3_18 -1 t_t0_2_3 +3 t_t2_3_18 <= +0
 andgate_591_add: -1 t_x2_18 -1 t_x3_18 -1 t_t0_2_3 +1 t_t2_3_18 >= -2
 andgate_514_operators: -1 t_x2_10 -1 t_x2_18 -1 t_x10_18 +3 t_t2_10_18 <= +0
 andgate_514_add: -1 t_x2_10 -1 t_x2_18 -1 t_x10_18 +1 t_t2_10_18 >= -2
 andgate_129_operators: -1 t_x7_9 -1 t_x7_16 -1 t_x9_16 +3 t_t7_9_16 <= +0
 andgate_129_add: -1 t_x7_9 -1 t_x7_16 -1 t_x9_16 +1 t_t7_9_16 >= -2
 andgate_706_operators: -1 t_x1_9 -1 t_x4_9 -1 t_t0_1_4 +3 t_t1_4_9 <= +0
 andgate_706_add: -1 t_x1_9 -1 t_x4_9 -1 t_t0_1_4 +1 t_t1_4_9 >= -2
 andgate_709_operators: -1 t_t0_1_4 -1 t_t0_1_6 -1 t_t0_4_6 +3 t_t1_4_6 <= +0
 andgate_709_add: -1 t_t0_1_4 -1 t_t0_1_6 -1 t_t0_4_6 +1 t_t1_4_6 >= -2
 andgate_774_operators: -1 t_x13_14 -1 t_x13_17 -1 t_x14_17 +3 t_t13_14_17 <= +0
 andgate_774_add: -1 t_x13_14 -1 t_x13_17 -1 t_x14_17 +1 t_t13_14_17 >= -2
 andgate_497_operators: -1 t_x2_13 -1 t_x2_17 -1 t_x13_17 +3 t_t2_13_17 <= +0
 andgate_497_add: -1 t_x2_13 -1 t_x2_17 -1 t_x13_17 +1 t_t2_13_17 >= -2
 andgate_471_operators: -1 t_t0_3_5 -1 t_t0_3_6 -1 t_t0_5_6 +3 t_t3_5_6 <= +0
 andgate_471_add: -1 t_t0_3_5 -1 t_t0_3_6 -1 t_t0_5_6 +1 t_t3_5_6 >= -2
 andgate_617_operators: -1 t_x1_13 -1 t_x1_17 -1 t_x13_17 +3 t_t1_13_17 <= +0
 andgate_617_add: -1 t_x1_13 -1 t_x1_17 -1 t_x13_17 +1 t_t1_13_17 >= -2
 andgate_284_operators: -1 t_x5_12 -1 t_x6_12 -1 t_t0_5_6 +3 t_t5_6_12 <= +0
 andgate_284_add: -1 t_x5_12 -1 t_x6_12 -1 t_t0_5_6 +1 t_t5_6_12 >= -2
 andgate_756_operators: -1 t_x15_17 -1 t_x15_18 -1 t_x17_18 +3 t_t15_17_18 <= +0
 andgate_756_add: -1 t_x15_17 -1 t_x15_18 -1 t_x17_18 +1 t_t15_17_18 >= -2
 andgate_501_operators: -1 t_x2_12 -1 t_x2_18 -1 t_x12_18 +3 t_t2_12_18 <= +0
 andgate_501_add: -1 t_x2_12 -1 t_x2_18 -1 t_x12_18 +1 t_t2_12_18 >= -2
 andgate_649_operators: -1 t_x1_9 -1 t_x1_11 -1 t_x9_11 +3 t_t1_9_11 <= +0
 andgate_649_add: -1 t_x1_9 -1 t_x1_11 -1 t_x9_11 +1 t_t1_9_11 >= -2
 andgate_218_operators: -1 t_x5_14 -1 t_x5_18 -1 t_x14_18 +3 t_t5_14_18 <= +0
 andgate_218_add: -1 t_x5_14 -1 t_x5_18 -1 t_x14_18 +1 t_t5_14_18 >= -2
 andgate_282_operators: -1 t_x5_14 -1 t_x6_14 -1 t_t0_5_6 +3 t_t5_6_14 <= +0
 andgate_282_add: -1 t_x5_14 -1 t_x6_14 -1 t_t0_5_6 +1 t_t5_6_14 >= -2
 andgate_674_operators: -1 t_x1_16 -1 t_x6_16 -1 t_t0_1_6 +3 t_t1_6_16 <= +0
 andgate_674_add: -1 t_x1_16 -1 t_x6_16 -1 t_t0_1_6 +1 t_t1_6_16 >= -2
 andgate_213_operators: -1 t_x5_16 -1 t_x5_18 -1 t_x16_18 +3 t_t5_16_18 <= +0
 andgate_213_add: -1 t_x5_16 -1 t_x5_18 -1 t_x16_18 +1 t_t5_16_18 >= -2
 andgate_620_operators: -1 t_x1_13 -1 t_x1_14 -1 t_x13_14 +3 t_t1_13_14 <= +0
 andgate_620_add: -1 t_x1_13 -1 t_x1_14 -1 t_x13_14 +1 t_t1_13_14 >= -2
 andgate_459_operators: -1 t_x3_18 -1 t_x5_18 -1 t_t0_3_5 +3 t_t3_5_18 <= +0
 andgate_459_add: -1 t_x3_18 -1 t_x5_18 -1 t_t0_3_5 +1 t_t3_5_18 >= -2
 andgate_194_operators: -1 t_x6_15 -1 t_x8_15 -1 t_t0_6_8 +3 t_t6_8_15 <= +0
 andgate_194_add: -1 t_x6_15 -1 t_x8_15 -1 t_t0_6_8 +1 t_t6_8_15 >= -2
 andgate_678_operators: -1 t_x1_12 -1 t_x6_12 -1 t_t0_1_6 +3 t_t1_6_12 <= +0
 andgate_678_add: -1 t_x1_12 -1 t_x6_12 -1 t_t0_1_6 +1 t_t1_6_12 >= -2
 andgate_646_operators: -1 t_x1_9 -1 t_x1_14 -1 t_x9_14 +3 t_t1_9_14 <= +0
 andgate_646_add: -1 t_x1_9 -1 t_x1_14 -1 t_x9_14 +1 t_t1_9_14 >= -2
 andgate_676_operators: -1 t_x1_14 -1 t_x6_14 -1 t_t0_1_6 +3 t_t1_6_14 <= +0
 andgate_676_add: -1 t_x1_14 -1 t_x6_14 -1 t_t0_1_6 +1 t_t1_6_14 >= -2
 andgate_56_operators: -1 t_x8_13 -1 t_x8_18 -1 t_x13_18 +3 t_t8_13_18 <= +0
 andgate_56_add: -1 t_x8_13 -1 t_x8_18 -1 t_x13_18 +1 t_t8_13_18 >= -2
 andgate_580_operators: -1 t_x2_15 -1 t_x4_15 -1 t_t0_2_4 +3 t_t2_4_15 <= +0
 andgate_580_add: -1 t_x2_15 -1 t_x4_15 -1 t_t0_2_4 +1 t_t2_4_15 >= -2
 andgate_355_operators: -1 t_t0_4_7 -1 t_t0_4_8 -1 t_t0_7_8 +3 t_t4_7_8 <= +0
 andgate_355_add: -1 t_t0_4_7 -1 t_t0_4_8 -1 t_t0_7_8 +1 t_t4_7_8 >= -2
 andgate_446_operators: -1 t_t0_3_7 -1 t_t0_3_8 -1 t_t0_7_8 +3 t_t3_7_8 <= +0
 andgate_446_add: -1 t_t0_3_7 -1 t_t0_3_8 -1 t_t0_7_8 +1 t_t3_7_8 >= -2
 andgate_139_operators: -1 t_x7_15 -1 t_x8_15 -1 t_t0_7_8 +3 t_t7_8_15 <= +0
 andgate_139_add: -1 t_x7_15 -1 t_x8_15 -1 t_t0_7_8 +1 t_t7_8_15 >= -2
 andgate_140_operators: -1 t_x7_14 -1 t_x8_14 -1 t_t0_7_8 +3 t_t7_8_14 <= +0
 andgate_140_add: -1 t_x7_14 -1 t_x8_14 -1 t_t0_7_8 +1 t_t7_8_14 >= -2
 andgate_691_operators: -1 t_x1_11 -1 t_x5_11 -1 t_t0_1_5 +3 t_t1_5_11 <= +0
 andgate_691_add: -1 t_x1_11 -1 t_x5_11 -1 t_t0_1_5 +1 t_t1_5_11 >= -2
 andgate_219_operators: -1 t_x5_14 -1 t_x5_17 -1 t_x14_17 +3 t_t5_14_17 <= +0
 andgate_219_add: -1 t_x5_14 -1 t_x5_17 -1 t_x14_17 +1 t_t5_14_17 >= -2
 andgate_143_operators: -1 t_x7_11 -1 t_x8_11 -1 t_t0_7_8 +3 t_t7_8_11 <= +0
 andgate_143_add: -1 t_x7_11 -1 t_x8_11 -1 t_t0_7_8 +1 t_t7_8_11 >= -2
 andgate_241_operators: -1 t_x5_10 -1 t_x5_17 -1 t_x10_17 +3 t_t5_10_17 <= +0
 andgate_241_add: -1 t_x5_10 -1 t_x5_17 -1 t_x10_17 +1 t_t5_10_17 >= -2
 andgate_469_operators: -1 t_t0_3_5 -1 t_t0_3_8 -1 t_t0_5_8 +3 t_t3_5_8 <= +0
 andgate_469_add: -1 t_t0_3_5 -1 t_t0_3_8 -1 t_t0_5_8 +1 t_t3_5_8 >= -2
 andgate_145_operators: -1 t_x7_9 -1 t_x8_9 -1 t_t0_7_8 +3 t_t7_8_9 <= +0
 andgate_145_add: -1 t_x7_9 -1 t_x8_9 -1 t_t0_7_8 +1 t_t7_8_9 >= -2
 andgate_719_operators: -1 t_x1_10 -1 t_x3_10 -1 t_t0_1_3 +3 t_t1_3_10 <= +0
 andgate_719_add: -1 t_x1_10 -1 t_x3_10 -1 t_t0_1_3 +1 t_t1_3_10 >= -2
 andgate_665_operators: -1 t_x1_14 -1 t_x7_14 -1 t_t0_1_7 +3 t_t1_7_14 <= +0
 andgate_665_add: -1 t_x1_14 -1 t_x7_14 -1 t_t0_1_7 +1 t_t1_7_14 >= -2
 andgate_141_operators: -1 t_x7_13 -1 t_x8_13 -1 t_t0_7_8 +3 t_t7_8_13 <= +0
 andgate_141_add: -1 t_x7_13 -1 t_x8_13 -1 t_t0_7_8 +1 t_t7_8_13 >= -2
 andgate_378_operators: -1 t_t0_4_5 -1 t_t0_4_8 -1 t_t0_5_8 +3 t_t4_5_8 <= +0
 andgate_378_add: -1 t_t0_4_5 -1 t_t0_4_8 -1 t_t0_5_8 +1 t_t4_5_8 >= -2
 andgate_152_operators: -1 t_x6_14 -1 t_x6_18 -1 t_x14_18 +3 t_t6_14_18 <= +0
 andgate_152_add: -1 t_x6_14 -1 t_x6_18 -1 t_x14_18 +1 t_t6_14_18 >= -2
 andgate_572_operators: -1 t_x2_10 -1 t_x5_10 -1 t_t0_2_5 +3 t_t2_5_10 <= +0
 andgate_572_add: -1 t_x2_10 -1 t_x5_10 -1 t_t0_2_5 +1 t_t2_5_10 >= -2
 andgate_568_operators: -1 t_x2_14 -1 t_x5_14 -1 t_t0_2_5 +3 t_t2_5_14 <= +0
 andgate_568_add: -1 t_x2_14 -1 t_x5_14 -1 t_t0_2_5 +1 t_t2_5_14 >= -2
 andgate_576_operators: -1 t_t0_2_5 -1 t_t0_2_6 -1 t_t0_5_6 +3 t_t2_5_6 <= +0
 andgate_576_add: -1 t_t0_2_5 -1 t_t0_2_6 -1 t_t0_5_6 +1 t_t2_5_6 >= -2
 andgate_571_operators: -1 t_x2_11 -1 t_x5_11 -1 t_t0_2_5 +3 t_t2_5_11 <= +0
 andgate_571_add: -1 t_x2_11 -1 t_x5_11 -1 t_t0_2_5 +1 t_t2_5_11 >= -2
 andgate_604_operators: -1 t_t0_2_3 -1 t_t0_2_5 -1 t_t0_3_5 +3 t_t2_3_5 <= +0
 andgate_604_add: -1 t_t0_2_3 -1 t_t0_2_5 -1 t_t0_3_5 +1 t_t2_3_5 >= -2
 andgate_569_operators: -1 t_x2_13 -1 t_x5_13 -1 t_t0_2_5 +3 t_t2_5_13 <= +0
 andgate_569_add: -1 t_x2_13 -1 t_x5_13 -1 t_t0_2_5 +1 t_t2_5_13 >= -2
 andgate_565_operators: -1 t_x2_17 -1 t_x5_17 -1 t_t0_2_5 +3 t_t2_5_17 <= +0
 andgate_565_add: -1 t_x2_17 -1 t_x5_17 -1 t_t0_2_5 +1 t_t2_5_17 >= -2
 andgate_566_operators: -1 t_x2_16 -1 t_x5_16 -1 t_t0_2_5 +3 t_t2_5_16 <= +0
 andgate_566_add: -1 t_x2_16 -1 t_x5_16 -1 t_t0_2_5 +1 t_t2_5_16 >= -2
 andgate_570_operators: -1 t_x2_12 -1 t_x5_12 -1 t_t0_2_5 +3 t_t2_5_12 <= +0
 andgate_570_add: -1 t_x2_12 -1 t_x5_12 -1 t_t0_2_5 +1 t_t2_5_12 >= -2
 andgate_590_operators: -1 t_t0_2_4 -1 t_t0_2_5 -1 t_t0_4_5 +3 t_t2_4_5 <= +0
 andgate_590_add: -1 t_t0_2_4 -1 t_t0_2_5 -1 t_t0_4_5 +1 t_t2_4_5 >= -2
 andgate_563_operators: -1 t_t0_2_6 -1 t_t0_2_7 -1 t_t0_6_7 +3 t_t2_6_7 <= +0
 andgate_563_add: -1 t_t0_2_6 -1 t_t0_2_7 -1 t_t0_6_7 +1 t_t2_6_7 >= -2
 andgate_573_operators: -1 t_x2_9 -1 t_x5_9 -1 t_t0_2_5 +3 t_t2_5_9 <= +0
 andgate_573_add: -1 t_x2_9 -1 t_x5_9 -1 t_t0_2_5 +1 t_t2_5_9 >= -2
 andgate_541_operators: -1 t_x2_18 -1 t_x7_18 -1 t_t0_2_7 +3 t_t2_7_18 <= +0
 andgate_541_add: -1 t_x2_18 -1 t_x7_18 -1 t_t0_2_7 +1 t_t2_7_18 >= -2
 andgate_551_operators: -1 t_t0_2_7 -1 t_t0_2_8 -1 t_t0_7_8 +3 t_t2_7_8 <= +0
 andgate_551_add: -1 t_t0_2_7 -1 t_t0_2_8 -1 t_t0_7_8 +1 t_t2_7_8 >= -2
 andgate_588_operators: -1 t_t0_2_4 -1 t_t0_2_7 -1 t_t0_4_7 +3 t_t2_4_7 <= +0
 andgate_588_add: -1 t_t0_2_4 -1 t_t0_2_7 -1 t_t0_4_7 +1 t_t2_4_7 >= -2
 andgate_548_operators: -1 t_x2_11 -1 t_x7_11 -1 t_t0_2_7 +3 t_t2_7_11 <= +0
 andgate_548_add: -1 t_x2_11 -1 t_x7_11 -1 t_t0_2_7 +1 t_t2_7_11 >= -2
 andgate_602_operators: -1 t_t0_2_3 -1 t_t0_2_7 -1 t_t0_3_7 +3 t_t2_3_7 <= +0
 andgate_602_add: -1 t_t0_2_3 -1 t_t0_2_7 -1 t_t0_3_7 +1 t_t2_3_7 >= -2
 andgate_549_operators: -1 t_x2_10 -1 t_x7_10 -1 t_t0_2_7 +3 t_t2_7_10 <= +0
 andgate_549_add: -1 t_x2_10 -1 t_x7_10 -1 t_t0_2_7 +1 t_t2_7_10 >= -2
 andgate_567_operators: -1 t_x2_15 -1 t_x5_15 -1 t_t0_2_5 +3 t_t2_5_15 <= +0
 andgate_567_add: -1 t_x2_15 -1 t_x5_15 -1 t_t0_2_5 +1 t_t2_5_15 >= -2
 andgate_550_operators: -1 t_x2_9 -1 t_x7_9 -1 t_t0_2_7 +3 t_t2_7_9 <= +0
 andgate_550_add: -1 t_x2_9 -1 t_x7_9 -1 t_t0_2_7 +1 t_t2_7_9 >= -2
 andgate_564_operators: -1 t_x2_18 -1 t_x5_18 -1 t_t0_2_5 +3 t_t2_5_18 <= +0
 andgate_564_add: -1 t_x2_18 -1 t_x5_18 -1 t_t0_2_5 +1 t_t2_5_18 >= -2
 andgate_543_operators: -1 t_x2_16 -1 t_x7_16 -1 t_t0_2_7 +3 t_t2_7_16 <= +0
 andgate_543_add: -1 t_x2_16 -1 t_x7_16 -1 t_t0_2_7 +1 t_t2_7_16 >= -2
 andgate_547_operators: -1 t_x2_12 -1 t_x7_12 -1 t_t0_2_7 +3 t_t2_7_12 <= +0
 andgate_547_add: -1 t_x2_12 -1 t_x7_12 -1 t_t0_2_7 +1 t_t2_7_12 >= -2
 andgate_544_operators: -1 t_x2_15 -1 t_x7_15 -1 t_t0_2_7 +3 t_t2_7_15 <= +0
 andgate_544_add: -1 t_x2_15 -1 t_x7_15 -1 t_t0_2_7 +1 t_t2_7_15 >= -2
 andgate_542_operators: -1 t_x2_17 -1 t_x7_17 -1 t_t0_2_7 +3 t_t2_7_17 <= +0
 andgate_542_add: -1 t_x2_17 -1 t_x7_17 -1 t_t0_2_7 +1 t_t2_7_17 >= -2
 andgate_546_operators: -1 t_x2_13 -1 t_x7_13 -1 t_t0_2_7 +3 t_t2_7_13 <= +0
 andgate_546_add: -1 t_x2_13 -1 t_x7_13 -1 t_t0_2_7 +1 t_t2_7_13 >= -2
 andgate_545_operators: -1 t_x2_14 -1 t_x7_14 -1 t_t0_2_7 +3 t_t2_7_14 <= +0
 andgate_545_add: -1 t_x2_14 -1 t_x7_14 -1 t_t0_2_7 +1 t_t2_7_14 >= -2
 andgate_574_operators: -1 t_t0_2_5 -1 t_t0_2_8 -1 t_t0_5_8 +3 t_t2_5_8 <= +0
 andgate_574_add: -1 t_t0_2_5 -1 t_t0_2_8 -1 t_t0_5_8 +1 t_t2_5_8 >= -2
 andgate_677_operators: -1 t_x1_13 -1 t_x6_13 -1 t_t0_1_6 +3 t_t1_6_13 <= +0
 andgate_677_add: -1 t_x1_13 -1 t_x6_13 -1 t_t0_1_6 +1 t_t1_6_13 >= -2
 andgate_679_operators: -1 t_x1_11 -1 t_x6_11 -1 t_t0_1_6 +3 t_t1_6_11 <= +0
 andgate_679_add: -1 t_x1_11 -1 t_x6_11 -1 t_t0_1_6 +1 t_t1_6_11 >= -2
 andgate_672_operators: -1 t_x1_18 -1 t_x6_18 -1 t_t0_1_6 +3 t_t1_6_18 <= +0
 andgate_672_add: -1 t_x1_18 -1 t_x6_18 -1 t_t0_1_6 +1 t_t1_6_18 >= -2
 andgate_710_operators: -1 t_t0_1_4 -1 t_t0_1_5 -1 t_t0_4_5 +3 t_t1_4_5 <= +0
 andgate_710_add: -1 t_t0_1_4 -1 t_t0_1_5 -1 t_t0_4_5 +1 t_t1_4_5 >= -2
 andgate_680_operators: -1 t_x1_10 -1 t_x6_10 -1 t_t0_1_6 +3 t_t1_6_10 <= +0
 andgate_680_add: -1 t_x1_10 -1 t_x6_10 -1 t_t0_1_6 +1 t_t1_6_10 >= -2
 andgate_723_operators: -1 t_t0_1_3 -1 t_t0_1_6 -1 t_t0_3_6 +3 t_t1_3_6 <= +0
 andgate_723_add: -1 t_t0_1_3 -1 t_t0_1_6 -1 t_t0_3_6 +1 t_t1_3_6 >= -2
 andgate_669_operators: -1 t_x1_10 -1 t_x7_10 -1 t_t0_1_7 +3 t_t1_7_10 <= +0
 andgate_669_add: -1 t_x1_10 -1 t_x7_10 -1 t_t0_1_7 +1 t_t1_7_10 >= -2
 andgate_738_operators: -1 t_t0_1_2 -1 t_t0_1_6 -1 t_t0_2_6 +3 t_t1_2_6 <= +0
 andgate_738_add: -1 t_t0_1_2 -1 t_t0_1_6 -1 t_t0_2_6 +1 t_t1_2_6 >= -2
 andgate_391_operators: -1 t_x3_13 -1 t_x3_18 -1 t_x13_18 +3 t_t3_13_18 <= +0
 andgate_391_add: -1 t_x3_13 -1 t_x3_18 -1 t_x13_18 +1 t_t3_13_18 >= -2
 andgate_575_operators: -1 t_t0_2_5 -1 t_t0_2_7 -1 t_t0_5_7 +3 t_t2_5_7 <= +0
 andgate_575_add: -1 t_t0_2_5 -1 t_t0_2_7 -1 t_t0_5_7 +1 t_t2_5_7 >= -2
 andgate_718_operators: -1 t_x1_11 -1 t_x3_11 -1 t_t0_1_3 +3 t_t1_3_11 <= +0
 andgate_718_add: -1 t_x1_11 -1 t_x3_11 -1 t_t0_1_3 +1 t_t1_3_11 >= -2
 andgate_703_operators: -1 t_x1_12 -1 t_x4_12 -1 t_t0_1_4 +3 t_t1_4_12 <= +0
 andgate_703_add: -1 t_x1_12 -1 t_x4_12 -1 t_t0_1_4 +1 t_t1_4_12 >= -2
 andgate_654_operators: -1 t_x1_15 -1 t_x8_15 -1 t_t0_1_8 +3 t_t1_8_15 <= +0
 andgate_654_add: -1 t_x1_15 -1 t_x8_15 -1 t_t0_1_8 +1 t_t1_8_15 >= -2
 andgate_660_operators: -1 t_x1_9 -1 t_x8_9 -1 t_t0_1_8 +3 t_t1_8_9 <= +0
 andgate_660_add: -1 t_x1_9 -1 t_x8_9 -1 t_t0_1_8 +1 t_t1_8_9 >= -2
 andgate_268_operators: -1 t_x5_17 -1 t_x7_17 -1 t_t0_5_7 +3 t_t5_7_17 <= +0
 andgate_268_add: -1 t_x5_17 -1 t_x7_17 -1 t_t0_5_7 +1 t_t5_7_17 >= -2
 andgate_274_operators: -1 t_x5_11 -1 t_x7_11 -1 t_t0_5_7 +3 t_t5_7_11 <= +0
 andgate_274_add: -1 t_x5_11 -1 t_x7_11 -1 t_t0_5_7 +1 t_t5_7_11 >= -2
 andgate_275_operators: -1 t_x5_10 -1 t_x7_10 -1 t_t0_5_7 +3 t_t5_7_10 <= +0
 andgate_275_add: -1 t_x5_10 -1 t_x7_10 -1 t_t0_5_7 +1 t_t5_7_10 >= -2
 andgate_379_operators: -1 t_t0_4_5 -1 t_t0_4_7 -1 t_t0_5_7 +3 t_t4_5_7 <= +0
 andgate_379_add: -1 t_t0_4_5 -1 t_t0_4_7 -1 t_t0_5_7 +1 t_t4_5_7 >= -2
 andgate_271_operators: -1 t_x5_14 -1 t_x7_14 -1 t_t0_5_7 +3 t_t5_7_14 <= +0
 andgate_271_add: -1 t_x5_14 -1 t_x7_14 -1 t_t0_5_7 +1 t_t5_7_14 >= -2
 andgate_270_operators: -1 t_x5_15 -1 t_x7_15 -1 t_t0_5_7 +3 t_t5_7_15 <= +0
 andgate_270_add: -1 t_x5_15 -1 t_x7_15 -1 t_t0_5_7 +1 t_t5_7_15 >= -2
 andgate_470_operators: -1 t_t0_3_5 -1 t_t0_3_7 -1 t_t0_5_7 +3 t_t3_5_7 <= +0
 andgate_470_add: -1 t_t0_3_5 -1 t_t0_3_7 -1 t_t0_5_7 +1 t_t3_5_7 >= -2
 andgate_273_operators: -1 t_x5_12 -1 t_x7_12 -1 t_t0_5_7 +3 t_t5_7_12 <= +0
 andgate_273_add: -1 t_x5_12 -1 t_x7_12 -1 t_t0_5_7 +1 t_t5_7_12 >= -2
 andgate_272_operators: -1 t_x5_13 -1 t_x7_13 -1 t_t0_5_7 +3 t_t5_7_13 <= +0
 andgate_272_add: -1 t_x5_13 -1 t_x7_13 -1 t_t0_5_7 +1 t_t5_7_13 >= -2
 andgate_277_operators: -1 t_t0_5_7 -1 t_t0_5_8 -1 t_t0_7_8 +3 t_t5_7_8 <= +0
 andgate_277_add: -1 t_t0_5_7 -1 t_t0_5_8 -1 t_t0_7_8 +1 t_t5_7_8 >= -2
 andgate_269_operators: -1 t_x5_16 -1 t_x7_16 -1 t_t0_5_7 +3 t_t5_7_16 <= +0
 andgate_269_add: -1 t_x5_16 -1 t_x7_16 -1 t_t0_5_7 +1 t_t5_7_16 >= -2
 andgate_289_operators: -1 t_t0_5_6 -1 t_t0_5_7 -1 t_t0_6_7 +3 t_t5_6_7 <= +0
 andgate_289_add: -1 t_t0_5_6 -1 t_t0_5_7 -1 t_t0_6_7 +1 t_t5_6_7 >= -2
 andgate_267_operators: -1 t_x5_18 -1 t_x7_18 -1 t_t0_5_7 +3 t_t5_7_18 <= +0
 andgate_267_add: -1 t_x5_18 -1 t_x7_18 -1 t_t0_5_7 +1 t_t5_7_18 >= -2
 andgate_276_operators: -1 t_x5_9 -1 t_x7_9 -1 t_t0_5_7 +3 t_t5_7_9 <= +0
 andgate_276_add: -1 t_x5_9 -1 t_x7_9 -1 t_t0_5_7 +1 t_t5_7_9 >= -2
 andgate_696_operators: -1 t_t0_1_5 -1 t_t0_1_6 -1 t_t0_5_6 +3 t_t1_5_6 <= +0
 andgate_696_add: -1 t_t0_1_5 -1 t_t0_1_6 -1 t_t0_5_6 +1 t_t1_5_6 >= -2
 andgate_725_operators: -1 t_t0_1_3 -1 t_t0_1_4 -1 t_t0_3_4 +3 t_t1_3_4 <= +0
 andgate_725_add: -1 t_t0_1_3 -1 t_t0_1_4 -1 t_t0_3_4 +1 t_t1_3_4 >= -2
 andgate_684_operators: -1 t_x1_18 -1 t_x5_18 -1 t_t0_1_5 +3 t_t1_5_18 <= +0
 andgate_684_add: -1 t_x1_18 -1 t_x5_18 -1 t_t0_1_5 +1 t_t1_5_18 >= -2
 andgate_657_operators: -1 t_x1_12 -1 t_x8_12 -1 t_t0_1_8 +3 t_t1_8_12 <= +0
 andgate_657_add: -1 t_x1_12 -1 t_x8_12 -1 t_t0_1_8 +1 t_t1_8_12 >= -2
 andgate_715_operators: -1 t_x1_14 -1 t_x3_14 -1 t_t0_1_3 +3 t_t1_3_14 <= +0
 andgate_715_add: -1 t_x1_14 -1 t_x3_14 -1 t_t0_1_3 +1 t_t1_3_14 >= -2
 andgate_698_operators: -1 t_x1_17 -1 t_x4_17 -1 t_t0_1_4 +3 t_t1_4_17 <= +0
 andgate_698_add: -1 t_x1_17 -1 t_x4_17 -1 t_t0_1_4 +1 t_t1_4_17 >= -2
 andgate_721_operators: -1 t_t0_1_3 -1 t_t0_1_8 -1 t_t0_3_8 +3 t_t1_3_8 <= +0
 andgate_721_add: -1 t_t0_1_3 -1 t_t0_1_8 -1 t_t0_3_8 +1 t_t1_3_8 >= -2
 andgate_707_operators: -1 t_t0_1_4 -1 t_t0_1_8 -1 t_t0_4_8 +3 t_t1_4_8 <= +0
 andgate_707_add: -1 t_t0_1_4 -1 t_t0_1_8 -1 t_t0_4_8 +1 t_t1_4_8 >= -2
 andgate_700_operators: -1 t_x1_15 -1 t_x4_15 -1 t_t0_1_4 +3 t_t1_4_15 <= +0
 andgate_700_add: -1 t_x1_15 -1 t_x4_15 -1 t_t0_1_4 +1 t_t1_4_15 >= -2
 andgate_717_operators: -1 t_x1_12 -1 t_x3_12 -1 t_t0_1_3 +3 t_t1_3_12 <= +0
 andgate_717_add: -1 t_x1_12 -1 t_x3_12 -1 t_t0_1_3 +1 t_t1_3_12 >= -2
 andgate_713_operators: -1 t_x1_16 -1 t_x3_16 -1 t_t0_1_3 +3 t_t1_3_16 <= +0
 andgate_713_add: -1 t_x1_16 -1 t_x3_16 -1 t_t0_1_3 +1 t_t1_3_16 >= -2
 andgate_702_operators: -1 t_x1_13 -1 t_x4_13 -1 t_t0_1_4 +3 t_t1_4_13 <= +0
 andgate_702_add: -1 t_x1_13 -1 t_x4_13 -1 t_t0_1_4 +1 t_t1_4_13 >= -2
 andgate_688_operators: -1 t_x1_14 -1 t_x5_14 -1 t_t0_1_5 +3 t_t1_5_14 <= +0
 andgate_688_add: -1 t_x1_14 -1 t_x5_14 -1 t_t0_1_5 +1 t_t1_5_14 >= -2
 andgate_653_operators: -1 t_x1_16 -1 t_x8_16 -1 t_t0_1_8 +3 t_t1_8_16 <= +0
 andgate_653_add: -1 t_x1_16 -1 t_x8_16 -1 t_t0_1_8 +1 t_t1_8_16 >= -2
 andgate_711_operators: -1 t_x1_18 -1 t_x3_18 -1 t_t0_1_3 +3 t_t1_3_18 <= +0
 andgate_711_add: -1 t_x1_18 -1 t_x3_18 -1 t_t0_1_3 +1 t_t1_3_18 >= -2
 andgate_716_operators: -1 t_x1_13 -1 t_x3_13 -1 t_t0_1_3 +3 t_t1_3_13 <= +0
 andgate_716_add: -1 t_x1_13 -1 t_x3_13 -1 t_t0_1_3 +1 t_t1_3_13 >= -2
 andgate_667_operators: -1 t_x1_12 -1 t_x7_12 -1 t_t0_1_7 +3 t_t1_7_12 <= +0
 andgate_667_add: -1 t_x1_12 -1 t_x7_12 -1 t_t0_1_7 +1 t_t1_7_12 >= -2
 andgate_686_operators: -1 t_x1_16 -1 t_x5_16 -1 t_t0_1_5 +3 t_t1_5_16 <= +0
 andgate_686_add: -1 t_x1_16 -1 t_x5_16 -1 t_t0_1_5 +1 t_t1_5_16 >= -2
 andgate_122_operators: -1 t_x7_10 -1 t_x7_15 -1 t_x10_15 +3 t_t7_10_15 <= +0
 andgate_122_add: -1 t_x7_10 -1 t_x7_15 -1 t_x10_15 +1 t_t7_10_15 >= -2
 andgate_796_operators: -1 t_x10_15 -1 t_x10_18 -1 t_x15_18 +3 t_t10_15_18 <= +0
 andgate_796_add: -1 t_x10_15 -1 t_x10_18 -1 t_x15_18 +1 t_t10_15_18 >= -2
 andgate_243_operators: -1 t_x5_10 -1 t_x5_15 -1 t_x10_15 +3 t_t5_10_15 <= +0
 andgate_243_add: -1 t_x5_10 -1 t_x5_15 -1 t_x10_15 +1 t_t5_10_15 >= -2
 andgate_0_operators: -1 t_x10_12 -1 t_x10_15 -1 t_x12_15 +3 t_t10_12_15 <= +0
 andgate_0_add: -1 t_x10_12 -1 t_x10_15 -1 t_x12_15 +1 t_t10_12_15 >= -2
 andgate_77_operators: -1 t_x8_10 -1 t_x8_15 -1 t_x10_15 +3 t_t8_10_15 <= +0
 andgate_77_add: -1 t_x8_10 -1 t_x8_15 -1 t_x10_15 +1 t_t8_10_15 >= -2
 andgate_321_operators: -1 t_x4_10 -1 t_x4_15 -1 t_x10_15 +3 t_t4_10_15 <= +0
 andgate_321_add: -1 t_x4_10 -1 t_x4_15 -1 t_x10_15 +1 t_t4_10_15 >= -2
 andgate_808_operators: -1 t_x10_15 -1 t_x10_17 -1 t_x15_17 +3 t_t10_15_17 <= +0
 andgate_808_add: -1 t_x10_15 -1 t_x10_17 -1 t_x15_17 +1 t_t10_15_17 >= -2
 andgate_517_operators: -1 t_x2_10 -1 t_x2_15 -1 t_x10_15 +3 t_t2_10_15 <= +0
 andgate_517_add: -1 t_x2_10 -1 t_x2_15 -1 t_x10_15 +1 t_t2_10_15 >= -2
 andgate_177_operators: -1 t_x6_10 -1 t_x6_15 -1 t_x10_15 +3 t_t6_10_15 <= +0
 andgate_177_add: -1 t_x6_10 -1 t_x6_15 -1 t_x10_15 +1 t_t6_10_15 >= -2
 andgate_637_operators: -1 t_x1_10 -1 t_x1_15 -1 t_x10_15 +3 t_t1_10_15 <= +0
 andgate_637_add: -1 t_x1_10 -1 t_x1_15 -1 t_x10_15 +1 t_t1_10_15 >= -2
 andgate_41_operators: -1 t_x9_10 -1 t_x9_15 -1 t_x10_15 +3 t_t9_10_15 <= +0
 andgate_41_add: -1 t_x9_10 -1 t_x9_15 -1 t_x10_15 +1 t_t9_10_15 >= -2
 andgate_6_operators: -1 t_x10_11 -1 t_x10_15 -1 t_x11_15 +3 t_t10_11_15 <= +0
 andgate_6_add: -1 t_x10_11 -1 t_x10_15 -1 t_x11_15 +1 t_t10_11_15 >= -2
 andgate_412_operators: -1 t_x3_10 -1 t_x3_15 -1 t_x10_15 +3 t_t3_10_15 <= +0
 andgate_412_add: -1 t_x3_10 -1 t_x3_15 -1 t_x10_15 +1 t_t3_10_15 >= -2
 andgate_810_operators: -1 t_x10_15 -1 t_x10_16 -1 t_x15_16 +3 t_t10_15_16 <= +0
 andgate_810_add: -1 t_x10_15 -1 t_x10_16 -1 t_x15_16 +1 t_t10_15_16 >= -2
 andgate_25_operators: -1 t_x9_12 -1 t_x9_18 -1 t_x12_18 +3 t_t9_12_18 <= +0
 andgate_25_add: -1 t_x9_12 -1 t_x9_18 -1 t_x12_18 +1 t_t9_12_18 >= -2
 andgate_127_operators: -1 t_x7_9 -1 t_x7_18 -1 t_x9_18 +3 t_t7_9_18 <= +0
 andgate_127_add: -1 t_x7_9 -1 t_x7_18 -1 t_x9_18 +1 t_t7_9_18 >= -2
 andgate_248_operators: -1 t_x5_9 -1 t_x5_18 -1 t_x9_18 +3 t_t5_9_18 <= +0
 andgate_248_add: -1 t_x5_9 -1 t_x5_18 -1 t_x9_18 +1 t_t5_9_18 >= -2
 andgate_326_operators: -1 t_x4_9 -1 t_x4_18 -1 t_x9_18 +3 t_t4_9_18 <= +0
 andgate_326_add: -1 t_x4_9 -1 t_x4_18 -1 t_x9_18 +1 t_t4_9_18 >= -2
 andgate_522_operators: -1 t_x2_9 -1 t_x2_18 -1 t_x9_18 +3 t_t2_9_18 <= +0
 andgate_522_add: -1 t_x2_9 -1 t_x2_18 -1 t_x9_18 +1 t_t2_9_18 >= -2
 andgate_13_operators: -1 t_x9_15 -1 t_x9_18 -1 t_x15_18 +3 t_t9_15_18 <= +0
 andgate_13_add: -1 t_x9_15 -1 t_x9_18 -1 t_x15_18 +1 t_t9_15_18 >= -2
 andgate_417_operators: -1 t_x3_9 -1 t_x3_18 -1 t_x9_18 +3 t_t3_9_18 <= +0
 andgate_417_add: -1 t_x3_9 -1 t_x3_18 -1 t_x9_18 +1 t_t3_9_18 >= -2
 andgate_31_operators: -1 t_x9_11 -1 t_x9_18 -1 t_x11_18 +3 t_t9_11_18 <= +0
 andgate_31_add: -1 t_x9_11 -1 t_x9_18 -1 t_x11_18 +1 t_t9_11_18 >= -2
 andgate_82_operators: -1 t_x8_9 -1 t_x8_18 -1 t_x9_18 +3 t_t8_9_18 <= +0
 andgate_82_add: -1 t_x8_9 -1 t_x8_18 -1 t_x9_18 +1 t_t8_9_18 >= -2
 andgate_642_operators: -1 t_x1_9 -1 t_x1_18 -1 t_x9_18 +3 t_t1_9_18 <= +0
 andgate_642_add: -1 t_x1_9 -1 t_x1_18 -1 t_x9_18 +1 t_t1_9_18 >= -2
 andgate_38_operators: -1 t_x9_10 -1 t_x9_18 -1 t_x10_18 +3 t_t9_10_18 <= +0
 andgate_38_add: -1 t_x9_10 -1 t_x9_18 -1 t_x10_18 +1 t_t9_10_18 >= -2
 andgate_11_operators: -1 t_x9_16 -1 t_x9_18 -1 t_x16_18 +3 t_t9_16_18 <= +0
 andgate_11_add: -1 t_x9_16 -1 t_x9_18 -1 t_x16_18 +1 t_t9_16_18 >= -2
 andgate_20_operators: -1 t_x9_13 -1 t_x9_18 -1 t_x13_18 +3 t_t9_13_18 <= +0
 andgate_20_add: -1 t_x9_13 -1 t_x9_18 -1 t_x13_18 +1 t_t9_13_18 >= -2
 andgate_182_operators: -1 t_x6_9 -1 t_x6_18 -1 t_x9_18 +3 t_t6_9_18 <= +0
 andgate_182_add: -1 t_x6_9 -1 t_x6_18 -1 t_x9_18 +1 t_t6_9_18 >= -2
 andgate_16_operators: -1 t_x9_14 -1 t_x9_18 -1 t_x14_18 +3 t_t9_14_18 <= +0
 andgate_16_add: -1 t_x9_14 -1 t_x9_18 -1 t_x14_18 +1 t_t9_14_18 >= -2
 andgate_413_operators: -1 t_x3_10 -1 t_x3_14 -1 t_x10_14 +3 t_t3_10_14 <= +0
 andgate_413_add: -1 t_x3_10 -1 t_x3_14 -1 t_x10_14 +1 t_t3_10_14 >= -2
 andgate_322_operators: -1 t_x4_10 -1 t_x4_14 -1 t_x10_14 +3 t_t4_10_14 <= +0
 andgate_322_add: -1 t_x4_10 -1 t_x4_14 -1 t_x10_14 +1 t_t4_10_14 >= -2
 andgate_244_operators: -1 t_x5_10 -1 t_x5_14 -1 t_x10_14 +3 t_t5_10_14 <= +0
 andgate_244_add: -1 t_x5_10 -1 t_x5_14 -1 t_x10_14 +1 t_t5_10_14 >= -2
 andgate_7_operators: -1 t_x10_11 -1 t_x10_14 -1 t_x11_14 +3 t_t10_11_14 <= +0
 andgate_7_add: -1 t_x10_11 -1 t_x10_14 -1 t_x11_14 +1 t_t10_11_14 >= -2
 andgate_78_operators: -1 t_x8_10 -1 t_x8_14 -1 t_x10_14 +3 t_t8_10_14 <= +0
 andgate_78_add: -1 t_x8_10 -1 t_x8_14 -1 t_x10_14 +1 t_t8_10_14 >= -2
 andgate_123_operators: -1 t_x7_10 -1 t_x7_14 -1 t_x10_14 +3 t_t7_10_14 <= +0
 andgate_123_add: -1 t_x7_10 -1 t_x7_14 -1 t_x10_14 +1 t_t7_10_14 >= -2
 andgate_812_operators: -1 t_x10_14 -1 t_x10_18 -1 t_x14_18 +3 t_t10_14_18 <= +0
 andgate_812_add: -1 t_x10_14 -1 t_x10_18 -1 t_x14_18 +1 t_t10_14_18 >= -2
 andgate_42_operators: -1 t_x9_10 -1 t_x9_14 -1 t_x10_14 +3 t_t9_10_14 <= +0
 andgate_42_add: -1 t_x9_10 -1 t_x9_14 -1 t_x10_14 +1 t_t9_10_14 >= -2
 andgate_1_operators: -1 t_x10_12 -1 t_x10_14 -1 t_x12_14 +3 t_t10_12_14 <= +0
 andgate_1_add: -1 t_x10_12 -1 t_x10_14 -1 t_x12_14 +1 t_t10_12_14 >= -2
 andgate_742_operators: -1 t_x10_14 -1 t_x10_16 -1 t_x14_16 +3 t_t10_14_16 <= +0
 andgate_742_add: -1 t_x10_14 -1 t_x10_16 -1 t_x14_16 +1 t_t10_14_16 >= -2
 andgate_518_operators: -1 t_x2_10 -1 t_x2_14 -1 t_x10_14 +3 t_t2_10_14 <= +0
 andgate_518_add: -1 t_x2_10 -1 t_x2_14 -1 t_x10_14 +1 t_t2_10_14 >= -2
 andgate_814_operators: -1 t_x10_14 -1 t_x10_17 -1 t_x14_17 +3 t_t10_14_17 <= +0
 andgate_814_add: -1 t_x10_14 -1 t_x10_17 -1 t_x14_17 +1 t_t10_14_17 >= -2
 andgate_178_operators: -1 t_x6_10 -1 t_x6_14 -1 t_x10_14 +3 t_t6_10_14 <= +0
 andgate_178_add: -1 t_x6_10 -1 t_x6_14 -1 t_x10_14 +1 t_t6_10_14 >= -2
 andgate_638_operators: -1 t_x1_10 -1 t_x1_14 -1 t_x10_14 +3 t_t1_10_14 <= +0
 andgate_638_add: -1 t_x1_10 -1 t_x1_14 -1 t_x10_14 +1 t_t1_10_14 >= -2
 andgate_748_operators: -1 t_x10_13 -1 t_x10_14 -1 t_x13_14 +3 t_t10_13_14 <= +0
 andgate_748_add: -1 t_x10_13 -1 t_x10_14 -1 t_x13_14 +1 t_t10_13_14 >= -2
 andgate_743_operators: -1 t_x10_14 -1 t_x10_15 -1 t_x14_15 +3 t_t10_14_15 <= +0
 andgate_743_add: -1 t_x10_14 -1 t_x10_15 -1 t_x14_15 +1 t_t10_14_15 >= -2
 andgate_32_operators: -1 t_x9_11 -1 t_x9_17 -1 t_x11_17 +3 t_t9_11_17 <= +0
 andgate_32_add: -1 t_x9_11 -1 t_x9_17 -1 t_x11_17 +1 t_t9_11_17 >= -2
 andgate_249_operators: -1 t_x5_9 -1 t_x5_17 -1 t_x9_17 +3 t_t5_9_17 <= +0
 andgate_249_add: -1 t_x5_9 -1 t_x5_17 -1 t_x9_17 +1 t_t5_9_17 >= -2
 andgate_643_operators: -1 t_x1_9 -1 t_x1_17 -1 t_x9_17 +3 t_t1_9_17 <= +0
 andgate_643_add: -1 t_x1_9 -1 t_x1_17 -1 t_x9_17 +1 t_t1_9_17 >= -2
 andgate_183_operators: -1 t_x6_9 -1 t_x6_17 -1 t_x9_17 +3 t_t6_9_17 <= +0
 andgate_183_add: -1 t_x6_9 -1 t_x6_17 -1 t_x9_17 +1 t_t6_9_17 >= -2
 andgate_523_operators: -1 t_x2_9 -1 t_x2_17 -1 t_x9_17 +3 t_t2_9_17 <= +0
 andgate_523_add: -1 t_x2_9 -1 t_x2_17 -1 t_x9_17 +1 t_t2_9_17 >= -2
 andgate_83_operators: -1 t_x8_9 -1 t_x8_17 -1 t_x9_17 +3 t_t8_9_17 <= +0
 andgate_83_add: -1 t_x8_9 -1 t_x8_17 -1 t_x9_17 +1 t_t8_9_17 >= -2
 andgate_128_operators: -1 t_x7_9 -1 t_x7_17 -1 t_x9_17 +3 t_t7_9_17 <= +0
 andgate_128_add: -1 t_x7_9 -1 t_x7_17 -1 t_x9_17 +1 t_t7_9_17 >= -2
 andgate_26_operators: -1 t_x9_12 -1 t_x9_17 -1 t_x12_17 +3 t_t9_12_17 <= +0
 andgate_26_add: -1 t_x9_12 -1 t_x9_17 -1 t_x12_17 +1 t_t9_12_17 >= -2
 andgate_418_operators: -1 t_x3_9 -1 t_x3_17 -1 t_x9_17 +3 t_t3_9_17 <= +0
 andgate_418_add: -1 t_x3_9 -1 t_x3_17 -1 t_x9_17 +1 t_t3_9_17 >= -2
 andgate_21_operators: -1 t_x9_13 -1 t_x9_17 -1 t_x13_17 +3 t_t9_13_17 <= +0
 andgate_21_add: -1 t_x9_13 -1 t_x9_17 -1 t_x13_17 +1 t_t9_13_17 >= -2
 andgate_14_operators: -1 t_x9_15 -1 t_x9_17 -1 t_x15_17 +3 t_t9_15_17 <= +0
 andgate_14_add: -1 t_x9_15 -1 t_x9_17 -1 t_x15_17 +1 t_t9_15_17 >= -2
 andgate_12_operators: -1 t_x9_16 -1 t_x9_17 -1 t_x16_17 +3 t_t9_16_17 <= +0
 andgate_12_add: -1 t_x9_16 -1 t_x9_17 -1 t_x16_17 +1 t_t9_16_17 >= -2
 andgate_17_operators: -1 t_x9_14 -1 t_x9_17 -1 t_x14_17 +3 t_t9_14_17 <= +0
 andgate_17_add: -1 t_x9_14 -1 t_x9_17 -1 t_x14_17 +1 t_t9_14_17 >= -2
 andgate_39_operators: -1 t_x9_10 -1 t_x9_17 -1 t_x10_17 +3 t_t9_10_17 <= +0
 andgate_39_add: -1 t_x9_10 -1 t_x9_17 -1 t_x10_17 +1 t_t9_10_17 >= -2
 andgate_327_operators: -1 t_x4_9 -1 t_x4_17 -1 t_x9_17 +3 t_t4_9_17 <= +0
 andgate_327_add: -1 t_x4_9 -1 t_x4_17 -1 t_x9_17 +1 t_t4_9_17 >= -2
 andgate_10_operators: -1 t_x9_17 -1 t_x9_18 -1 t_x17_18 +3 t_t9_17_18 <= +0
 andgate_10_add: -1 t_x9_17 -1 t_x9_18 -1 t_x17_18 +1 t_t9_17_18 >= -2
 k3deg6: +1 t_t0_1_6 +1 t_t0_2_6 +1 t_t0_3_6 +1 t_t0_4_6 +1 t_t0_5_6 +1 t_t0_6_7 +1 t_t0_6_8 +1 t_t1_2_6
  +1 t_t1_3_6 +1 t_t1_4_6 +1 t_t1_5_6 +1 t_t1_6_7 +1 t_t1_6_8 +1 t_t1_6_9 +1 t_t1_6_10 +1 t_t1_6_11 +1 t_t1_6_12
  +1 t_t1_6_13 +1 t_t1_6_14 +1 t_t1_6_15 +1 t_t1_6_16 +1 t_t1_6_17 +1 t_t1_6_18 +1 t_t2_3_6 +1 t_t2_4_6
  +1 t_t2_5_6 +1 t_t2_6_7 +1 t_t2_6_8 +1 t_t2_6_9 +1 t_t2_6_10 +1 t_t2_6_11 +1 t_t2_6_12 +1 t_t2_6_13
  +1 t_t2_6_14 +1 t_t2_6_15 +1 t_t2_6_16 +1 t_t2_6_17 +1 t_t2_6_18 +1 t_t3_4_6 +1 t_t3_5_6 +1 t_t3_6_7
  +1 t_t3_6_8 +1 t_t3_6_9 +1 t_t3_6_10 +1 t_t3_6_11 +1 t_t3_6_12 +1 t_t3_6_13 +1 t_t3_6_14 +1 t_t3_6_15
  +1 t_t3_6_16 +1 t_t3_6_17 +1 t_t3_6_18 +1 t_t4_5_6 +1 t_t4_6_7 +1 t_t4_6_8 +1 t_t4_6_9 +1 t_t4_6_10
  +1 t_t4_6_11 +1 t_t4_6_12 +1 t_t4_6_13 +1 t_t4_6_14 +1 t_t4_6_15 +1 t_t4_6_16 +1 t_t4_6_17 +1 t_t4_6_18
  +1 t_t5_6_7 +1 t_t5_6_8 +1 t_t5_6_9 +1 t_t5_6_10 +1 t_t5_6_11 +1 t_t5_6_12 +1 t_t5_6_13 +1 t_t5_6_14
  +1 t_t5_6_15 +1 t_t5_6_16 +1 t_t5_6_17 +1 t_t5_6_18 +1 t_t6_7_8 +1 t_t6_7_9 +1 t_t6_7_10 +1 t_t6_7_11
  +1 t_t6_7_12 +1 t_t6_7_13 +1 t_t6_7_14 +1 t_t6_7_15 +1 t_t6_7_16 +1 t_t6_7_17 +1 t_t6_7_18 +1 t_t6_8_9
  +1 t_t6_8_10 +1 t_t6_8_11 +1 t_t6_8_12 +1 t_t6_8_13 +1 t_t6_8_14 +1 t_t6_8_15 +1 t_t6_8_16 +1 t_t6_8_17
  +1 t_t6_8_18 +1 t_t6_9_10 +1 t_t6_9_11 +1 t_t6_9_12 +1 t_t6_9_13 +1 t_t6_9_14 +1 t_t6_9_15 +1 t_t6_9_16
  +1 t_t6_9_17 +1 t_t6_9_18 +1 t_t6_10_11 +1 t_t6_10_12 +1 t_t6_10_13 +1 t_t6_10_14 +1 t_t6_10_15 +1 t_t6_10_16
  +1 t_t6_10_17 +1 t_t6_10_18 +1 t_t6_11_12 +1 t_t6_11_13 +1 t_t6_11_14 +1 t_t6_11_15 +1 t_t6_11_16 +1 t_t6_11_17
  +1 t_t6_11_18 +1 t_t6_12_13 +1 t_t6_12_14 +1 t_t6_12_15 +1 t_t6_12_16 +1 t_t6_12_17 +1 t_t6_12_18 +1 t_t6_13_14
  +1 t_t6_13_15 +1 t_t6_13_16 +1 t_t6_13_17 +1 t_t6_13_18 +1 t_t6_14_15 +1 t_t6_14_16 +1 t_t6_14_17 +1 t_t6_14_18
  +1 t_t6_15_16 +1 t_t6_15_17 +1 t_t6_15_18 +1 t_t6_16_17 +1 t_t6_16_18 +1 t_t6_17_18 -1 t_d6_shift = +5
 deg1: +1 t_x1_9 +1 t_x1_10 +1 t_x1_11 +1 t_x1_12 +1 t_x1_13 +1 t_x1_14 +1 t_x1_15 +1 t_x1_16 +1 t_x1_17
  +1 t_x1_18 +1 t_t0_1_2 +1 t_t0_1_3 +1 t_t0_1_4 +1 t_t0_1_5 +1 t_t0_1_6 +1 t_t0_1_7 +1 t_t0_1_8 = +7
 deg2: +1 t_x2_9 +1 t_x2_10 +1 t_x2_11 +1 t_x2_12 +1 t_x2_13 +1 t_x2_14 +1 t_x2_15 +1 t_x2_16 +1 t_x2_17
  +1 t_x2_18 +1 t_t0_1_2 +1 t_t0_2_3 +1 t_t0_2_4 +1 t_t0_2_5 +1 t_t0_2_6 +1 t_t0_2_7 +1 t_t0_2_8 = +7
 deg3: +1 t_x3_9 +1 t_x3_10 +1 t_x3_11 +1 t_x3_12 +1 t_x3_13 +1 t_x3_14 +1 t_x3_15 +1 t_x3_16 +1 t_x3_17
  +1 t_x3_18 +1 t_t0_1_3 +1 t_t0_2_3 +1 t_t0_3_4 +1 t_t0_3_5 +1 t_t0_3_6 +1 t_t0_3_7 +1 t_t0_3_8 = +7
 k3deg5: +1 t_t0_1_5 +1 t_t0_2_5 +1 t_t0_3_5 +1 t_t0_4_5 +1 t_t0_5_6 +1 t_t0_5_7 +1 t_t0_5_8 +1 t_t1_2_5
  +1 t_t1_3_5 +1 t_t1_4_5 +1 t_t1_5_6 +1 t_t1_5_7 +1 t_t1_5_8 +1 t_t1_5_9 +1 t_t1_5_10 +1 t_t1_5_11 +1 t_t1_5_12
  +1 t_t1_5_13 +1 t_t1_5_14 +1 t_t1_5_15 +1 t_t1_5_16 +1 t_t1_5_17 +1 t_t1_5_18 +1 t_t2_3_5 +1 t_t2_4_5
  +1 t_t2_5_6 +1 t_t2_5_7 +1 t_t2_5_8 +1 t_t2_5_9 +1 t_t2_5_10 +1 t_t2_5_11 +1 t_t2_5_12 +1 t_t2_5_13
  +1 t_t2_5_14 +1 t_t2_5_15 +1 t_t2_5_16 +1 t_t2_5_17 +1 t_t2_5_18 +1 t_t3_4_5 +1 t_t3_5_6 +1 t_t3_5_7
  +1 t_t3_5_8 +1 t_t3_5_9 +1 t_t3_5_10 +1 t_t3_5_11 +1 t_t3_5_12 +1 t_t3_5_13 +1 t_t3_5_14 +1 t_t3_5_15
  +1 t_t3_5_16 +1 t_t3_5_17 +1 t_t3_5_18 +1 t_t4_5_6 +1 t_t4_5_7 +1 t_t4_5_8 +1 t_t4_5_9 +1 t_t4_5_10
  +1 t_t4_5_11 +1 t_t4_5_12 +1 t_t4_5_13 +1 t_t4_5_14 +1 t_t4_5_15 +1 t_t4_5_16 +1 t_t4_5_17 +1 t_t4_5_18
  +1 t_t5_6_7 +1 t_t5_6_8 +1 t_t5_6_9 +1 t_t5_6_10 +1 t_t5_6_11 +1 t_t5_6_12 +1 t_t5_6_13 +1 t_t5_6_14
  +1 t_t5_6_15 +1 t_t5_6_16 +1 t_t5_6_17 +1 t_t5_6_18 +1 t_t5_7_8 +1 t_t5_7_9 +1 t_t5_7_10 +1 t_t5_7_11
  +1 t_t5_7_12 +1 t_t5_7_13 +1 t_t5_7_14 +1 t_t5_7_15 +1 t_t5_7_16 +1 t_t5_7_17 +1 t_t5_7_18 +1 t_t5_8_9
  +1 t_t5_8_10 +1 t_t5_8_11 +1 t_t5_8_12 +1 t_t5_8_13 +1 t_t5_8_14 +1 t_t5_8_15 +1 t_t5_8_16 +1 t_t5_8_17
  +1 t_t5_8_18 +1 t_t5_9_10 +1 t_t5_9_11 +1 t_t5_9_12 +1 t_t5_9_13 +1 t_t5_9_14 +1 t_t5_9_15 +1 t_t5_9_16
  +1 t_t5_9_17 +1 t_t5_9_18 +1 t_t5_10_11 +1 t_t5_10_12 +1 t_t5_10_13 +1 t_t5_10_14 +1 t_t5_10_15 +1 t_t5_10_16
  +1 t_t5_10_17 +1 t_t5_10_18 +1 t_t5_11_12 +1 t_t5_11_13 +1 t_t5_11_14 +1 t_t5_11_15 +1 t_t5_11_16 +1 t_t5_11_17
  +1 t_t5_11_18 +1 t_t5_12_13 +1 t_t5_12_14 +1 t_t5_12_15 +1 t_t5_12_16 +1 t_t5_12_17 +1 t_t5_12_18 +1 t_t5_13_14
  +1 t_t5_13_15 +1 t_t5_13_16 +1 t_t5_13_17 +1 t_t5_13_18 +1 t_t5_14_15 +1 t_t5_14_16 +1 t_t5_14_17 +1 t_t5_14_18
  +1 t_t5_15_16 +1 t_t5_15_17 +1 t_t5_15_18 +1 t_t5_16_17 +1 t_t5_16_18 +1 t_t5_17_18 -1 t_d5_shift = +4
 k3deg0: +1 t_t0_1_2 +1 t_t0_1_3 +1 t_t0_1_4 +1 t_t0_1_5 +1 t_t0_1_6 +1 t_t0_1_7 +1 t_t0_1_8 +1 t_t0_2_3
  +1 t_t0_2_4 +1 t_t0_2_5 +1 t_t0_2_6 +1 t_t0_2_7 +1 t_t0_2_8 +1 t_t0_3_4 +1 t_t0_3_5 +1 t_t0_3_6 +1 t_t0_3_7
  +1 t_t0_3_8 +1 t_t0_4_5 +1 t_t0_4_6 +1 t_t0_4_7 +1 t_t0_4_8 +1 t_t0_5_6 +1 t_t0_5_7 +1 t_t0_5_8 +1 t_t0_6_7
  +1 t_t0_6_8 +1 t_t0_7_8 = +20
 deg6: +1 t_x6_9 +1 t_x6_10 +1 t_x6_11 +1 t_x6_12 +1 t_x6_13 +1 t_x6_14 +1 t_x6_15 +1 t_x6_16 +1 t_x6_17
  +1 t_x6_18 +1 t_t0_1_6 +1 t_t0_2_6 +1 t_t0_3_6 +1 t_t0_4_6 +1 t_t0_5_6 +1 t_t0_6_7 +1 t_t0_6_8 = +7
 k3deg2: +1 t_t0_1_2 +1 t_t0_2_3 +1 t_t0_2_4 +1 t_t0_2_5 +1 t_t0_2_6 +1 t_t0_2_7 +1 t_t0_2_8 +1 t_t1_2_3
  +1 t_t1_2_4 +1 t_t1_2_5 +1 t_t1_2_6 +1 t_t1_2_7 +1 t_t1_2_8 +1 t_t1_2_9 +1 t_t1_2_10 +1 t_t1_2_11 +1 t_t1_2_12
  +1 t_t1_2_13 +1 t_t1_2_14 +1 t_t1_2_15 +1 t_t1_2_16 +1 t_t1_2_17 +1 t_t1_2_18 +1 t_t2_3_4 +1 t_t2_3_5
  +1 t_t2_3_6 +1 t_t2_3_7 +1 t_t2_3_8 +1 t_t2_3_9 +1 t_t2_3_10 +1 t_t2_3_11 +1 t_t2_3_12 +1 t_t2_3_13
  +1 t_t2_3_14 +1 t_t2_3_15 +1 t_t2_3_16 +1 t_t2_3_17 +1 t_t2_3_18 +1 t_t2_4_5 +1 t_t2_4_6 +1 t_t2_4_7
  +1 t_t2_4_8 +1 t_t2_4_9 +1 t_t2_4_10 +1 t_t2_4_11 +1 t_t2_4_12 +1 t_t2_4_13 +1 t_t2_4_14 +1 t_t2_4_15
  +1 t_t2_4_16 +1 t_t2_4_17 +1 t_t2_4_18 +1 t_t2_5_6 +1 t_t2_5_7 +1 t_t2_5_8 +1 t_t2_5_9 +1 t_t2_5_10
  +1 t_t2_5_11 +1 t_t2_5_12 +1 t_t2_5_13 +1 t_t2_5_14 +1 t_t2_5_15 +1 t_t2_5_16 +1 t_t2_5_17 +1 t_t2_5_18
  +1 t_t2_6_7 +1 t_t2_6_8 +1 t_t2_6_9 +1 t_t2_6_10 +1 t_t2_6_11 +1 t_t2_6_12 +1 t_t2_6_13 +1 t_t2_6_14
  +1 t_t2_6_15 +1 t_t2_6_16 +1 t_t2_6_17 +1 t_t2_6_18 +1 t_t2_7_8 +1 t_t2_7_9 +1 t_t2_7_10 +1 t_t2_7_11
  +1 t_t2_7_12 +1 t_t2_7_13 +1 t_t2_7_14 +1 t_t2_7_15 +1 t_t2_7_16 +1 t_t2_7_17 +1 t_t2_7_18 +1 t_t2_8_9
  +1 t_t2_8_10 +1 t_t2_8_11 +1 t_t2_8_12 +1 t_t2_8_13 +1 t_t2_8_14 +1 t_t2_8_15 +1 t_t2_8_16 +1 t_t2_8_17
  +1 t_t2_8_18 +1 t_t2_9_10 +1 t_t2_9_11 +1 t_t2_9_12 +1 t_t2_9_13 +1 t_t2_9_14 +1 t_t2_9_15 +1 t_t2_9_16
  +1 t_t2_9_17 +1 t_t2_9_18 +1 t_t2_10_11 +1 t_t2_10_12 +1 t_t2_10_13 +1 t_t2_10_14 +1 t_t2_10_15 +1 t_t2_10_16
  +1 t_t2_10_17 +1 t_t2_10_18 +1 t_t2_11_12 +1 t_t2_11_13 +1 t_t2_11_14 +1 t_t2_11_15 +1 t_t2_11_16 +1 t_t2_11_17
  +1 t_t2_11_18 +1 t_t2_12_13 +1 t_t2_12_14 +1 t_t2_12_15 +1 t_t2_12_16 +1 t_t2_12_17 +1 t_t2_12_18 +1 t_t2_13_14
  +1 t_t2_13_15 +1 t_t2_13_16 +1 t_t2_13_17 +1 t_t2_13_18 +1 t_t2_14_15 +1 t_t2_14_16 +1 t_t2_14_17 +1 t_t2_14_18
  +1 t_t2_15_16 +1 t_t2_15_17 +1 t_t2_15_18 +1 t_t2_16_17 +1 t_t2_16_18 +1 t_t2_17_18 -1 t_d2_shift = +1
 deg8: +1 t_x8_9 +1 t_x8_10 +1 t_x8_11 +1 t_x8_12 +1 t_x8_13 +1 t_x8_14 +1 t_x8_15 +1 t_x8_16 +1 t_x8_17
  +1 t_x8_18 +1 t_t0_1_8 +1 t_t0_2_8 +1 t_t0_3_8 +1 t_t0_4_8 +1 t_t0_5_8 +1 t_t0_6_8 +1 t_t0_7_8 = +7
 deg9: +1 t_x1_9 +1 t_x2_9 +1 t_x3_9 +1 t_x4_9 +1 t_x5_9 +1 t_x6_9 +1 t_x7_9 +1 t_x8_9 +1 t_x9_10 +1 t_x9_11
  +1 t_x9_12 +1 t_x9_13 +1 t_x9_14 +1 t_x9_15 +1 t_x9_16 +1 t_x9_17 +1 t_x9_18 = +8
 deg10: +1 t_x1_10 +1 t_x2_10 +1 t_x3_10 +1 t_x4_10 +1 t_x5_10 +1 t_x6_10 +1 t_x7_10 +1 t_x8_10 +1 t_x9_10
  +1 t_x10_11 +1 t_x10_12 +1 t_x10_13 +1 t_x10_14 +1 t_x10_15 +1 t_x10_16 +1 t_x10_17 +1 t_x10_18 = +8
 deg11: +1 t_x1_11 +1 t_x2_11 +1 t_x3_11 +1 t_x4_11 +1 t_x5_11 +1 t_x6_11 +1 t_x7_11 +1 t_x8_11 +1 t_x9_11
  +1 t_x10_11 +1 t_x11_12 +1 t_x11_13 +1 t_x11_14 +1 t_x11_15 +1 t_x11_16 +1 t_x11_17 +1 t_x11_18 = +8
 deg12: +1 t_x1_12 +1 t_x2_12 +1 t_x3_12 +1 t_x4_12 +1 t_x5_12 +1 t_x6_12 +1 t_x7_12 +1 t_x8_12 +1 t_x9_12
  +1 t_x10_12 +1 t_x11_12 +1 t_x12_13 +1 t_x12_14 +1 t_x12_15 +1 t_x12_16 +1 t_x12_17 +1 t_x12_18 = +8
 deg13: +1 t_x1_13 +1 t_x2_13 +1 t_x3_13 +1 t_x4_13 +1 t_x5_13 +1 t_x6_13 +1 t_x7_13 +1 t_x8_13 +1 t_x9_13
  +1 t_x10_13 +1 t_x11_13 +1 t_x12_13 +1 t_x13_14 +1 t_x13_15 +1 t_x13_16 +1 t_x13_17 +1 t_x13_18 = +8
 deg14: +1 t_x1_14 +1 t_x2_14 +1 t_x3_14 +1 t_x4_14 +1 t_x5_14 +1 t_x6_14 +1 t_x7_14 +1 t_x8_14 +1 t_x9_14
  +1 t_x10_14 +1 t_x11_14 +1 t_x12_14 +1 t_x13_14 +1 t_x14_15 +1 t_x14_16 +1 t_x14_17 +1 t_x14_18 = +8
 deg15: +1 t_x1_15 +1 t_x2_15 +1 t_x3_15 +1 t_x4_15 +1 t_x5_15 +1 t_x6_15 +1 t_x7_15 +1 t_x8_15 +1 t_x9_15
  +1 t_x10_15 +1 t_x11_15 +1 t_x12_15 +1 t_x13_15 +1 t_x14_15 +1 t_x15_16 +1 t_x15_17 +1 t_x15_18 = +8
 deg16: +1 t_x1_16 +1 t_x2_16 +1 t_x3_16 +1 t_x4_16 +1 t_x5_16 +1 t_x6_16 +1 t_x7_16 +1 t_x8_16 +1 t_x9_16
  +1 t_x10_16 +1 t_x11_16 +1 t_x12_16 +1 t_x13_16 +1 t_x14_16 +1 t_x15_16 +1 t_x16_17 +1 t_x16_18 = +8
 deg17: +1 t_x1_17 +1 t_x2_17 +1 t_x3_17 +1 t_x4_17 +1 t_x5_17 +1 t_x6_17 +1 t_x7_17 +1 t_x8_17 +1 t_x9_17
  +1 t_x10_17 +1 t_x11_17 +1 t_x12_17 +1 t_x13_17 +1 t_x14_17 +1 t_x15_17 +1 t_x16_17 +1 t_x17_18 = +8
 deg18: +1 t_x1_18 +1 t_x2_18 +1 t_x3_18 +1 t_x4_18 +1 t_x5_18 +1 t_x6_18 +1 t_x7_18 +1 t_x8_18 +1 t_x9_18
  +1 t_x10_18 +1 t_x11_18 +1 t_x12_18 +1 t_x13_18 +1 t_x14_18 +1 t_x15_18 +1 t_x16_18 +1 t_x17_18 = +8
 k3deg7: +1 t_t0_1_7 +1 t_t0_2_7 +1 t_t0_3_7 +1 t_t0_4_7 +1 t_t0_5_7 +1 t_t0_6_7 +1 t_t0_7_8 +1 t_t1_2_7
  +1 t_t1_3_7 +1 t_t1_4_7 +1 t_t1_5_7 +1 t_t1_6_7 +1 t_t1_7_8 +1 t_t1_7_9 +1 t_t1_7_10 +1 t_t1_7_11 +1 t_t1_7_12
  +1 t_t1_7_13 +1 t_t1_7_14 +1 t_t1_7_15 +1 t_t1_7_16 +1 t_t1_7_17 +1 t_t1_7_18 +1 t_t2_3_7 +1 t_t2_4_7
  +1 t_t2_5_7 +1 t_t2_6_7 +1 t_t2_7_8 +1 t_t2_7_9 +1 t_t2_7_10 +1 t_t2_7_11 +1 t_t2_7_12 +1 t_t2_7_13
  +1 t_t2_7_14 +1 t_t2_7_15 +1 t_t2_7_16 +1 t_t2_7_17 +1 t_t2_7_18 +1 t_t3_4_7 +1 t_t3_5_7 +1 t_t3_6_7
  +1 t_t3_7_8 +1 t_t3_7_9 +1 t_t3_7_10 +1 t_t3_7_11 +1 t_t3_7_12 +1 t_t3_7_13 +1 t_t3_7_14 +1 t_t3_7_15
  +1 t_t3_7_16 +1 t_t3_7_17 +1 t_t3_7_18 +1 t_t4_5_7 +1 t_t4_6_7 +1 t_t4_7_8 +1 t_t4_7_9 +1 t_t4_7_10
  +1 t_t4_7_11 +1 t_t4_7_12 +1 t_t4_7_13 +1 t_t4_7_14 +1 t_t4_7_15 +1 t_t4_7_16 +1 t_t4_7_17 +1 t_t4_7_18
  +1 t_t5_6_7 +1 t_t5_7_8 +1 t_t5_7_9 +1 t_t5_7_10 +1 t_t5_7_11 +1 t_t5_7_12 +1 t_t5_7_13 +1 t_t5_7_14
  +1 t_t5_7_15 +1 t_t5_7_16 +1 t_t5_7_17 +1 t_t5_7_18 +1 t_t6_7_8 +1 t_t6_7_9 +1 t_t6_7_10 +1 t_t6_7_11
  +1 t_t6_7_12 +1 t_t6_7_13 +1 t_t6_7_14 +1 t_t6_7_15 +1 t_t6_7_16 +1 t_t6_7_17 +1 t_t6_7_18 +1 t_t7_8_9
  +1 t_t7_8_10 +1 t_t7_8_11 +1 t_t7_8_12 +1 t_t7_8_13 +1 t_t7_8_14 +1 t_t7_8_15 +1 t_t7_8_16 +1 t_t7_8_17
  +1 t_t7_8_18 +1 t_t7_9_10 +1 t_t7_9_11 +1 t_t7_9_12 +1 t_t7_9_13 +1 t_t7_9_14 +1 t_t7_9_15 +1 t_t7_9_16
  +1 t_t7_9_17 +1 t_t7_9_18 +1 t_t7_10_11 +1 t_t7_10_12 +1 t_t7_10_13 +1 t_t7_10_14 +1 t_t7_10_15 +1 t_t7_10_16
  +1 t_t7_10_17 +1 t_t7_10_18 +1 t_t7_11_12 +1 t_t7_11_13 +1 t_t7_11_14 +1 t_t7_11_15 +1 t_t7_11_16 +1 t_t7_11_17
  +1 t_t7_11_18 +1 t_t7_12_13 +1 t_t7_12_14 +1 t_t7_12_15 +1 t_t7_12_16 +1 t_t7_12_17 +1 t_t7_12_18 +1 t_t7_13_14
  +1 t_t7_13_15 +1 t_t7_13_16 +1 t_t7_13_17 +1 t_t7_13_18 +1 t_t7_14_15 +1 t_t7_14_16 +1 t_t7_14_17 +1 t_t7_14_18
  +1 t_t7_15_16 +1 t_t7_15_17 +1 t_t7_15_18 +1 t_t7_16_17 +1 t_t7_16_18 +1 t_t7_17_18 -1 t_d7_shift = +6
 k3deg4: +1 t_t0_1_4 +1 t_t0_2_4 +1 t_t0_3_4 +1 t_t0_4_5 +1 t_t0_4_6 +1 t_t0_4_7 +1 t_t0_4_8 +1 t_t1_2_4
  +1 t_t1_3_4 +1 t_t1_4_5 +1 t_t1_4_6 +1 t_t1_4_7 +1 t_t1_4_8 +1 t_t1_4_9 +1 t_t1_4_10 +1 t_t1_4_11 +1 t_t1_4_12
  +1 t_t1_4_13 +1 t_t1_4_14 +1 t_t1_4_15 +1 t_t1_4_16 +1 t_t1_4_17 +1 t_t1_4_18 +1 t_t2_3_4 +1 t_t2_4_5
  +1 t_t2_4_6 +1 t_t2_4_7 +1 t_t2_4_8 +1 t_t2_4_9 +1 t_t2_4_10 +1 t_t2_4_11 +1 t_t2_4_12 +1 t_t2_4_13
  +1 t_t2_4_14 +1 t_t2_4_15 +1 t_t2_4_16 +1 t_t2_4_17 +1 t_t2_4_18 +1 t_t3_4_5 +1 t_t3_4_6 +1 t_t3_4_7
  +1 t_t3_4_8 +1 t_t3_4_9 +1 t_t3_4_10 +1 t_t3_4_11 +1 t_t3_4_12 +1 t_t3_4_13 +1 t_t3_4_14 +1 t_t3_4_15
  +1 t_t3_4_16 +1 t_t3_4_17 +1 t_t3_4_18 +1 t_t4_5_6 +1 t_t4_5_7 +1 t_t4_5_8 +1 t_t4_5_9 +1 t_t4_5_10
  +1 t_t4_5_11 +1 t_t4_5_12 +1 t_t4_5_13 +1 t_t4_5_14 +1 t_t4_5_15 +1 t_t4_5_16 +1 t_t4_5_17 +1 t_t4_5_18
  +1 t_t4_6_7 +1 t_t4_6_8 +1 t_t4_6_9 +1 t_t4_6_10 +1 t_t4_6_11 +1 t_t4_6_12 +1 t_t4_6_13 +1 t_t4_6_14
  +1 t_t4_6_15 +1 t_t4_6_16 +1 t_t4_6_17 +1 t_t4_6_18 +1 t_t4_7_8 +1 t_t4_7_9 +1 t_t4_7_10 +1 t_t4_7_11
  +1 t_t4_7_12 +1 t_t4_7_13 +1 t_t4_7_14 +1 t_t4_7_15 +1 t_t4_7_16 +1 t_t4_7_17 +1 t_t4_7_18 +1 t_t4_8_9
  +1 t_t4_8_10 +1 t_t4_8_11 +1 t_t4_8_12 +1 t_t4_8_13 +1 t_t4_8_14 +1 t_t4_8_15 +1 t_t4_8_16 +1 t_t4_8_17
  +1 t_t4_8_18 +1 t_t4_9_10 +1 t_t4_9_11 +1 t_t4_9_12 +1 t_t4_9_13 +1 t_t4_9_14 +1 t_t4_9_15 +1 t_t4_9_16
  +1 t_t4_9_17 +1 t_t4_9_18 +1 t_t4_10_11 +1 t_t4_10_12 +1 t_t4_10_13 +1 t_t4_10_14 +1 t_t4_10_15 +1 t_t4_10_16
  +1 t_t4_10_17 +1 t_t4_10_18 +1 t_t4_11_12 +1 t_t4_11_13 +1 t_t4_11_14 +1 t_t4_11_15 +1 t_t4_11_16 +1 t_t4_11_17
  +1 t_t4_11_18 +1 t_t4_12_13 +1 t_t4_12_14 +1 t_t4_12_15 +1 t_t4_12_16 +1 t_t4_12_17 +1 t_t4_12_18 +1 t_t4_13_14
  +1 t_t4_13_15 +1 t_t4_13_16 +1 t_t4_13_17 +1 t_t4_13_18 +1 t_t4_14_15 +1 t_t4_14_16 +1 t_t4_14_17 +1 t_t4_14_18
  +1 t_t4_15_16 +1 t_t4_15_17 +1 t_t4_15_18 +1 t_t4_16_17 +1 t_t4_16_18 +1 t_t4_17_18 -1 t_d4_shift = +3
  +1 t_x1_9 +1 t_x1_10 +1 t_x1_11 +1 t_x1_12 +1 t_x1_13 +1 t_x1_14 +1 t_x1_15 +1 t_x1_16 +1 t_x1_17 +1 t_x1_18
  +1 t_x2_9 +1 t_x2_10 +1 t_x2_11 +1 t_x2_12 +1 t_x2_13 +1 t_x2_14 +1 t_x2_15 +1 t_x2_16 +1 t_x2_17 +1 t_x2_18
  +1 t_x3_9 +1 t_x3_10 +1 t_x3_11 +1 t_x3_12 +1 t_x3_13 +1 t_x3_14 +1 t_x3_15 +1 t_x3_16 +1 t_x3_17 +1 t_x3_18
  +1 t_x4_9 +1 t_x4_10 +1 t_x4_11 +1 t_x4_12 +1 t_x4_13 +1 t_x4_14 +1 t_x4_15 +1 t_x4_16 +1 t_x4_17 +1 t_x4_18
  +1 t_x5_9 +1 t_x5_10 +1 t_x5_11 +1 t_x5_12 +1 t_x5_13 +1 t_x5_14 +1 t_x5_15 +1 t_x5_16 +1 t_x5_17 +1 t_x5_18
  +1 t_x6_9 +1 t_x6_10 +1 t_x6_11 +1 t_x6_12 +1 t_x6_13 +1 t_x6_14 +1 t_x6_15 +1 t_x6_16 +1 t_x6_17 +1 t_x6_18
  +1 t_x7_9 +1 t_x7_10 +1 t_x7_11 +1 t_x7_12 +1 t_x7_13 +1 t_x7_14 +1 t_x7_15 +1 t_x7_16 +1 t_x7_17 +1 t_x7_18
  +1 t_x8_9 +1 t_x8_10 +1 t_x8_11 +1 t_x8_12 +1 t_x8_13 +1 t_x8_14 +1 t_x8_15 +1 t_x8_16 +1 t_x8_17 +1 t_x8_18
  = +16
 deg7: +1 t_x7_9 +1 t_x7_10 +1 t_x7_11 +1 t_x7_12 +1 t_x7_13 +1 t_x7_14 +1 t_x7_15 +1 t_x7_16 +1 t_x7_17
  +1 t_x7_18 +1 t_t0_1_7 +1 t_t0_2_7 +1 t_t0_3_7 +1 t_t0_4_7 +1 t_t0_5_7 +1 t_t0_6_7 +1 t_t0_7_8 = +7
 deg4: +1 t_x4_9 +1 t_x4_10 +1 t_x4_11 +1 t_x4_12 +1 t_x4_13 +1 t_x4_14 +1 t_x4_15 +1 t_x4_16 +1 t_x4_17
  +1 t_x4_18 +1 t_t0_1_4 +1 t_t0_2_4 +1 t_t0_3_4 +1 t_t0_4_5 +1 t_t0_4_6 +1 t_t0_4_7 +1 t_t0_4_8 = +7
 k3deg10: +1 t_t1_2_10 +1 t_t1_3_10 +1 t_t1_4_10 +1 t_t1_5_10 +1 t_t1_6_10 +1 t_t1_7_10 +1 t_t1_8_10 +1 t_t1_9_10
  +1 t_t1_10_11 +1 t_t1_10_12 +1 t_t1_10_13 +1 t_t1_10_14 +1 t_t1_10_15 +1 t_t1_10_16 +1 t_t1_10_17 +1 t_t1_10_18
  +1 t_t2_3_10 +1 t_t2_4_10 +1 t_t2_5_10 +1 t_t2_6_10 +1 t_t2_7_10 +1 t_t2_8_10 +1 t_t2_9_10 +1 t_t2_10_11
  +1 t_t2_10_12 +1 t_t2_10_13 +1 t_t2_10_14 +1 t_t2_10_15 +1 t_t2_10_16 +1 t_t2_10_17 +1 t_t2_10_18 +1 t_t3_4_10
  +1 t_t3_5_10 +1 t_t3_6_10 +1 t_t3_7_10 +1 t_t3_8_10 +1 t_t3_9_10 +1 t_t3_10_11 +1 t_t3_10_12 +1 t_t3_10_13
  +1 t_t3_10_14 +1 t_t3_10_15 +1 t_t3_10_16 +1 t_t3_10_17 +1 t_t3_10_18 +1 t_t4_5_10 +1 t_t4_6_10 +1 t_t4_7_10
  +1 t_t4_8_10 +1 t_t4_9_10 +1 t_t4_10_11 +1 t_t4_10_12 +1 t_t4_10_13 +1 t_t4_10_14 +1 t_t4_10_15 +1 t_t4_10_16
  +1 t_t4_10_17 +1 t_t4_10_18 +1 t_t5_6_10 +1 t_t5_7_10 +1 t_t5_8_10 +1 t_t5_9_10 +1 t_t5_10_11 +1 t_t5_10_12
  +1 t_t5_10_13 +1 t_t5_10_14 +1 t_t5_10_15 +1 t_t5_10_16 +1 t_t5_10_17 +1 t_t5_10_18 +1 t_t6_7_10 +1 t_t6_8_10
  +1 t_t6_9_10 +1 t_t6_10_11 +1 t_t6_10_12 +1 t_t6_10_13 +1 t_t6_10_14 +1 t_t6_10_15 +1 t_t6_10_16 +1 t_t6_10_17
  +1 t_t6_10_18 +1 t_t7_8_10 +1 t_t7_9_10 +1 t_t7_10_11 +1 t_t7_10_12 +1 t_t7_10_13 +1 t_t7_10_14 +1 t_t7_10_15
  +1 t_t7_10_16 +1 t_t7_10_17 +1 t_t7_10_18 +1 t_t8_9_10 +1 t_t8_10_11 +1 t_t8_10_12 +1 t_t8_10_13 +1 t_t8_10_14
  +1 t_t8_10_15 +1 t_t8_10_16 +1 t_t8_10_17 +1 t_t8_10_18 +1 t_t9_10_11 +1 t_t9_10_12 +1 t_t9_10_13 +1 t_t9_10_14
  +1 t_t9_10_15 +1 t_t9_10_16 +1 t_t9_10_17 +1 t_t9_10_18 +1 t_t10_11_12 +1 t_t10_11_13 +1 t_t10_11_14
  +1 t_t10_11_15 +1 t_t10_11_16 +1 t_t10_11_17 +1 t_t10_11_18 +1 t_t10_12_13 +1 t_t10_12_14 +1 t_t10_12_15
  +1 t_t10_12_16 +1 t_t10_12_17 +1 t_t10_12_18 +1 t_t10_13_14 +1 t_t10_13_15 +1 t_t10_13_16 +1 t_t10_13_17
  +1 t_t10_13_18 +1 t_t10_14_15 +1 t_t10_14_16 +1 t_t10_14_17 +1 t_t10_14_18 +1 t_t10_15_16 +1 t_t10_15_17
  +1 t_t10_15_18 +1 t_t10_16_17 +1 t_t10_16_18 +1 t_t10_17_18 -1 t_d10_shift = +1
 k3deg11: +1 t_t1_2_11 +1 t_t1_3_11 +1 t_t1_4_11 +1 t_t1_5_11 +1 t_t1_6_11 +1 t_t1_7_11 +1 t_t1_8_11 +1 t_t1_9_11
  +1 t_t1_10_11 +1 t_t1_11_12 +1 t_t1_11_13 +1 t_t1_11_14 +1 t_t1_11_15 +1 t_t1_11_16 +1 t_t1_11_17 +1 t_t1_11_18
  +1 t_t2_3_11 +1 t_t2_4_11 +1 t_t2_5_11 +1 t_t2_6_11 +1 t_t2_7_11 +1 t_t2_8_11 +1 t_t2_9_11 +1 t_t2_10_11
  +1 t_t2_11_12 +1 t_t2_11_13 +1 t_t2_11_14 +1 t_t2_11_15 +1 t_t2_11_16 +1 t_t2_11_17 +1 t_t2_11_18 +1 t_t3_4_11
  +1 t_t3_5_11 +1 t_t3_6_11 +1 t_t3_7_11 +1 t_t3_8_11 +1 t_t3_9_11 +1 t_t3_10_11 +1 t_t3_11_12 +1 t_t3_11_13
  +1 t_t3_11_14 +1 t_t3_11_15 +1 t_t3_11_16 +1 t_t3_11_17 +1 t_t3_11_18 +1 t_t4_5_11 +1 t_t4_6_11 +1 t_t4_7_11
  +1 t_t4_8_11 +1 t_t4_9_11 +1 t_t4_10_11 +1 t_t4_11_12 +1 t_t4_11_13 +1 t_t4_11_14 +1 t_t4_11_15 +1 t_t4_11_16
  +1 t_t4_11_17 +1 t_t4_11_18 +1 t_t5_6_11 +1 t_t5_7_11 +1 t_t5_8_11 +1 t_t5_9_11 +1 t_t5_10_11 +1 t_t5_11_12
  +1 t_t5_11_13 +1 t_t5_11_14 +1 t_t5_11_15 +1 t_t5_11_16 +1 t_t5_11_17 +1 t_t5_11_18 +1 t_t6_7_11 +1 t_t6_8_11
  +1 t_t6_9_11 +1 t_t6_10_11 +1 t_t6_11_12 +1 t_t6_11_13 +1 t_t6_11_14 +1 t_t6_11_15 +1 t_t6_11_16 +1 t_t6_11_17
  +1 t_t6_11_18 +1 t_t7_8_11 +1 t_t7_9_11 +1 t_t7_10_11 +1 t_t7_11_12 +1 t_t7_11_13 +1 t_t7_11_14 +1 t_t7_11_15
  +1 t_t7_11_16 +1 t_t7_11_17 +1 t_t7_11_18 +1 t_t8_9_11 +1 t_t8_10_11 +1 t_t8_11_12 +1 t_t8_11_13 +1 t_t8_11_14
  +1 t_t8_11_15 +1 t_t8_11_16 +1 t_t8_11_17 +1 t_t8_11_18 +1 t_t9_10_11 +1 t_t9_11_12 +1 t_t9_11_13 +1 t_t9_11_14
  +1 t_t9_11_15 +1 t_t9_11_16 +1 t_t9_11_17 +1 t_t9_11_18 +1 t_t10_11_12 +1 t_t10_11_13 +1 t_t10_11_14
  +1 t_t10_11_15 +1 t_t10_11_16 +1 t_t10_11_17 +1 t_t10_11_18 +1 t_t11_12_13 +1 t_t11_12_14 +1 t_t11_12_15
  +1 t_t11_12_16 +1 t_t11_12_17 +1 t_t11_12_18 +1 t_t11_13_14 +1 t_t11_13_15 +1 t_t11_13_16 +1 t_t11_13_17
  +1 t_t11_13_18 +1 t_t11_14_15 +1 t_t11_14_16 +1 t_t11_14_17 +1 t_t11_14_18 +1 t_t11_15_16 +1 t_t11_15_17
  +1 t_t11_15_18 +1 t_t11_16_17 +1 t_t11_16_18 +1 t_t11_17_18 -1 t_d11_shift = +2
 k3deg8: +1 t_t0_1_8 +1 t_t0_2_8 +1 t_t0_3_8 +1 t_t0_4_8 +1 t_t0_5_8 +1 t_t0_6_8 +1 t_t0_7_8 +1 t_t1_2_8
  +1 t_t1_3_8 +1 t_t1_4_8 +1 t_t1_5_8 +1 t_t1_6_8 +1 t_t1_7_8 +1 t_t1_8_9 +1 t_t1_8_10 +1 t_t1_8_11 +1 t_t1_8_12
  +1 t_t1_8_13 +1 t_t1_8_14 +1 t_t1_8_15 +1 t_t1_8_16 +1 t_t1_8_17 +1 t_t1_8_18 +1 t_t2_3_8 +1 t_t2_4_8
  +1 t_t2_5_8 +1 t_t2_6_8 +1 t_t2_7_8 +1 t_t2_8_9 +1 t_t2_8_10 +1 t_t2_8_11 +1 t_t2_8_12 +1 t_t2_8_13
  +1 t_t2_8_14 +1 t_t2_8_15 +1 t_t2_8_16 +1 t_t2_8_17 +1 t_t2_8_18 +1 t_t3_4_8 +1 t_t3_5_8 +1 t_t3_6_8
  +1 t_t3_7_8 +1 t_t3_8_9 +1 t_t3_8_10 +1 t_t3_8_11 +1 t_t3_8_12 +1 t_t3_8_13 +1 t_t3_8_14 +1 t_t3_8_15
  +1 t_t3_8_16 +1 t_t3_8_17 +1 t_t3_8_18 +1 t_t4_5_8 +1 t_t4_6_8 +1 t_t4_7_8 +1 t_t4_8_9 +1 t_t4_8_10
  +1 t_t4_8_11 +1 t_t4_8_12 +1 t_t4_8_13 +1 t_t4_8_14 +1 t_t4_8_15 +1 t_t4_8_16 +1 t_t4_8_17 +1 t_t4_8_18
  +1 t_t5_6_8 +1 t_t5_7_8 +1 t_t5_8_9 +1 t_t5_8_10 +1 t_t5_8_11 +1 t_t5_8_12 +1 t_t5_8_13 +1 t_t5_8_14
  +1 t_t5_8_15 +1 t_t5_8_16 +1 t_t5_8_17 +1 t_t5_8_18 +1 t_t6_7_8 +1 t_t6_8_9 +1 t_t6_8_10 +1 t_t6_8_11
  +1 t_t6_8_12 +1 t_t6_8_13 +1 t_t6_8_14 +1 t_t6_8_15 +1 t_t6_8_16 +1 t_t6_8_17 +1 t_t6_8_18 +1 t_t7_8_9
  +1 t_t7_8_10 +1 t_t7_8_11 +1 t_t7_8_12 +1 t_t7_8_13 +1 t_t7_8_14 +1 t_t7_8_15 +1 t_t7_8_16 +1 t_t7_8_17
  +1 t_t7_8_18 +1 t_t8_9_10 +1 t_t8_9_11 +1 t_t8_9_12 +1 t_t8_9_13 +1 t_t8_9_14 +1 t_t8_9_15 +1 t_t8_9_16
  +1 t_t8_9_17 +1 t_t8_9_18 +1 t_t8_10_11 +1 t_t8_10_12 +1 t_t8_10_13 +1 t_t8_10_14 +1 t_t8_10_15 +1 t_t8_10_16
  +1 t_t8_10_17 +1 t_t8_10_18 +1 t_t8_11_12 +1 t_t8_11_13 +1 t_t8_11_14 +1 t_t8_11_15 +1 t_t8_11_16 +1 t_t8_11_17
  +1 t_t8_11_18 +1 t_t8_12_13 +1 t_t8_12_14 +1 t_t8_12_15 +1 t_t8_12_16 +1 t_t8_12_17 +1 t_t8_12_18 +1 t_t8_13_14
  +1 t_t8_13_15 +1 t_t8_13_16 +1 t_t8_13_17 +1 t_t8_13_18 +1 t_t8_14_15 +1 t_t8_14_16 +1 t_t8_14_17 +1 t_t8_14_18
  +1 t_t8_15_16 +1 t_t8_15_17 +1 t_t8_15_18 +1 t_t8_16_17 +1 t_t8_16_18 +1 t_t8_17_18 -1 t_d8_shift = +7
  +1 t_x9_10 +1 t_x9_11 +1 t_x9_12 +1 t_x9_13 +1 t_x9_14 +1 t_x9_15 +1 t_x9_16 +1 t_x9_17 +1 t_x9_18 +1 t_x10_11
  +1 t_x10_12 +1 t_x10_13 +1 t_x10_14 +1 t_x10_15 +1 t_x10_16 +1 t_x10_17 +1 t_x10_18 +1 t_x11_12 +1 t_x11_13
  +1 t_x11_14 +1 t_x11_15 +1 t_x11_16 +1 t_x11_17 +1 t_x11_18 +1 t_x12_13 +1 t_x12_14 +1 t_x12_15 +1 t_x12_16
  +1 t_x12_17 +1 t_x12_18 +1 t_x13_14 +1 t_x13_15 +1 t_x13_16 +1 t_x13_17 +1 t_x13_18 +1 t_x14_15 +1 t_x14_16
  +1 t_x14_17 +1 t_x14_18 +1 t_x15_16 +1 t_x15_17 +1 t_x15_18 +1 t_x16_17 +1 t_x16_18 +1 t_x17_18 = +32
 k3deg14: +1 t_t1_2_14 +1 t_t1_3_14 +1 t_t1_4_14 +1 t_t1_5_14 +1 t_t1_6_14 +1 t_t1_7_14 +1 t_t1_8_14 +1 t_t1_9_14
  +1 t_t1_10_14 +1 t_t1_11_14 +1 t_t1_12_14 +1 t_t1_13_14 +1 t_t1_14_15 +1 t_t1_14_16 +1 t_t1_14_17 +1 t_t1_14_18
  +1 t_t2_3_14 +1 t_t2_4_14 +1 t_t2_5_14 +1 t_t2_6_14 +1 t_t2_7_14 +1 t_t2_8_14 +1 t_t2_9_14 +1 t_t2_10_14
  +1 t_t2_11_14 +1 t_t2_12_14 +1 t_t2_13_14 +1 t_t2_14_15 +1 t_t2_14_16 +1 t_t2_14_17 +1 t_t2_14_18 +1 t_t3_4_14
  +1 t_t3_5_14 +1 t_t3_6_14 +1 t_t3_7_14 +1 t_t3_8_14 +1 t_t3_9_14 +1 t_t3_10_14 +1 t_t3_11_14 +1 t_t3_12_14
  +1 t_t3_13_14 +1 t_t3_14_15 +1 t_t3_14_16 +1 t_t3_14_17 +1 t_t3_14_18 +1 t_t4_5_14 +1 t_t4_6_14 +1 t_t4_7_14
  +1 t_t4_8_14 +1 t_t4_9_14 +1 t_t4_10_14 +1 t_t4_11_14 +1 t_t4_12_14 +1 t_t4_13_14 +1 t_t4_14_15 +1 t_t4_14_16
  +1 t_t4_14_17 +1 t_t4_14_18 +1 t_t5_6_14 +1 t_t5_7_14 +1 t_t5_8_14 +1 t_t5_9_14 +1 t_t5_10_14 +1 t_t5_11_14
  +1 t_t5_12_14 +1 t_t5_13_14 +1 t_t5_14_15 +1 t_t5_14_16 +1 t_t5_14_17 +1 t_t5_14_18 +1 t_t6_7_14 +1 t_t6_8_14
  +1 t_t6_9_14 +1 t_t6_10_14 +1 t_t6_11_14 +1 t_t6_12_14 +1 t_t6_13_14 +1 t_t6_14_15 +1 t_t6_14_16 +1 t_t6_14_17
  +1 t_t6_14_18 +1 t_t7_8_14 +1 t_t7_9_14 +1 t_t7_10_14 +1 t_t7_11_14 +1 t_t7_12_14 +1 t_t7_13_14 +1 t_t7_14_15
  +1 t_t7_14_16 +1 t_t7_14_17 +1 t_t7_14_18 +1 t_t8_9_14 +1 t_t8_10_14 +1 t_t8_11_14 +1 t_t8_12_14 +1 t_t8_13_14
  +1 t_t8_14_15 +1 t_t8_14_16 +1 t_t8_14_17 +1 t_t8_14_18 +1 t_t9_10_14 +1 t_t9_11_14 +1 t_t9_12_14 +1 t_t9_13_14
  +1 t_t9_14_15 +1 t_t9_14_16 +1 t_t9_14_17 +1 t_t9_14_18 +1 t_t10_11_14 +1 t_t10_12_14 +1 t_t10_13_14
  +1 t_t10_14_15 +1 t_t10_14_16 +1 t_t10_14_17 +1 t_t10_14_18 +1 t_t11_12_14 +1 t_t11_13_14 +1 t_t11_14_15
  +1 t_t11_14_16 +1 t_t11_14_17 +1 t_t11_14_18 +1 t_t12_13_14 +1 t_t12_14_15 +1 t_t12_14_16 +1 t_t12_14_17
  +1 t_t12_14_18 +1 t_t13_14_15 +1 t_t13_14_16 +1 t_t13_14_17 +1 t_t13_14_18 +1 t_t14_15_16 +1 t_t14_15_17
  +1 t_t14_15_18 +1 t_t14_16_17 +1 t_t14_16_18 +1 t_t14_17_18 -1 t_d14_shift = +5
 k3deg12: +1 t_t1_2_12 +1 t_t1_3_12 +1 t_t1_4_12 +1 t_t1_5_12 +1 t_t1_6_12 +1 t_t1_7_12 +1 t_t1_8_12 +1 t_t1_9_12
  +1 t_t1_10_12 +1 t_t1_11_12 +1 t_t1_12_13 +1 t_t1_12_14 +1 t_t1_12_15 +1 t_t1_12_16 +1 t_t1_12_17 +1 t_t1_12_18
  +1 t_t2_3_12 +1 t_t2_4_12 +1 t_t2_5_12 +1 t_t2_6_12 +1 t_t2_7_12 +1 t_t2_8_12 +1 t_t2_9_12 +1 t_t2_10_12
  +1 t_t2_11_12 +1 t_t2_12_13 +1 t_t2_12_14 +1 t_t2_12_15 +1 t_t2_12_16 +1 t_t2_12_17 +1 t_t2_12_18 +1 t_t3_4_12
  +1 t_t3_5_12 +1 t_t3_6_12 +1 t_t3_7_12 +1 t_t3_8_12 +1 t_t3_9_12 +1 t_t3_10_12 +1 t_t3_11_12 +1 t_t3_12_13
  +1 t_t3_12_14 +1 t_t3_12_15 +1 t_t3_12_16 +1 t_t3_12_17 +1 t_t3_12_18 +1 t_t4_5_12 +1 t_t4_6_12 +1 t_t4_7_12
  +1 t_t4_8_12 +1 t_t4_9_12 +1 t_t4_10_12 +1 t_t4_11_12 +1 t_t4_12_13 +1 t_t4_12_14 +1 t_t4_12_15 +1 t_t4_12_16
  +1 t_t4_12_17 +1 t_t4_12_18 +1 t_t5_6_12 +1 t_t5_7_12 +1 t_t5_8_12 +1 t_t5_9_12 +1 t_t5_10_12 +1 t_t5_11_12
  +1 t_t5_12_13 +1 t_t5_12_14 +1 t_t5_12_15 +1 t_t5_12_16 +1 t_t5_12_17 +1 t_t5_12_18 +1 t_t6_7_12 +1 t_t6_8_12
  +1 t_t6_9_12 +1 t_t6_10_12 +1 t_t6_11_12 +1 t_t6_12_13 +1 t_t6_12_14 +1 t_t6_12_15 +1 t_t6_12_16 +1 t_t6_12_17
  +1 t_t6_12_18 +1 t_t7_8_12 +1 t_t7_9_12 +1 t_t7_10_12 +1 t_t7_11_12 +1 t_t7_12_13 +1 t_t7_12_14 +1 t_t7_12_15
  +1 t_t7_12_16 +1 t_t7_12_17 +1 t_t7_12_18 +1 t_t8_9_12 +1 t_t8_10_12 +1 t_t8_11_12 +1 t_t8_12_13 +1 t_t8_12_14
  +1 t_t8_12_15 +1 t_t8_12_16 +1 t_t8_12_17 +1 t_t8_12_18 +1 t_t9_10_12 +1 t_t9_11_12 +1 t_t9_12_13 +1 t_t9_12_14
  +1 t_t9_12_15 +1 t_t9_12_16 +1 t_t9_12_17 +1 t_t9_12_18 +1 t_t10_11_12 +1 t_t10_12_13 +1 t_t10_12_14
  +1 t_t10_12_15 +1 t_t10_12_16 +1 t_t10_12_17 +1 t_t10_12_18 +1 t_t11_12_13 +1 t_t11_12_14 +1 t_t11_12_15
  +1 t_t11_12_16 +1 t_t11_12_17 +1 t_t11_12_18 +1 t_t12_13_14 +1 t_t12_13_15 +1 t_t12_13_16 +1 t_t12_13_17
  +1 t_t12_13_18 +1 t_t12_14_15 +1 t_t12_14_16 +1 t_t12_14_17 +1 t_t12_14_18 +1 t_t12_15_16 +1 t_t12_15_17
  +1 t_t12_15_18 +1 t_t12_16_17 +1 t_t12_16_18 +1 t_t12_17_18 -1 t_d12_shift = +3
 k3deg16: +1 t_t1_2_16 +1 t_t1_3_16 +1 t_t1_4_16 +1 t_t1_5_16 +1 t_t1_6_16 +1 t_t1_7_16 +1 t_t1_8_16 +1 t_t1_9_16
  +1 t_t1_10_16 +1 t_t1_11_16 +1 t_t1_12_16 +1 t_t1_13_16 +1 t_t1_14_16 +1 t_t1_15_16 +1 t_t1_16_17 +1 t_t1_16_18
  +1 t_t2_3_16 +1 t_t2_4_16 +1 t_t2_5_16 +1 t_t2_6_16 +1 t_t2_7_16 +1 t_t2_8_16 +1 t_t2_9_16 +1 t_t2_10_16
  +1 t_t2_11_16 +1 t_t2_12_16 +1 t_t2_13_16 +1 t_t2_14_16 +1 t_t2_15_16 +1 t_t2_16_17 +1 t_t2_16_18 +1 t_t3_4_16
  +1 t_t3_5_16 +1 t_t3_6_16 +1 t_t3_7_16 +1 t_t3_8_16 +1 t_t3_9_16 +1 t_t3_10_16 +1 t_t3_11_16 +1 t_t3_12_16
  +1 t_t3_13_16 +1 t_t3_14_16 +1 t_t3_15_16 +1 t_t3_16_17 +1 t_t3_16_18 +1 t_t4_5_16 +1 t_t4_6_16 +1 t_t4_7_16
  +1 t_t4_8_16 +1 t_t4_9_16 +1 t_t4_10_16 +1 t_t4_11_16 +1 t_t4_12_16 +1 t_t4_13_16 +1 t_t4_14_16 +1 t_t4_15_16
  +1 t_t4_16_17 +1 t_t4_16_18 +1 t_t5_6_16 +1 t_t5_7_16 +1 t_t5_8_16 +1 t_t5_9_16 +1 t_t5_10_16 +1 t_t5_11_16
  +1 t_t5_12_16 +1 t_t5_13_16 +1 t_t5_14_16 +1 t_t5_15_16 +1 t_t5_16_17 +1 t_t5_16_18 +1 t_t6_7_16 +1 t_t6_8_16
  +1 t_t6_9_16 +1 t_t6_10_16 +1 t_t6_11_16 +1 t_t6_12_16 +1 t_t6_13_16 +1 t_t6_14_16 +1 t_t6_15_16 +1 t_t6_16_17
  +1 t_t6_16_18 +1 t_t7_8_16 +1 t_t7_9_16 +1 t_t7_10_16 +1 t_t7_11_16 +1 t_t7_12_16 +1 t_t7_13_16 +1 t_t7_14_16
  +1 t_t7_15_16 +1 t_t7_16_17 +1 t_t7_16_18 +1 t_t8_9_16 +1 t_t8_10_16 +1 t_t8_11_16 +1 t_t8_12_16 +1 t_t8_13_16
  +1 t_t8_14_16 +1 t_t8_15_16 +1 t_t8_16_17 +1 t_t8_16_18 +1 t_t9_10_16 +1 t_t9_11_16 +1 t_t9_12_16 +1 t_t9_13_16
  +1 t_t9_14_16 +1 t_t9_15_16 +1 t_t9_16_17 +1 t_t9_16_18 +1 t_t10_11_16 +1 t_t10_12_16 +1 t_t10_13_16
  +1 t_t10_14_16 +1 t_t10_15_16 +1 t_t10_16_17 +1 t_t10_16_18 +1 t_t11_12_16 +1 t_t11_13_16 +1 t_t11_14_16
  +1 t_t11_15_16 +1 t_t11_16_17 +1 t_t11_16_18 +1 t_t12_13_16 +1 t_t12_14_16 +1 t_t12_15_16 +1 t_t12_16_17
  +1 t_t12_16_18 +1 t_t13_14_16 +1 t_t13_15_16 +1 t_t13_16_17 +1 t_t13_16_18 +1 t_t14_15_16 +1 t_t14_16_17
  +1 t_t14_16_18 +1 t_t15_16_17 +1 t_t15_16_18 +1 t_t16_17_18 -1 t_d16_shift = +7
 k3deg15: +1 t_t1_2_15 +1 t_t1_3_15 +1 t_t1_4_15 +1 t_t1_5_15 +1 t_t1_6_15 +1 t_t1_7_15 +1 t_t1_8_15 +1 t_t1_9_15
  +1 t_t1_10_15 +1 t_t1_11_15 +1 t_t1_12_15 +1 t_t1_13_15 +1 t_t1_14_15 +1 t_t1_15_16 +1 t_t1_15_17 +1 t_t1_15_18
  +1 t_t2_3_15 +1 t_t2_4_15 +1 t_t2_5_15 +1 t_t2_6_15 +1 t_t2_7_15 +1 t_t2_8_15 +1 t_t2_9_15 +1 t_t2_10_15
  +1 t_t2_11_15 +1 t_t2_12_15 +1 t_t2_13_15 +1 t_t2_14_15 +1 t_t2_15_16 +1 t_t2_15_17 +1 t_t2_15_18 +1 t_t3_4_15
  +1 t_t3_5_15 +1 t_t3_6_15 +1 t_t3_7_15 +1 t_t3_8_15 +1 t_t3_9_15 +1 t_t3_10_15 +1 t_t3_11_15 +1 t_t3_12_15
  +1 t_t3_13_15 +1 t_t3_14_15 +1 t_t3_15_16 +1 t_t3_15_17 +1 t_t3_15_18 +1 t_t4_5_15 +1 t_t4_6_15 +1 t_t4_7_15
  +1 t_t4_8_15 +1 t_t4_9_15 +1 t_t4_10_15 +1 t_t4_11_15 +1 t_t4_12_15 +1 t_t4_13_15 +1 t_t4_14_15 +1 t_t4_15_16
  +1 t_t4_15_17 +1 t_t4_15_18 +1 t_t5_6_15 +1 t_t5_7_15 +1 t_t5_8_15 +1 t_t5_9_15 +1 t_t5_10_15 +1 t_t5_11_15
  +1 t_t5_12_15 +1 t_t5_13_15 +1 t_t5_14_15 +1 t_t5_15_16 +1 t_t5_15_17 +1 t_t5_15_18 +1 t_t6_7_15 +1 t_t6_8_15
  +1 t_t6_9_15 +1 t_t6_10_15 +1 t_t6_11_15 +1 t_t6_12_15 +1 t_t6_13_15 +1 t_t6_14_15 +1 t_t6_15_16 +1 t_t6_15_17
  +1 t_t6_15_18 +1 t_t7_8_15 +1 t_t7_9_15 +1 t_t7_10_15 +1 t_t7_11_15 +1 t_t7_12_15 +1 t_t7_13_15 +1 t_t7_14_15
  +1 t_t7_15_16 +1 t_t7_15_17 +1 t_t7_15_18 +1 t_t8_9_15 +1 t_t8_10_15 +1 t_t8_11_15 +1 t_t8_12_15 +1 t_t8_13_15
  +1 t_t8_14_15 +1 t_t8_15_16 +1 t_t8_15_17 +1 t_t8_15_18 +1 t_t9_10_15 +1 t_t9_11_15 +1 t_t9_12_15 +1 t_t9_13_15
  +1 t_t9_14_15 +1 t_t9_15_16 +1 t_t9_15_17 +1 t_t9_15_18 +1 t_t10_11_15 +1 t_t10_12_15 +1 t_t10_13_15
  +1 t_t10_14_15 +1 t_t10_15_16 +1 t_t10_15_17 +1 t_t10_15_18 +1 t_t11_12_15 +1 t_t11_13_15 +1 t_t11_14_15
  +1 t_t11_15_16 +1 t_t11_15_17 +1 t_t11_15_18 +1 t_t12_13_15 +1 t_t12_14_15 +1 t_t12_15_16 +1 t_t12_15_17
  +1 t_t12_15_18 +1 t_t13_14_15 +1 t_t13_15_16 +1 t_t13_15_17 +1 t_t13_15_18 +1 t_t14_15_16 +1 t_t14_15_17
  +1 t_t14_15_18 +1 t_t15_16_17 +1 t_t15_16_18 +1 t_t15_17_18 -1 t_d15_shift = +6
 deg5: +1 t_x5_9 +1 t_x5_10 +1 t_x5_11 +1 t_x5_12 +1 t_x5_13 +1 t_x5_14 +1 t_x5_15 +1 t_x5_16 +1 t_x5_17
  +1 t_x5_18 +1 t_t0_1_5 +1 t_t0_2_5 +1 t_t0_3_5 +1 t_t0_4_5 +1 t_t0_5_6 +1 t_t0_5_7 +1 t_t0_5_8 = +7
 k3deg3: +1 t_t0_1_3 +1 t_t0_2_3 +1 t_t0_3_4 +1 t_t0_3_5 +1 t_t0_3_6 +1 t_t0_3_7 +1 t_t0_3_8 +1 t_t1_2_3
  +1 t_t1_3_4 +1 t_t1_3_5 +1 t_t1_3_6 +1 t_t1_3_7 +1 t_t1_3_8 +1 t_t1_3_9 +1 t_t1_3_10 +1 t_t1_3_11 +1 t_t1_3_12
  +1 t_t1_3_13 +1 t_t1_3_14 +1 t_t1_3_15 +1 t_t1_3_16 +1 t_t1_3_17 +1 t_t1_3_18 +1 t_t2_3_4 +1 t_t2_3_5
  +1 t_t2_3_6 +1 t_t2_3_7 +1 t_t2_3_8 +1 t_t2_3_9 +1 t_t2_3_10 +1 t_t2_3_11 +1 t_t2_3_12 +1 t_t2_3_13
  +1 t_t2_3_14 +1 t_t2_3_15 +1 t_t2_3_16 +1 t_t2_3_17 +1 t_t2_3_18 +1 t_t3_4_5 +1 t_t3_4_6 +1 t_t3_4_7
  +1 t_t3_4_8 +1 t_t3_4_9 +1 t_t3_4_10 +1 t_t3_4_11 +1 t_t3_4_12 +1 t_t3_4_13 +1 t_t3_4_14 +1 t_t3_4_15
  +1 t_t3_4_16 +1 t_t3_4_17 +1 t_t3_4_18 +1 t_t3_5_6 +1 t_t3_5_7 +1 t_t3_5_8 +1 t_t3_5_9 +1 t_t3_5_10
  +1 t_t3_5_11 +1 t_t3_5_12 +1 t_t3_5_13 +1 t_t3_5_14 +1 t_t3_5_15 +1 t_t3_5_16 +1 t_t3_5_17 +1 t_t3_5_18
  +1 t_t3_6_7 +1 t_t3_6_8 +1 t_t3_6_9 +1 t_t3_6_10 +1 t_t3_6_11 +1 t_t3_6_12 +1 t_t3_6_13 +1 t_t3_6_14
  +1 t_t3_6_15 +1 t_t3_6_16 +1 t_t3_6_17 +1 t_t3_6_18 +1 t_t3_7_8 +1 t_t3_7_9 +1 t_t3_7_10 +1 t_t3_7_11
  +1 t_t3_7_12 +1 t_t3_7_13 +1 t_t3_7_14 +1 t_t3_7_15 +1 t_t3_7_16 +1 t_t3_7_17 +1 t_t3_7_18 +1 t_t3_8_9
  +1 t_t3_8_10 +1 t_t3_8_11 +1 t_t3_8_12 +1 t_t3_8_13 +1 t_t3_8_14 +1 t_t3_8_15 +1 t_t3_8_16 +1 t_t3_8_17
  +1 t_t3_8_18 +1 t_t3_9_10 +1 t_t3_9_11 +1 t_t3_9_12 +1 t_t3_9_13 +1 t_t3_9_14 +1 t_t3_9_15 +1 t_t3_9_16
  +1 t_t3_9_17 +1 t_t3_9_18 +1 t_t3_10_11 +1 t_t3_10_12 +1 t_t3_10_13 +1 t_t3_10_14 +1 t_t3_10_15 +1 t_t3_10_16
  +1 t_t3_10_17 +1 t_t3_10_18 +1 t_t3_11_12 +1 t_t3_11_13 +1 t_t3_11_14 +1 t_t3_11_15 +1 t_t3_11_16 +1 t_t3_11_17
  +1 t_t3_11_18 +1 t_t3_12_13 +1 t_t3_12_14 +1 t_t3_12_15 +1 t_t3_12_16 +1 t_t3_12_17 +1 t_t3_12_18 +1 t_t3_13_14
  +1 t_t3_13_15 +1 t_t3_13_16 +1 t_t3_13_17 +1 t_t3_13_18 +1 t_t3_14_15 +1 t_t3_14_16 +1 t_t3_14_17 +1 t_t3_14_18
  +1 t_t3_15_16 +1 t_t3_15_17 +1 t_t3_15_18 +1 t_t3_16_17 +1 t_t3_16_18 +1 t_t3_17_18 -1 t_d3_shift = +2
 k3deg13: +1 t_t1_2_13 +1 t_t1_3_13 +1 t_t1_4_13 +1 t_t1_5_13 +1 t_t1_6_13 +1 t_t1_7_13 +1 t_t1_8_13 +1 t_t1_9_13
  +1 t_t1_10_13 +1 t_t1_11_13 +1 t_t1_12_13 +1 t_t1_13_14 +1 t_t1_13_15 +1 t_t1_13_16 +1 t_t1_13_17 +1 t_t1_13_18
  +1 t_t2_3_13 +1 t_t2_4_13 +1 t_t2_5_13 +1 t_t2_6_13 +1 t_t2_7_13 +1 t_t2_8_13 +1 t_t2_9_13 +1 t_t2_10_13
  +1 t_t2_11_13 +1 t_t2_12_13 +1 t_t2_13_14 +1 t_t2_13_15 +1 t_t2_13_16 +1 t_t2_13_17 +1 t_t2_13_18 +1 t_t3_4_13
  +1 t_t3_5_13 +1 t_t3_6_13 +1 t_t3_7_13 +1 t_t3_8_13 +1 t_t3_9_13 +1 t_t3_10_13 +1 t_t3_11_13 +1 t_t3_12_13
  +1 t_t3_13_14 +1 t_t3_13_15 +1 t_t3_13_16 +1 t_t3_13_17 +1 t_t3_13_18 +1 t_t4_5_13 +1 t_t4_6_13 +1 t_t4_7_13
  +1 t_t4_8_13 +1 t_t4_9_13 +1 t_t4_10_13 +1 t_t4_11_13 +1 t_t4_12_13 +1 t_t4_13_14 +1 t_t4_13_15 +1 t_t4_13_16
  +1 t_t4_13_17 +1 t_t4_13_18 +1 t_t5_6_13 +1 t_t5_7_13 +1 t_t5_8_13 +1 t_t5_9_13 +1 t_t5_10_13 +1 t_t5_11_13
  +1 t_t5_12_13 +1 t_t5_13_14 +1 t_t5_13_15 +1 t_t5_13_16 +1 t_t5_13_17 +1 t_t5_13_18 +1 t_t6_7_13 +1 t_t6_8_13
  +1 t_t6_9_13 +1 t_t6_10_13 +1 t_t6_11_13 +1 t_t6_12_13 +1 t_t6_13_14 +1 t_t6_13_15 +1 t_t6_13_16 +1 t_t6_13_17
  +1 t_t6_13_18 +1 t_t7_8_13 +1 t_t7_9_13 +1 t_t7_10_13 +1 t_t7_11_13 +1 t_t7_12_13 +1 t_t7_13_14 +1 t_t7_13_15
  +1 t_t7_13_16 +1 t_t7_13_17 +1 t_t7_13_18 +1 t_t8_9_13 +1 t_t8_10_13 +1 t_t8_11_13 +1 t_t8_12_13 +1 t_t8_13_14
  +1 t_t8_13_15 +1 t_t8_13_16 +1 t_t8_13_17 +1 t_t8_13_18 +1 t_t9_10_13 +1 t_t9_11_13 +1 t_t9_12_13 +1 t_t9_13_14
  +1 t_t9_13_15 +1 t_t9_13_16 +1 t_t9_13_17 +1 t_t9_13_18 +1 t_t10_11_13 +1 t_t10_12_13 +1 t_t10_13_14
  +1 t_t10_13_15 +1 t_t10_13_16 +1 t_t10_13_17 +1 t_t10_13_18 +1 t_t11_12_13 +1 t_t11_13_14 +1 t_t11_13_15
  +1 t_t11_13_16 +1 t_t11_13_17 +1 t_t11_13_18 +1 t_t12_13_14 +1 t_t12_13_15 +1 t_t12_13_16 +1 t_t12_13_17
  +1 t_t12_13_18 +1 t_t13_14_15 +1 t_t13_14_16 +1 t_t13_14_17 +1 t_t13_14_18 +1 t_t13_15_16 +1 t_t13_15_17
  +1 t_t13_15_18 +1 t_t13_16_17 +1 t_t13_16_18 +1 t_t13_17_18 -1 t_d13_shift = +4
 k3deg17: +1 t_t1_2_17 +1 t_t1_3_17 +1 t_t1_4_17 +1 t_t1_5_17 +1 t_t1_6_17 +1 t_t1_7_17 +1 t_t1_8_17 +1 t_t1_9_17
  +1 t_t1_10_17 +1 t_t1_11_17 +1 t_t1_12_17 +1 t_t1_13_17 +1 t_t1_14_17 +1 t_t1_15_17 +1 t_t1_16_17 +1 t_t1_17_18
  +1 t_t2_3_17 +1 t_t2_4_17 +1 t_t2_5_17 +1 t_t2_6_17 +1 t_t2_7_17 +1 t_t2_8_17 +1 t_t2_9_17 +1 t_t2_10_17
  +1 t_t2_11_17 +1 t_t2_12_17 +1 t_t2_13_17 +1 t_t2_14_17 +1 t_t2_15_17 +1 t_t2_16_17 +1 t_t2_17_18 +1 t_t3_4_17
  +1 t_t3_5_17 +1 t_t3_6_17 +1 t_t3_7_17 +1 t_t3_8_17 +1 t_t3_9_17 +1 t_t3_10_17 +1 t_t3_11_17 +1 t_t3_12_17
  +1 t_t3_13_17 +1 t_t3_14_17 +1 t_t3_15_17 +1 t_t3_16_17 +1 t_t3_17_18 +1 t_t4_5_17 +1 t_t4_6_17 +1 t_t4_7_17
  +1 t_t4_8_17 +1 t_t4_9_17 +1 t_t4_10_17 +1 t_t4_11_17 +1 t_t4_12_17 +1 t_t4_13_17 +1 t_t4_14_17 +1 t_t4_15_17
  +1 t_t4_16_17 +1 t_t4_17_18 +1 t_t5_6_17 +1 t_t5_7_17 +1 t_t5_8_17 +1 t_t5_9_17 +1 t_t5_10_17 +1 t_t5_11_17
  +1 t_t5_12_17 +1 t_t5_13_17 +1 t_t5_14_17 +1 t_t5_15_17 +1 t_t5_16_17 +1 t_t5_17_18 +1 t_t6_7_17 +1 t_t6_8_17
  +1 t_t6_9_17 +1 t_t6_10_17 +1 t_t6_11_17 +1 t_t6_12_17 +1 t_t6_13_17 +1 t_t6_14_17 +1 t_t6_15_17 +1 t_t6_16_17
  +1 t_t6_17_18 +1 t_t7_8_17 +1 t_t7_9_17 +1 t_t7_10_17 +1 t_t7_11_17 +1 t_t7_12_17 +1 t_t7_13_17 +1 t_t7_14_17
  +1 t_t7_15_17 +1 t_t7_16_17 +1 t_t7_17_18 +1 t_t8_9_17 +1 t_t8_10_17 +1 t_t8_11_17 +1 t_t8_12_17 +1 t_t8_13_17
  +1 t_t8_14_17 +1 t_t8_15_17 +1 t_t8_16_17 +1 t_t8_17_18 +1 t_t9_10_17 +1 t_t9_11_17 +1 t_t9_12_17 +1 t_t9_13_17
  +1 t_t9_14_17 +1 t_t9_15_17 +1 t_t9_16_17 +1 t_t9_17_18 +1 t_t10_11_17 +1 t_t10_12_17 +1 t_t10_13_17
  +1 t_t10_14_17 +1 t_t10_15_17 +1 t_t10_16_17 +1 t_t10_17_18 +1 t_t11_12_17 +1 t_t11_13_17 +1 t_t11_14_17
  +1 t_t11_15_17 +1 t_t11_16_17 +1 t_t11_17_18 +1 t_t12_13_17 +1 t_t12_14_17 +1 t_t12_15_17 +1 t_t12_16_17
  +1 t_t12_17_18 +1 t_t13_14_17 +1 t_t13_15_17 +1 t_t13_16_17 +1 t_t13_17_18 +1 t_t14_15_17 +1 t_t14_16_17
  +1 t_t14_17_18 +1 t_t15_16_17 +1 t_t15_17_18 +1 t_t16_17_18 -1 t_d17_shift = +8
 k3deg18: +1 t_t1_2_18 +1 t_t1_3_18 +1 t_t1_4_18 +1 t_t1_5_18 +1 t_t1_6_18 +1 t_t1_7_18 +1 t_t1_8_18 +1 t_t1_9_18
  +1 t_t1_10_18 +1 t_t1_11_18 +1 t_t1_12_18 +1 t_t1_13_18 +1 t_t1_14_18 +1 t_t1_15_18 +1 t_t1_16_18 +1 t_t1_17_18
  +1 t_t2_3_18 +1 t_t2_4_18 +1 t_t2_5_18 +1 t_t2_6_18 +1 t_t2_7_18 +1 t_t2_8_18 +1 t_t2_9_18 +1 t_t2_10_18
  +1 t_t2_11_18 +1 t_t2_12_18 +1 t_t2_13_18 +1 t_t2_14_18 +1 t_t2_15_18 +1 t_t2_16_18 +1 t_t2_17_18 +1 t_t3_4_18
  +1 t_t3_5_18 +1 t_t3_6_18 +1 t_t3_7_18 +1 t_t3_8_18 +1 t_t3_9_18 +1 t_t3_10_18 +1 t_t3_11_18 +1 t_t3_12_18
  +1 t_t3_13_18 +1 t_t3_14_18 +1 t_t3_15_18 +1 t_t3_16_18 +1 t_t3_17_18 +1 t_t4_5_18 +1 t_t4_6_18 +1 t_t4_7_18
  +1 t_t4_8_18 +1 t_t4_9_18 +1 t_t4_10_18 +1 t_t4_11_18 +1 t_t4_12_18 +1 t_t4_13_18 +1 t_t4_14_18 +1 t_t4_15_18
  +1 t_t4_16_18 +1 t_t4_17_18 +1 t_t5_6_18 +1 t_t5_7_18 +1 t_t5_8_18 +1 t_t5_9_18 +1 t_t5_10_18 +1 t_t5_11_18
  +1 t_t5_12_18 +1 t_t5_13_18 +1 t_t5_14_18 +1 t_t5_15_18 +1 t_t5_16_18 +1 t_t5_17_18 +1 t_t6_7_18 +1 t_t6_8_18
  +1 t_t6_9_18 +1 t_t6_10_18 +1 t_t6_11_18 +1 t_t6_12_18 +1 t_t6_13_18 +1 t_t6_14_18 +1 t_t6_15_18 +1 t_t6_16_18
  +1 t_t6_17_18 +1 t_t7_8_18 +1 t_t7_9_18 +1 t_t7_10_18 +1 t_t7_11_18 +1 t_t7_12_18 +1 t_t7_13_18 +1 t_t7_14_18
  +1 t_t7_15_18 +1 t_t7_16_18 +1 t_t7_17_18 +1 t_t8_9_18 +1 t_t8_10_18 +1 t_t8_11_18 +1 t_t8_12_18 +1 t_t8_13_18
  +1 t_t8_14_18 +1 t_t8_15_18 +1 t_t8_16_18 +1 t_t8_17_18 +1 t_t9_10_18 +1 t_t9_11_18 +1 t_t9_12_18 +1 t_t9_13_18
  +1 t_t9_14_18 +1 t_t9_15_18 +1 t_t9_16_18 +1 t_t9_17_18 +1 t_t10_11_18 +1 t_t10_12_18 +1 t_t10_13_18
  +1 t_t10_14_18 +1 t_t10_15_18 +1 t_t10_16_18 +1 t_t10_17_18 +1 t_t11_12_18 +1 t_t11_13_18 +1 t_t11_14_18
  +1 t_t11_15_18 +1 t_t11_16_18 +1 t_t11_17_18 +1 t_t12_13_18 +1 t_t12_14_18 +1 t_t12_15_18 +1 t_t12_16_18
  +1 t_t12_17_18 +1 t_t13_14_18 +1 t_t13_15_18 +1 t_t13_16_18 +1 t_t13_17_18 +1 t_t14_15_18 +1 t_t14_16_18
  +1 t_t14_17_18 +1 t_t15_16_18 +1 t_t15_17_18 +1 t_t16_17_18 -1 t_d18_shift = +9
 k3deg1: +1 t_t0_1_2 +1 t_t0_1_3 +1 t_t0_1_4 +1 t_t0_1_5 +1 t_t0_1_6 +1 t_t0_1_7 +1 t_t0_1_8 +1 t_t1_2_3
  +1 t_t1_2_4 +1 t_t1_2_5 +1 t_t1_2_6 +1 t_t1_2_7 +1 t_t1_2_8 +1 t_t1_2_9 +1 t_t1_2_10 +1 t_t1_2_11 +1 t_t1_2_12
  +1 t_t1_2_13 +1 t_t1_2_14 +1 t_t1_2_15 +1 t_t1_2_16 +1 t_t1_2_17 +1 t_t1_2_18 +1 t_t1_3_4 +1 t_t1_3_5
  +1 t_t1_3_6 +1 t_t1_3_7 +1 t_t1_3_8 +1 t_t1_3_9 +1 t_t1_3_10 +1 t_t1_3_11 +1 t_t1_3_12 +1 t_t1_3_13
  +1 t_t1_3_14 +1 t_t1_3_15 +1 t_t1_3_16 +1 t_t1_3_17 +1 t_t1_3_18 +1 t_t1_4_5 +1 t_t1_4_6 +1 t_t1_4_7
  +1 t_t1_4_8 +1 t_t1_4_9 +1 t_t1_4_10 +1 t_t1_4_11 +1 t_t1_4_12 +1 t_t1_4_13 +1 t_t1_4_14 +1 t_t1_4_15
  +1 t_t1_4_16 +1 t_t1_4_17 +1 t_t1_4_18 +1 t_t1_5_6 +1 t_t1_5_7 +1 t_t1_5_8 +1 t_t1_5_9 +1 t_t1_5_10
  +1 t_t1_5_11 +1 t_t1_5_12 +1 t_t1_5_13 +1 t_t1_5_14 +1 t_t1_5_15 +1 t_t1_5_16 +1 t_t1_5_17 +1 t_t1_5_18
  +1 t_t1_6_7 +1 t_t1_6_8 +1 t_t1_6_9 +1 t_t1_6_10 +1 t_t1_6_11 +1 t_t1_6_12 +1 t_t1_6_13 +1 t_t1_6_14
  +1 t_t1_6_15 +1 t_t1_6_16 +1 t_t1_6_17 +1 t_t1_6_18 +1 t_t1_7_8 +1 t_t1_7_9 +1 t_t1_7_10 +1 t_t1_7_11
  +1 t_t1_7_12 +1 t_t1_7_13 +1 t_t1_7_14 +1 t_t1_7_15 +1 t_t1_7_16 +1 t_t1_7_17 +1 t_t1_7_18 +1 t_t1_8_9
  +1 t_t1_8_10 +1 t_t1_8_11 +1 t_t1_8_12 +1 t_t1_8_13 +1 t_t1_8_14 +1 t_t1_8_15 +1 t_t1_8_16 +1 t_t1_8_17
  +1 t_t1_8_18 +1 t_t1_9_10 +1 t_t1_9_11 +1 t_t1_9_12 +1 t_t1_9_13 +1 t_t1_9_14 +1 t_t1_9_15 +1 t_t1_9_16
  +1 t_t1_9_17 +1 t_t1_9_18 +1 t_t1_10_11 +1 t_t1_10_12 +1 t_t1_10_13 +1 t_t1_10_14 +1 t_t1_10_15 +1 t_t1_10_16
  +1 t_t1_10_17 +1 t_t1_10_18 +1 t_t1_11_12 +1 t_t1_11_13 +1 t_t1_11_14 +1 t_t1_11_15 +1 t_t1_11_16 +1 t_t1_11_17
  +1 t_t1_11_18 +1 t_t1_12_13 +1 t_t1_12_14 +1 t_t1_12_15 +1 t_t1_12_16 +1 t_t1_12_17 +1 t_t1_12_18 +1 t_t1_13_14
  +1 t_t1_13_15 +1 t_t1_13_16 +1 t_t1_13_17 +1 t_t1_13_18 +1 t_t1_14_15 +1 t_t1_14_16 +1 t_t1_14_17 +1 t_t1_14_18
  +1 t_t1_15_16 +1 t_t1_15_17 +1 t_t1_15_18 +1 t_t1_16_17 +1 t_t1_16_18 +1 t_t1_17_18 -1 t_d1 = -0
 k3deg9: +1 t_t1_2_9 +1 t_t1_3_9 +1 t_t1_4_9 +1 t_t1_5_9 +1 t_t1_6_9 +1 t_t1_7_9 +1 t_t1_8_9 +1 t_t1_9_10
  +1 t_t1_9_11 +1 t_t1_9_12 +1 t_t1_9_13 +1 t_t1_9_14 +1 t_t1_9_15 +1 t_t1_9_16 +1 t_t1_9_17 +1 t_t1_9_18
  +1 t_t2_3_9 +1 t_t2_4_9 +1 t_t2_5_9 +1 t_t2_6_9 +1 t_t2_7_9 +1 t_t2_8_9 +1 t_t2_9_10 +1 t_t2_9_11 +1 t_t2_9_12
  +1 t_t2_9_13 +1 t_t2_9_14 +1 t_t2_9_15 +1 t_t2_9_16 +1 t_t2_9_17 +1 t_t2_9_18 +1 t_t3_4_9 +1 t_t3_5_9
  +1 t_t3_6_9 +1 t_t3_7_9 +1 t_t3_8_9 +1 t_t3_9_10 +1 t_t3_9_11 +1 t_t3_9_12 +1 t_t3_9_13 +1 t_t3_9_14
  +1 t_t3_9_15 +1 t_t3_9_16 +1 t_t3_9_17 +1 t_t3_9_18 +1 t_t4_5_9 +1 t_t4_6_9 +1 t_t4_7_9 +1 t_t4_8_9
  +1 t_t4_9_10 +1 t_t4_9_11 +1 t_t4_9_12 +1 t_t4_9_13 +1 t_t4_9_14 +1 t_t4_9_15 +1 t_t4_9_16 +1 t_t4_9_17
  +1 t_t4_9_18 +1 t_t5_6_9 +1 t_t5_7_9 +1 t_t5_8_9 +1 t_t5_9_10 +1 t_t5_9_11 +1 t_t5_9_12 +1 t_t5_9_13
  +1 t_t5_9_14 +1 t_t5_9_15 +1 t_t5_9_16 +1 t_t5_9_17 +1 t_t5_9_18 +1 t_t6_7_9 +1 t_t6_8_9 +1 t_t6_9_10
  +1 t_t6_9_11 +1 t_t6_9_12 +1 t_t6_9_13 +1 t_t6_9_14 +1 t_t6_9_15 +1 t_t6_9_16 +1 t_t6_9_17 +1 t_t6_9_18
  +1 t_t7_8_9 +1 t_t7_9_10 +1 t_t7_9_11 +1 t_t7_9_12 +1 t_t7_9_13 +1 t_t7_9_14 +1 t_t7_9_15 +1 t_t7_9_16
  +1 t_t7_9_17 +1 t_t7_9_18 +1 t_t8_9_10 +1 t_t8_9_11 +1 t_t8_9_12 +1 t_t8_9_13 +1 t_t8_9_14 +1 t_t8_9_15
  +1 t_t8_9_16 +1 t_t8_9_17 +1 t_t8_9_18 +1 t_t9_10_11 +1 t_t9_10_12 +1 t_t9_10_13 +1 t_t9_10_14 +1 t_t9_10_15
  +1 t_t9_10_16 +1 t_t9_10_17 +1 t_t9_10_18 +1 t_t9_11_12 +1 t_t9_11_13 +1 t_t9_11_14 +1 t_t9_11_15 +1 t_t9_11_16
  +1 t_t9_11_17 +1 t_t9_11_18 +1 t_t9_12_13 +1 t_t9_12_14 +1 t_t9_12_15 +1 t_t9_12_16 +1 t_t9_12_17 +1 t_t9_12_18
  +1 t_t9_13_14 +1 t_t9_13_15 +1 t_t9_13_16 +1 t_t9_13_17 +1 t_t9_13_18 +1 t_t9_14_15 +1 t_t9_14_16 +1 t_t9_14_17
  +1 t_t9_14_18 +1 t_t9_15_16 +1 t_t9_15_17 +1 t_t9_15_18 +1 t_t9_16_17 +1 t_t9_16_18 +1 t_t9_17_18 -1 t_d9
  = -0
 sum_k3: -3 t_T_shift +1 t_d1 +1 t_d8_shift +1 t_d7_shift +1 t_d6_shift +1 t_d5_shift +1 t_d4_shift +1 t_d3_shift
  +1 t_d2_shift +1 t_d9 +1 t_d18_shift +1 t_d17_shift +1 t_d16_shift +1 t_d15_shift +1 t_d14_shift +1 t_d13_shift
  +1 t_d12_shift +1 t_d11_shift +1 t_d10_shift = +78
 neq1_6_18: -9 t_b_6_18 +1 t_d6_shift -1 t_d18_shift <= +3
 neq1_1_11: -11 t_b_1_11 +1 t_d1 -1 t_d11_shift <= +1
 neq1_1_10_lhs: +12 t_b_1_10 -1 t_d1 +1 t_d10_shift >= +0
 neq1_1_10_rhs: +12 t_b_1_10 -1 t_d1 +1 t_d10_shift <= +10
 neq1_6_17: -10 t_b_6_17 +1 t_d6_shift -1 t_d17_shift <= +2
 neq2_6_18: +15 t_b_6_18 -1 t_d6_shift +1 t_d18_shift <= +10
 neq2_6_17: +14 t_b_6_17 -1 t_d6_shift +1 t_d17_shift <= +10
 neq2_7_18: +14 t_b_7_18 -1 t_d7_shift +1 t_d18_shift <= +10
 neq1_7_18: -10 t_b_7_18 +1 t_d7_shift -1 t_d18_shift <= +2
 neq2_8_18: +13 t_b_8_18 -1 t_d8_shift +1 t_d18_shift <= +10
 neq2_1_9: +11 t_b_1_9 -1 t_d1 +1 t_d9 <= +10
 neq2_7_17: +13 t_b_7_17 -1 t_d7_shift +1 t_d17_shift <= +10
 neq2_1_11: +13 t_b_1_11 -1 t_d1 +1 t_d11_shift <= +10
 neq2_2_13: +14 t_b_2_13 -1 t_d2_shift +1 t_d13_shift <= +10
 neq1_2_13: -10 t_b_2_13 +1 t_d2_shift -1 t_d13_shift <= +2
 neq2_2_12: +13 t_b_2_12 -1 t_d2_shift +1 t_d12_shift <= +10
 neq1_2_12: -11 t_b_2_12 +1 t_d2_shift -1 t_d12_shift <= +1
 neq1_8_18: -11 t_b_8_18 +1 t_d8_shift -1 t_d18_shift <= +1
 neq1_7_17: -11 t_b_7_17 +1 t_d7_shift -1 t_d17_shift <= +1
 neq2_8_17_lhs: +12 t_b_8_17 -1 t_d8_shift +1 t_d17_shift >= +0
 neq2_8_17_rhs: +12 t_b_8_17 -1 t_d8_shift +1 t_d17_shift <= +10
 neq2_6_16: +13 t_b_6_16 -1 t_d6_shift +1 t_d16_shift <= +10
 neq1_7_16_lhs: +12 t_b_7_16 -1 t_d7_shift +1 t_d16_shift >= +0
 neq1_7_16_rhs: +12 t_b_7_16 -1 t_d7_shift +1 t_d16_shift <= +10
 neq1_8_16: +13 t_b_8_16 -1 t_d8_shift +1 t_d16_shift >= +1
 neq2_8_16: +11 t_b_8_16 -1 t_d8_shift +1 t_d16_shift <= +10
 neq1_5_16: -10 t_b_5_16 +1 t_d5_shift -1 t_d16_shift <= +2
 neq2_5_16: +14 t_b_5_16 -1 t_d5_shift +1 t_d16_shift <= +10
 neq1_2_11_lhs: +12 t_b_2_11 -1 t_d2_shift +1 t_d11_shift >= +0
 neq1_2_11_rhs: +12 t_b_2_11 -1 t_d2_shift +1 t_d11_shift <= +10
 neq1_2_14: -9 t_b_2_14 +1 t_d2_shift -1 t_d14_shift <= +3
 neq1_6_16: -11 t_b_6_16 +1 t_d6_shift -1 t_d16_shift <= +1
 neq1_1_9: +13 t_b_1_9 -1 t_d1 +1 t_d9 >= +1
 neq2_2_10: +11 t_b_2_10 -1 t_d2_shift +1 t_d10_shift <= +10
 neq2_2_14: +15 t_b_2_14 -1 t_d2_shift +1 t_d14_shift <= +10
 neq1_4_16: -9 t_b_4_16 +1 t_d4_shift -1 t_d16_shift <= +3
 neq1_5_17: -9 t_b_5_17 +1 t_d5_shift -1 t_d17_shift <= +3
 neq1_2_15: -8 t_b_2_15 +1 t_d2_shift -1 t_d15_shift <= +4
 neq1_3_15: -9 t_b_3_15 +1 t_d3_shift -1 t_d15_shift <= +3
 neq2_3_15: +15 t_b_3_15 -1 t_d3_shift +1 t_d15_shift <= +10
 neq1_4_17: -8 t_b_4_17 +1 t_d4_shift -1 t_d17_shift <= +4
 neq2_4_16: +15 t_b_4_16 -1 t_d4_shift +1 t_d16_shift <= +10
 neq2_4_15: +14 t_b_4_15 -1 t_d4_shift +1 t_d15_shift <= +10
 neq1_5_18: -8 t_b_5_18 +1 t_d5_shift -1 t_d18_shift <= +4
 neq2_5_17: +15 t_b_5_17 -1 t_d5_shift +1 t_d17_shift <= +10
 notruetwins_0_1: -1 t_t0_1_2 -1 t_t0_1_3 -1 t_t0_1_4 -1 t_t0_1_5 -1 t_t0_1_6 -1 t_t0_1_7 -1 t_t0_1_8
  >= -6
 notruetwins_0_2: -1 t_t0_1_2 -1 t_t0_2_3 -1 t_t0_2_4 -1 t_t0_2_5 -1 t_t0_2_6 -1 t_t0_2_7 -1 t_t0_2_8
  >= -6
 notruetwins_0_5: -1 t_t0_1_5 -1 t_t0_2_5 -1 t_t0_3_5 -1 t_t0_4_5 -1 t_t0_5_6 -1 t_t0_5_7 -1 t_t0_5_8
  >= -6
 notruetwins_0_7: -1 t_t0_1_7 -1 t_t0_2_7 -1 t_t0_3_7 -1 t_t0_4_7 -1 t_t0_5_7 -1 t_t0_6_7 -1 t_t0_7_8
  >= -6
 notruetwins_0_8: -1 t_t0_1_8 -1 t_t0_2_8 -1 t_t0_3_8 -1 t_t0_4_8 -1 t_t0_5_8 -1 t_t0_6_8 -1 t_t0_7_8
  >= -6
 notruetwins_0_4: -1 t_t0_1_4 -1 t_t0_2_4 -1 t_t0_3_4 -1 t_t0_4_5 -1 t_t0_4_6 -1 t_t0_4_7 -1 t_t0_4_8
  >= -6
 notruetwins_0_3: -1 t_t0_1_3 -1 t_t0_2_3 -1 t_t0_3_4 -1 t_t0_3_5 -1 t_t0_3_6 -1 t_t0_3_7 -1 t_t0_3_8
  >= -6
 notruetwins_0_6: -1 t_t0_1_6 -1 t_t0_2_6 -1 t_t0_3_6 -1 t_t0_4_6 -1 t_t0_5_6 -1 t_t0_6_7 -1 t_t0_6_8
  >= -6
Bounds
 0 <= t_x1_9 <= 1
 0 <= t_x1_10 <= 1
 0 <= t_x1_11 <= 1
 0 <= t_x1_12 <= 1
 0 <= t_x1_13 <= 1
 0 <= t_x1_14 <= 1
 0 <= t_x1_15 <= 1
 0 <= t_x1_16 <= 1
 0 <= t_x1_17 <= 1
 0 <= t_x1_18 <= 1
 0 <= t_x2_9 <= 1
 0 <= t_x2_10 <= 1
 0 <= t_x2_11 <= 1
 0 <= t_x2_12 <= 1
 0 <= t_x2_13 <= 1
 0 <= t_x2_14 <= 1
 0 <= t_x2_15 <= 1
 0 <= t_x2_16 <= 1
 0 <= t_x2_17 <= 1
 0 <= t_x2_18 <= 1
 0 <= t_x3_9 <= 1
 0 <= t_x3_10 <= 1
 0 <= t_x3_11 <= 1
 0 <= t_x3_12 <= 1
 0 <= t_x3_13 <= 1
 0 <= t_x3_14 <= 1
 0 <= t_x3_15 <= 1
 0 <= t_x3_16 <= 1
 0 <= t_x3_17 <= 1
 0 <= t_x3_18 <= 1
 0 <= t_x4_9 <= 1
 0 <= t_x4_10 <= 1
 0 <= t_x4_11 <= 1
 0 <= t_x4_12 <= 1
 0 <= t_x4_13 <= 1
 0 <= t_x4_14 <= 1
 0 <= t_x4_15 <= 1
 0 <= t_x4_16 <= 1
 0 <= t_x4_17 <= 1
 0 <= t_x4_18 <= 1
 0 <= t_x5_9 <= 1
 0 <= t_x5_10 <= 1
 0 <= t_x5_11 <= 1
 0 <= t_x5_12 <= 1
 0 <= t_x5_13 <= 1
 0 <= t_x5_14 <= 1
 0 <= t_x5_15 <= 1
 0 <= t_x5_16 <= 1
 0 <= t_x5_17 <= 1
 0 <= t_x5_18 <= 1
 0 <= t_x6_9 <= 1
 0 <= t_x6_10 <= 1
 0 <= t_x6_11 <= 1
 0 <= t_x6_12 <= 1
 0 <= t_x6_13 <= 1
 0 <= t_x6_14 <= 1
 0 <= t_x6_15 <= 1
 0 <= t_x6_16 <= 1
 0 <= t_x6_17 <= 1
 0 <= t_x6_18 <= 1
 0 <= t_x7_9 <= 1
 0 <= t_x7_10 <= 1
 0 <= t_x7_11 <= 1
 0 <= t_x7_12 <= 1
 0 <= t_x7_13 <= 1
 0 <= t_x7_14 <= 1
 0 <= t_x7_15 <= 1
 0 <= t_x7_16 <= 1
 0 <= t_x7_17 <= 1
 0 <= t_x7_18 <= 1
 0 <= t_x8_9 <= 1
 0 <= t_x8_10 <= 1
 0 <= t_x8_11 <= 1
 0 <= t_x8_12 <= 1
 0 <= t_x8_13 <= 1
 0 <= t_x8_14 <= 1
 0 <= t_x8_15 <= 1
 0 <= t_x8_16 <= 1
 0 <= t_x8_17 <= 1
 0 <= t_x8_18 <= 1
 0 <= t_x9_10 <= 1
 0 <= t_x9_11 <= 1
 0 <= t_x9_12 <= 1
 0 <= t_x9_13 <= 1
 0 <= t_x9_14 <= 1
 0 <= t_x9_15 <= 1
 0 <= t_x9_16 <= 1
 0 <= t_x9_17 <= 1
 0 <= t_x9_18 <= 1
 0 <= t_x10_11 <= 1
 0 <= t_x10_12 <= 1
 0 <= t_x10_13 <= 1
 0 <= t_x10_14 <= 1
 0 <= t_x10_15 <= 1
 0 <= t_x10_16 <= 1
 0 <= t_x10_17 <= 1
 0 <= t_x10_18 <= 1
 0 <= t_x11_12 <= 1
 0 <= t_x11_13 <= 1
 0 <= t_x11_14 <= 1
 0 <= t_x11_15 <= 1
 0 <= t_x11_16 <= 1
 0 <= t_x11_17 <= 1
 0 <= t_x11_18 <= 1
 0 <= t_x12_13 <= 1
 0 <= t_x12_14 <= 1
 0 <= t_x12_15 <= 1
 0 <= t_x12_16 <= 1
 0 <= t_x12_17 <= 1
 0 <= t_x12_18 <= 1
 0 <= t_x13_14 <= 1
 0 <= t_x13_15 <= 0
 0 <= t_x13_16 <= 1
 0 <= t_x13_17 <= 1
 0 <= t_x13_18 <= 1
 0 <= t_x14_15 <= 1
 0 <= t_x14_16 <= 1
 0 <= t_x14_17 <= 1
 0 <= t_x14_18 <= 1
 0 <= t_x15_16 <= 1
 0 <= t_x15_17 <= 1
 0 <= t_x15_18 <= 1
 0 <= t_x16_17 <= 1
 0 <= t_x16_18 <= 1
 0 <= t_x17_18 <= 1
 0 <= t_t0_1_2 <= 1
 0 <= t_t0_1_3 <= 1
 0 <= t_t0_1_4 <= 1
 0 <= t_t0_1_5 <= 1
 0 <= t_t0_1_6 <= 1
 0 <= t_t0_1_7 <= 1
 0 <= t_t0_1_8 <= 1
 0 <= t_t0_2_3 <= 1
 0 <= t_t0_2_4 <= 1
 0 <= t_t0_2_5 <= 1
 0 <= t_t0_2_6 <= 1
 0 <= t_t0_2_7 <= 1
 0 <= t_t0_2_8 <= 1
 0 <= t_t0_3_4 <= 1
 0 <= t_t0_3_5 <= 1
 0 <= t_t0_3_6 <= 1
 0 <= t_t0_3_7 <= 1
 0 <= t_t0_3_8 <= 1
 0 <= t_t0_4_5 <= 1
 0 <= t_t0_4_6 <= 1
 0 <= t_t0_4_7 <= 1
 0 <= t_t0_4_8 <= 1
 0 <= t_t0_5_6 <= 1
 0 <= t_t0_5_7 <= 1
 0 <= t_t0_5_8 <= 1
 0 <= t_t0_6_7 <= 1
 0 <= t_t0_6_8 <= 1
 0 <= t_t0_7_8 <= 1
 0 <= t_t1_2_3 <= 1
 0 <= t_t1_2_4 <= 1
 0 <= t_t1_2_5 <= 1
 0 <= t_t1_2_6 <= 1
 0 <= t_t1_2_7 <= 1
 0 <= t_t1_2_8 <= 1
 0 <= t_t1_2_9 <= 1
 0 <= t_t1_2_10 <= 1
 0 <= t_t1_2_11 <= 1
 0 <= t_t1_2_12 <= 1
 0 <= t_t1_2_13 <= 1
 0 <= t_t1_2_14 <= 1
 0 <= t_t1_2_15 <= 1
 0 <= t_t1_2_16 <= 1
 0 <= t_t1_2_17 <= 1
 0 <= t_t1_2_18 <= 1
 0 <= t_t1_3_4 <= 1
 0 <= t_t1_3_5 <= 1
 0 <= t_t1_3_6 <= 1
 0 <= t_t1_3_7 <= 1
 0 <= t_t1_3_8 <= 1
 0 <= t_t1_3_9 <= 1
 0 <= t_t1_3_10 <= 1
 0 <= t_t1_3_11 <= 1
 0 <= t_t1_3_12 <= 1
 0 <= t_t1_3_13 <= 1
 0 <= t_t1_3_14 <= 1
 0 <= t_t1_3_15 <= 1
 0 <= t_t1_3_16 <= 1
 0 <= t_t1_3_17 <= 1
 0 <= t_t1_3_18 <= 1
 0 <= t_t1_4_5 <= 1
 0 <= t_t1_4_6 <= 1
 0 <= t_t1_4_7 <= 1
 0 <= t_t1_4_8 <= 1
 0 <= t_t1_4_9 <= 1
 0 <= t_t1_4_10 <= 1
 0 <= t_t1_4_11 <= 1
 0 <= t_t1_4_12 <= 1
 0 <= t_t1_4_13 <= 1
 0 <= t_t1_4_14 <= 1
 0 <= t_t1_4_15 <= 1
 0 <= t_t1_4_16 <= 1
 0 <= t_t1_4_17 <= 1
 0 <= t_t1_4_18 <= 1
 0 <= t_t1_5_6 <= 1
 0 <= t_t1_5_7 <= 1
 0 <= t_t1_5_8 <= 1
 0 <= t_t1_5_9 <= 1
 0 <= t_t1_5_10 <= 1
 0 <= t_t1_5_11 <= 1
 0 <= t_t1_5_12 <= 1
 0 <= t_t1_5_13 <= 1
 0 <= t_t1_5_14 <= 1
 0 <= t_t1_5_15 <= 1
 0 <= t_t1_5_16 <= 1
 0 <= t_t1_5_17 <= 1
 0 <= t_t1_5_18 <= 1
 0 <= t_t1_6_7 <= 1
 0 <= t_t1_6_8 <= 1
 0 <= t_t1_6_9 <= 1
 0 <= t_t1_6_10 <= 1
 0 <= t_t1_6_11 <= 1
 0 <= t_t1_6_12 <= 1
 0 <= t_t1_6_13 <= 1
 0 <= t_t1_6_14 <= 1
 0 <= t_t1_6_15 <= 1
 0 <= t_t1_6_16 <= 1
 0 <= t_t1_6_17 <= 1
 0 <= t_t1_6_18 <= 1
 0 <= t_t1_7_8 <= 1
 0 <= t_t1_7_9 <= 1
 0 <= t_t1_7_10 <= 1
 0 <= t_t1_7_11 <= 1
 0 <= t_t1_7_12 <= 1
 0 <= t_t1_7_13 <= 1
 0 <= t_t1_7_14 <= 1
 0 <= t_t1_7_15 <= 1
 0 <= t_t1_7_16 <= 1
 0 <= t_t1_7_17 <= 1
 0 <= t_t1_7_18 <= 1
 0 <= t_t1_8_9 <= 1
 0 <= t_t1_8_10 <= 1
 0 <= t_t1_8_11 <= 1
 0 <= t_t1_8_12 <= 1
 0 <= t_t1_8_13 <= 1
 0 <= t_t1_8_14 <= 1
 0 <= t_t1_8_15 <= 1
 0 <= t_t1_8_16 <= 1
 0 <= t_t1_8_17 <= 1
 0 <= t_t1_8_18 <= 1
 0 <= t_t1_9_10 <= 1
 0 <= t_t1_9_11 <= 1
 0 <= t_t1_9_12 <= 1
 0 <= t_t1_9_13 <= 1
 0 <= t_t1_9_14 <= 1
 0 <= t_t1_9_15 <= 1
 0 <= t_t1_9_16 <= 1
 0 <= t_t1_9_17 <= 1
 0 <= t_t1_9_18 <= 1
 0 <= t_t1_10_11 <= 1
 0 <= t_t1_10_12 <= 1
 0 <= t_t1_10_13 <= 1
 0 <= t_t1_10_14 <= 1
 0 <= t_t1_10_15 <= 1
 0 <= t_t1_10_16 <= 1
 0 <= t_t1_10_17 <= 1
 0 <= t_t1_10_18 <= 1
 0 <= t_t1_11_12 <= 1
 0 <= t_t1_11_13 <= 1
 0 <= t_t1_11_14 <= 1
 0 <= t_t1_11_15 <= 1
 0 <= t_t1_11_16 <= 1
 0 <= t_t1_11_17 <= 1
 0 <= t_t1_11_18 <= 1
 0 <= t_t1_12_13 <= 1
 0 <= t_t1_12_14 <= 1
 0 <= t_t1_12_15 <= 1
 0 <= t_t1_12_16 <= 1
 0 <= t_t1_12_17 <= 1
 0 <= t_t1_12_18 <= 1
 0 <= t_t1_13_14 <= 1
 0 <= t_t1_13_15 <= 0
 0 <= t_t1_13_16 <= 1
 0 <= t_t1_13_17 <= 1
 0 <= t_t1_13_18 <= 1
 0 <= t_t1_14_15 <= 1
 0 <= t_t1_14_16 <= 1
 0 <= t_t1_14_17 <= 1
 0 <= t_t1_14_18 <= 1
 0 <= t_t1_15_16 <= 1
 0 <= t_t1_15_17 <= 1
 0 <= t_t1_15_18 <= 1
 0 <= t_t1_16_17 <= 1
 0 <= t_t1_16_18 <= 1
 0 <= t_t1_17_18 <= 1
 0 <= t_t2_3_4 <= 1
 0 <= t_t2_3_5 <= 1
 0 <= t_t2_3_6 <= 1
 0 <= t_t2_3_7 <= 1
 0 <= t_t2_3_8 <= 1
 0 <= t_t2_3_9 <= 1
 0 <= t_t2_3_10 <= 1
 0 <= t_t2_3_11 <= 1
 0 <= t_t2_3_12 <= 1
 0 <= t_t2_3_13 <= 1
 0 <= t_t2_3_14 <= 1
 0 <= t_t2_3_15 <= 1
 0 <= t_t2_3_16 <= 1
 0 <= t_t2_3_17 <= 1
 0 <= t_t2_3_18 <= 1
 0 <= t_t2_4_5 <= 1
 0 <= t_t2_4_6 <= 1
 0 <= t_t2_4_7 <= 1
 0 <= t_t2_4_8 <= 1
 0 <= t_t2_4_9 <= 1
 0 <= t_t2_4_10 <= 1
 0 <= t_t2_4_11 <= 1
 0 <= t_t2_4_12 <= 1
 0 <= t_t2_4_13 <= 1
 0 <= t_t2_4_14 <= 1
 0 <= t_t2_4_15 <= 1
 0 <= t_t2_4_16 <= 1
 0 <= t_t2_4_17 <= 1
 0 <= t_t2_4_18 <= 1
 0 <= t_t2_5_6 <= 1
 0 <= t_t2_5_7 <= 1
 0 <= t_t2_5_8 <= 1
 0 <= t_t2_5_9 <= 1
 0 <= t_t2_5_10 <= 1
 0 <= t_t2_5_11 <= 1
 0 <= t_t2_5_12 <= 1
 0 <= t_t2_5_13 <= 1
 0 <= t_t2_5_14 <= 1
 0 <= t_t2_5_15 <= 1
 0 <= t_t2_5_16 <= 1
 0 <= t_t2_5_17 <= 1
 0 <= t_t2_5_18 <= 1
 0 <= t_t2_6_7 <= 1
 0 <= t_t2_6_8 <= 1
 0 <= t_t2_6_9 <= 1
 0 <= t_t2_6_10 <= 1
 0 <= t_t2_6_11 <= 1
 0 <= t_t2_6_12 <= 1
 0 <= t_t2_6_13 <= 1
 0 <= t_t2_6_14 <= 1
 0 <= t_t2_6_15 <= 1
 0 <= t_t2_6_16 <= 1
 0 <= t_t2_6_17 <= 1
 0 <= t_t2_6_18 <= 1
 0 <= t_t2_7_8 <= 1
 0 <= t_t2_7_9 <= 1
 0 <= t_t2_7_10 <= 1
 0 <= t_t2_7_11 <= 1
 0 <= t_t2_7_12 <= 1
 0 <= t_t2_7_13 <= 1
 0 <= t_t2_7_14 <= 1
 0 <= t_t2_7_15 <= 1
 0 <= t_t2_7_16 <= 1
 0 <= t_t2_7_17 <= 1
 0 <= t_t2_7_18 <= 1
 0 <= t_t2_8_9 <= 1
 0 <= t_t2_8_10 <= 1
 0 <= t_t2_8_11 <= 1
 0 <= t_t2_8_12 <= 1
 0 <= t_t2_8_13 <= 1
 0 <= t_t2_8_14 <= 1
 0 <= t_t2_8_15 <= 1
 0 <= t_t2_8_16 <= 1
 0 <= t_t2_8_17 <= 1
 0 <= t_t2_8_18 <= 1
 0 <= t_t2_9_10 <= 1
 0 <= t_t2_9_11 <= 1
 0 <= t_t2_9_12 <= 1
 0 <= t_t2_9_13 <= 1
 0 <= t_t2_9_14 <= 1
 0 <= t_t2_9_15 <= 1
 0 <= t_t2_9_16 <= 1
 0 <= t_t2_9_17 <= 1
 0 <= t_t2_9_18 <= 1
 0 <= t_t2_10_11 <= 1
 0 <= t_t2_10_12 <= 1
 0 <= t_t2_10_13 <= 1
 0 <= t_t2_10_14 <= 1
 0 <= t_t2_10_15 <= 1
 0 <= t_t2_10_16 <= 1
 0 <= t_t2_10_17 <= 1
 0 <= t_t2_10_18 <= 1
 0 <= t_t2_11_12 <= 1
 0 <= t_t2_11_13 <= 1
 0 <= t_t2_11_14 <= 1
 0 <= t_t2_11_15 <= 1
 0 <= t_t2_11_16 <= 1
 0 <= t_t2_11_17 <= 1
 0 <= t_t2_11_18 <= 1
 0 <= t_t2_12_13 <= 1
 0 <= t_t2_12_14 <= 1
 0 <= t_t2_12_15 <= 1
 0 <= t_t2_12_16 <= 1
 0 <= t_t2_12_17 <= 1
 0 <= t_t2_12_18 <= 1
 0 <= t_t2_13_14 <= 1
 0 <= t_t2_13_15 <= 0
 0 <= t_t2_13_16 <= 1
 0 <= t_t2_13_17 <= 1
 0 <= t_t2_13_18 <= 1
 0 <= t_t2_14_15 <= 1
 0 <= t_t2_14_16 <= 1
 0 <= t_t2_14_17 <= 1
 0 <= t_t2_14_18 <= 1
 0 <= t_t2_15_16 <= 1
 0 <= t_t2_15_17 <= 1
 0 <= t_t2_15_18 <= 1
 0 <= t_t2_16_17 <= 1
 0 <= t_t2_16_18 <= 1
 0 <= t_t2_17_18 <= 1
 0 <= t_t3_4_5 <= 1
 0 <= t_t3_4_6 <= 1
 0 <= t_t3_4_7 <= 1
 0 <= t_t3_4_8 <= 1
 0 <= t_t3_4_9 <= 1
 0 <= t_t3_4_10 <= 1
 0 <= t_t3_4_11 <= 1
 0 <= t_t3_4_12 <= 1
 0 <= t_t3_4_13 <= 1
 0 <= t_t3_4_14 <= 1
 0 <= t_t3_4_15 <= 1
 0 <= t_t3_4_16 <= 1
 0 <= t_t3_4_17 <= 1
 0 <= t_t3_4_18 <= 1
 0 <= t_t3_5_6 <= 1
 0 <= t_t3_5_7 <= 1
 0 <= t_t3_5_8 <= 1
 0 <= t_t3_5_9 <= 1
 0 <= t_t3_5_10 <= 1
 0 <= t_t3_5_11 <= 1
 0 <= t_t3_5_12 <= 1
 0 <= t_t3_5_13 <= 1
 0 <= t_t3_5_14 <= 1
 0 <= t_t3_5_15 <= 1
 0 <= t_t3_5_16 <= 1
 0 <= t_t3_5_17 <= 1
 0 <= t_t3_5_18 <= 1
 0 <= t_t3_6_7 <= 1
 0 <= t_t3_6_8 <= 1
 0 <= t_t3_6_9 <= 1
 0 <= t_t3_6_10 <= 1
 0 <= t_t3_6_11 <= 1
 0 <= t_t3_6_12 <= 1
 0 <= t_t3_6_13 <= 1
 0 <= t_t3_6_14 <= 1
 0 <= t_t3_6_15 <= 1
 0 <= t_t3_6_16 <= 1
 0 <= t_t3_6_17 <= 1
 0 <= t_t3_6_18 <= 1
 0 <= t_t3_7_8 <= 1
 0 <= t_t3_7_9 <= 1
 0 <= t_t3_7_10 <= 1
 0 <= t_t3_7_11 <= 1
 0 <= t_t3_7_12 <= 1
 0 <= t_t3_7_13 <= 1
 0 <= t_t3_7_14 <= 1
 0 <= t_t3_7_15 <= 1
 0 <= t_t3_7_16 <= 1
 0 <= t_t3_7_17 <= 1
 0 <= t_t3_7_18 <= 1
 0 <= t_t3_8_9 <= 1
 0 <= t_t3_8_10 <= 1
 0 <= t_t3_8_11 <= 1
 0 <= t_t3_8_12 <= 1
 0 <= t_t3_8_13 <= 1
 0 <= t_t3_8_14 <= 1
 0 <= t_t3_8_15 <= 1
 0 <= t_t3_8_16 <= 1
 0 <= t_t3_8_17 <= 1
 0 <= t_t3_8_18 <= 1
 0 <= t_t3_9_10 <= 1
 0 <= t_t3_9_11 <= 1
 0 <= t_t3_9_12 <= 1
 0 <= t_t3_9_13 <= 1
 0 <= t_t3_9_14 <= 1
 0 <= t_t3_9_15 <= 1
 0 <= t_t3_9_16 <= 1
 0 <= t_t3_9_17 <= 1
 0 <= t_t3_9_18 <= 1
 0 <= t_t3_10_11 <= 1
 0 <= t_t3_10_12 <= 1
 0 <= t_t3_10_13 <= 1
 0 <= t_t3_10_14 <= 1
 0 <= t_t3_10_15 <= 1
 0 <= t_t3_10_16 <= 1
 0 <= t_t3_10_17 <= 1
 0 <= t_t3_10_18 <= 1
 0 <= t_t3_11_12 <= 1
 0 <= t_t3_11_13 <= 1
 0 <= t_t3_11_14 <= 1
 0 <= t_t3_11_15 <= 1
 0 <= t_t3_11_16 <= 1
 0 <= t_t3_11_17 <= 1
 0 <= t_t3_11_18 <= 1
 0 <= t_t3_12_13 <= 1
 0 <= t_t3_12_14 <= 1
 0 <= t_t3_12_15 <= 1
 0 <= t_t3_12_16 <= 1
 0 <= t_t3_12_17 <= 1
 0 <= t_t3_12_18 <= 1
 0 <= t_t3_13_14 <= 1
 0 <= t_t3_13_15 <= 0
 0 <= t_t3_13_16 <= 1
 0 <= t_t3_13_17 <= 1
 0 <= t_t3_13_18 <= 1
 0 <= t_t3_14_15 <= 1
 0 <= t_t3_14_16 <= 1
 0 <= t_t3_14_17 <= 1
 0 <= t_t3_14_18 <= 1
 0 <= t_t3_15_16 <= 1
 0 <= t_t3_15_17 <= 1
 0 <= t_t3_15_18 <= 1
 0 <= t_t3_16_17 <= 1
 0 <= t_t3_16_18 <= 1
 0 <= t_t3_17_18 <= 1
 0 <= t_t4_5_6 <= 1
 0 <= t_t4_5_7 <= 1
 0 <= t_t4_5_8 <= 1
 0 <= t_t4_5_9 <= 1
 0 <= t_t4_5_10 <= 1
 0 <= t_t4_5_11 <= 1
 0 <= t_t4_5_12 <= 1
 0 <= t_t4_5_13 <= 1
 0 <= t_t4_5_14 <= 1
 0 <= t_t4_5_15 <= 1
 0 <= t_t4_5_16 <= 1
 0 <= t_t4_5_17 <= 1
 0 <= t_t4_5_18 <= 1
 0 <= t_t4_6_7 <= 1
 0 <= t_t4_6_8 <= 1
 0 <= t_t4_6_9 <= 1
 0 <= t_t4_6_10 <= 1
 0 <= t_t4_6_11 <= 1
 0 <= t_t4_6_12 <= 1
 0 <= t_t4_6_13 <= 1
 0 <= t_t4_6_14 <= 1
 0 <= t_t4_6_15 <= 1
 0 <= t_t4_6_16 <= 1
 0 <= t_t4_6_17 <= 1
 0 <= t_t4_6_18 <= 1
 0 <= t_t4_7_8 <= 1
 0 <= t_t4_7_9 <= 1
 0 <= t_t4_7_10 <= 1
 0 <= t_t4_7_11 <= 1
 0 <= t_t4_7_12 <= 1
 0 <= t_t4_7_13 <= 1
 0 <= t_t4_7_14 <= 1
 0 <= t_t4_7_15 <= 1
 0 <= t_t4_7_16 <= 1
 0 <= t_t4_7_17 <= 1
 0 <= t_t4_7_18 <= 1
 0 <= t_t4_8_9 <= 1
 0 <= t_t4_8_10 <= 1
 0 <= t_t4_8_11 <= 1
 0 <= t_t4_8_12 <= 1
 0 <= t_t4_8_13 <= 1
 0 <= t_t4_8_14 <= 1
 0 <= t_t4_8_15 <= 1
 0 <= t_t4_8_16 <= 1
 0 <= t_t4_8_17 <= 1
 0 <= t_t4_8_18 <= 1
 0 <= t_t4_9_10 <= 1
 0 <= t_t4_9_11 <= 1
 0 <= t_t4_9_12 <= 1
 0 <= t_t4_9_13 <= 1
 0 <= t_t4_9_14 <= 1
 0 <= t_t4_9_15 <= 1
 0 <= t_t4_9_16 <= 1
 0 <= t_t4_9_17 <= 1
 0 <= t_t4_9_18 <= 1
 0 <= t_t4_10_11 <= 1
 0 <= t_t4_10_12 <= 1
 0 <= t_t4_10_13 <= 1
 0 <= t_t4_10_14 <= 1
 0 <= t_t4_10_15 <= 1
 0 <= t_t4_10_16 <= 1
 0 <= t_t4_10_17 <= 1
 0 <= t_t4_10_18 <= 1
 0 <= t_t4_11_12 <= 1
 0 <= t_t4_11_13 <= 1
 0 <= t_t4_11_14 <= 1
 0 <= t_t4_11_15 <= 1
 0 <= t_t4_11_16 <= 1
 0 <= t_t4_11_17 <= 1
 0 <= t_t4_11_18 <= 1
 0 <= t_t4_12_13 <= 1
 0 <= t_t4_12_14 <= 1
 0 <= t_t4_12_15 <= 1
 0 <= t_t4_12_16 <= 1
 0 <= t_t4_12_17 <= 1
 0 <= t_t4_12_18 <= 1
 0 <= t_t4_13_14 <= 1
 0 <= t_t4_13_15 <= 0
 0 <= t_t4_13_16 <= 1
 0 <= t_t4_13_17 <= 1
 0 <= t_t4_13_18 <= 1
 0 <= t_t4_14_15 <= 1
 0 <= t_t4_14_16 <= 1
 0 <= t_t4_14_17 <= 1
 0 <= t_t4_14_18 <= 1
 0 <= t_t4_15_16 <= 1
 0 <= t_t4_15_17 <= 1
 0 <= t_t4_15_18 <= 1
 0 <= t_t4_16_17 <= 1
 0 <= t_t4_16_18 <= 1
 0 <= t_t4_17_18 <= 1
 0 <= t_t5_6_7 <= 1
 0 <= t_t5_6_8 <= 1
 0 <= t_t5_6_9 <= 1
 0 <= t_t5_6_10 <= 1
 0 <= t_t5_6_11 <= 1
 0 <= t_t5_6_12 <= 1
 0 <= t_t5_6_13 <= 1
 0 <= t_t5_6_14 <= 1
 0 <= t_t5_6_15 <= 1
 0 <= t_t5_6_16 <= 1
 0 <= t_t5_6_17 <= 1
 0 <= t_t5_6_18 <= 1
 0 <= t_t5_7_8 <= 1
 0 <= t_t5_7_9 <= 1
 0 <= t_t5_7_10 <= 1
 0 <= t_t5_7_11 <= 1
 0 <= t_t5_7_12 <= 1
 0 <= t_t5_7_13 <= 1
 0 <= t_t5_7_14 <= 1
 0 <= t_t5_7_15 <= 1
 0 <= t_t5_7_16 <= 1
 0 <= t_t5_7_17 <= 1
 0 <= t_t5_7_18 <= 1
 0 <= t_t5_8_9 <= 1
 0 <= t_t5_8_10 <= 1
 0 <= t_t5_8_11 <= 1
 0 <= t_t5_8_12 <= 1
 0 <= t_t5_8_13 <= 1
 0 <= t_t5_8_14 <= 1
 0 <= t_t5_8_15 <= 1
 0 <= t_t5_8_16 <= 1
 0 <= t_t5_8_17 <= 1
 0 <= t_t5_8_18 <= 1
 0 <= t_t5_9_10 <= 1
 0 <= t_t5_9_11 <= 1
 0 <= t_t5_9_12 <= 1
 0 <= t_t5_9_13 <= 1
 0 <= t_t5_9_14 <= 1
 0 <= t_t5_9_15 <= 1
 0 <= t_t5_9_16 <= 1
 0 <= t_t5_9_17 <= 1
 0 <= t_t5_9_18 <= 1
 0 <= t_t5_10_11 <= 1
 0 <= t_t5_10_12 <= 1
 0 <= t_t5_10_13 <= 1
 0 <= t_t5_10_14 <= 1
 0 <= t_t5_10_15 <= 1
 0 <= t_t5_10_16 <= 1
 0 <= t_t5_10_17 <= 1
 0 <= t_t5_10_18 <= 1
 0 <= t_t5_11_12 <= 1
 0 <= t_t5_11_13 <= 1
 0 <= t_t5_11_14 <= 1
 0 <= t_t5_11_15 <= 1
 0 <= t_t5_11_16 <= 1
 0 <= t_t5_11_17 <= 1
 0 <= t_t5_11_18 <= 1
 0 <= t_t5_12_13 <= 1
 0 <= t_t5_12_14 <= 1
 0 <= t_t5_12_15 <= 1
 0 <= t_t5_12_16 <= 1
 0 <= t_t5_12_17 <= 1
 0 <= t_t5_12_18 <= 1
 0 <= t_t5_13_14 <= 1
 0 <= t_t5_13_15 <= 0
 0 <= t_t5_13_16 <= 1
 0 <= t_t5_13_17 <= 1
 0 <= t_t5_13_18 <= 1
 0 <= t_t5_14_15 <= 1
 0 <= t_t5_14_16 <= 1
 0 <= t_t5_14_17 <= 1
 0 <= t_t5_14_18 <= 1
 0 <= t_t5_15_16 <= 1
 0 <= t_t5_15_17 <= 1
 0 <= t_t5_15_18 <= 1
 0 <= t_t5_16_17 <= 1
 0 <= t_t5_16_18 <= 1
 0 <= t_t5_17_18 <= 1
 0 <= t_t6_7_8 <= 1
 0 <= t_t6_7_9 <= 1
 0 <= t_t6_7_10 <= 1
 0 <= t_t6_7_11 <= 1
 0 <= t_t6_7_12 <= 1
 0 <= t_t6_7_13 <= 1
 0 <= t_t6_7_14 <= 1
 0 <= t_t6_7_15 <= 1
 0 <= t_t6_7_16 <= 1
 0 <= t_t6_7_17 <= 1
 0 <= t_t6_7_18 <= 1
 0 <= t_t6_8_9 <= 1
 0 <= t_t6_8_10 <= 1
 0 <= t_t6_8_11 <= 1
 0 <= t_t6_8_12 <= 1
 0 <= t_t6_8_13 <= 1
 0 <= t_t6_8_14 <= 1
 0 <= t_t6_8_15 <= 1
 0 <= t_t6_8_16 <= 1
 0 <= t_t6_8_17 <= 1
 0 <= t_t6_8_18 <= 1
 0 <= t_t6_9_10 <= 1
 0 <= t_t6_9_11 <= 1
 0 <= t_t6_9_12 <= 1
 0 <= t_t6_9_13 <= 1
 0 <= t_t6_9_14 <= 1
 0 <= t_t6_9_15 <= 1
 0 <= t_t6_9_16 <= 1
 0 <= t_t6_9_17 <= 1
 0 <= t_t6_9_18 <= 1
 0 <= t_t6_10_11 <= 1
 0 <= t_t6_10_12 <= 1
 0 <= t_t6_10_13 <= 1
 0 <= t_t6_10_14 <= 1
 0 <= t_t6_10_15 <= 1
 0 <= t_t6_10_16 <= 1
 0 <= t_t6_10_17 <= 1
 0 <= t_t6_10_18 <= 1
 0 <= t_t6_11_12 <= 1
 0 <= t_t6_11_13 <= 1
 0 <= t_t6_11_14 <= 1
 0 <= t_t6_11_15 <= 1
 0 <= t_t6_11_16 <= 1
 0 <= t_t6_11_17 <= 1
 0 <= t_t6_11_18 <= 1
 0 <= t_t6_12_13 <= 1
 0 <= t_t6_12_14 <= 1
 0 <= t_t6_12_15 <= 1
 0 <= t_t6_12_16 <= 1
 0 <= t_t6_12_17 <= 1
 0 <= t_t6_12_18 <= 1
 0 <= t_t6_13_14 <= 1
 0 <= t_t6_13_15 <= 0
 0 <= t_t6_13_16 <= 1
 0 <= t_t6_13_17 <= 1
 0 <= t_t6_13_18 <= 1
 0 <= t_t6_14_15 <= 1
 0 <= t_t6_14_16 <= 1
 0 <= t_t6_14_17 <= 1
 0 <= t_t6_14_18 <= 1
 0 <= t_t6_15_16 <= 1
 0 <= t_t6_15_17 <= 1
 0 <= t_t6_15_18 <= 1
 0 <= t_t6_16_17 <= 1
 0 <= t_t6_16_18 <= 1
 0 <= t_t6_17_18 <= 1
 0 <= t_t7_8_9 <= 1
 0 <= t_t7_8_10 <= 1
 0 <= t_t7_8_11 <= 1
 0 <= t_t7_8_12 <= 1
 0 <= t_t7_8_13 <= 1
 0 <= t_t7_8_14 <= 1
 0 <= t_t7_8_15 <= 1
 0 <= t_t7_8_16 <= 1
 0 <= t_t7_8_17 <= 1
 0 <= t_t7_8_18 <= 1
 0 <= t_t7_9_10 <= 1
 0 <= t_t7_9_11 <= 1
 0 <= t_t7_9_12 <= 1
 0 <= t_t7_9_13 <= 1
 0 <= t_t7_9_14 <= 1
 0 <= t_t7_9_15 <= 1
 0 <= t_t7_9_16 <= 1
 0 <= t_t7_9_17 <= 1
 0 <= t_t7_9_18 <= 1
 0 <= t_t7_10_11 <= 1
 0 <= t_t7_10_12 <= 1
 0 <= t_t7_10_13 <= 1
 0 <= t_t7_10_14 <= 1
 0 <= t_t7_10_15 <= 1
 0 <= t_t7_10_16 <= 1
 0 <= t_t7_10_17 <= 1
 0 <= t_t7_10_18 <= 1
 0 <= t_t7_11_12 <= 1
 0 <= t_t7_11_13 <= 1
 0 <= t_t7_11_14 <= 1
 0 <= t_t7_11_15 <= 1
 0 <= t_t7_11_16 <= 1
 0 <= t_t7_11_17 <= 1
 0 <= t_t7_11_18 <= 1
 0 <= t_t7_12_13 <= 1
 0 <= t_t7_12_14 <= 1
 0 <= t_t7_12_15 <= 1
 0 <= t_t7_12_16 <= 1
 0 <= t_t7_12_17 <= 1
 0 <= t_t7_12_18 <= 1
 0 <= t_t7_13_14 <= 1
 0 <= t_t7_13_15 <= 0
 0 <= t_t7_13_16 <= 1
 0 <= t_t7_13_17 <= 1
 0 <= t_t7_13_18 <= 1
 0 <= t_t7_14_15 <= 1
 0 <= t_t7_14_16 <= 1
 0 <= t_t7_14_17 <= 1
 0 <= t_t7_14_18 <= 1
 0 <= t_t7_15_16 <= 1
 0 <= t_t7_15_17 <= 1
 0 <= t_t7_15_18 <= 1
 0 <= t_t7_16_17 <= 1
 0 <= t_t7_16_18 <= 1
 0 <= t_t7_17_18 <= 1
 0 <= t_t8_9_10 <= 1
 0 <= t_t8_9_11 <= 1
 0 <= t_t8_9_12 <= 1
 0 <= t_t8_9_13 <= 1
 0 <= t_t8_9_14 <= 1
 0 <= t_t8_9_15 <= 1
 0 <= t_t8_9_16 <= 1
 0 <= t_t8_9_17 <= 1
 0 <= t_t8_9_18 <= 1
 0 <= t_t8_10_11 <= 1
 0 <= t_t8_10_12 <= 1
 0 <= t_t8_10_13 <= 1
 0 <= t_t8_10_14 <= 1
 0 <= t_t8_10_15 <= 1
 0 <= t_t8_10_16 <= 1
 0 <= t_t8_10_17 <= 1
 0 <= t_t8_10_18 <= 1
 0 <= t_t8_11_12 <= 1
 0 <= t_t8_11_13 <= 1
 0 <= t_t8_11_14 <= 1
 0 <= t_t8_11_15 <= 1
 0 <= t_t8_11_16 <= 1
 0 <= t_t8_11_17 <= 1
 0 <= t_t8_11_18 <= 1
 0 <= t_t8_12_13 <= 1
 0 <= t_t8_12_14 <= 1
 0 <= t_t8_12_15 <= 1
 0 <= t_t8_12_16 <= 1
 0 <= t_t8_12_17 <= 1
 0 <= t_t8_12_18 <= 1
 0 <= t_t8_13_14 <= 1
 0 <= t_t8_13_15 <= 0
 0 <= t_t8_13_16 <= 1
 0 <= t_t8_13_17 <= 1
 0 <= t_t8_13_18 <= 1
 0 <= t_t8_14_15 <= 1
 0 <= t_t8_14_16 <= 1
 0 <= t_t8_14_17 <= 1
 0 <= t_t8_14_18 <= 1
 0 <= t_t8_15_16 <= 1
 0 <= t_t8_15_17 <= 1
 0 <= t_t8_15_18 <= 1
 0 <= t_t8_16_17 <= 1
 0 <= t_t8_16_18 <= 1
 0 <= t_t8_17_18 <= 1
 0 <= t_t9_10_11 <= 1
 0 <= t_t9_10_12 <= 1
 0 <= t_t9_10_13 <= 1
 0 <= t_t9_10_14 <= 1
 0 <= t_t9_10_15 <= 1
 0 <= t_t9_10_16 <= 1
 0 <= t_t9_10_17 <= 1
 0 <= t_t9_10_18 <= 1
 0 <= t_t9_11_12 <= 1
 0 <= t_t9_11_13 <= 1
 0 <= t_t9_11_14 <= 1
 0 <= t_t9_11_15 <= 1
 0 <= t_t9_11_16 <= 1
 0 <= t_t9_11_17 <= 1
 0 <= t_t9_11_18 <= 1
 0 <= t_t9_12_13 <= 1
 0 <= t_t9_12_14 <= 1
 0 <= t_t9_12_15 <= 1
 0 <= t_t9_12_16 <= 1
 0 <= t_t9_12_17 <= 1
 0 <= t_t9_12_18 <= 1
 0 <= t_t9_13_14 <= 1
 0 <= t_t9_13_15 <= 0
 0 <= t_t9_13_16 <= 1
 0 <= t_t9_13_17 <= 1
 0 <= t_t9_13_18 <= 1
 0 <= t_t9_14_15 <= 1
 0 <= t_t9_14_16 <= 1
 0 <= t_t9_14_17 <= 1
 0 <= t_t9_14_18 <= 1
 0 <= t_t9_15_16 <= 1
 0 <= t_t9_15_17 <= 1
 0 <= t_t9_15_18 <= 1
 0 <= t_t9_16_17 <= 1
 0 <= t_t9_16_18 <= 1
 0 <= t_t9_17_18 <= 1
 0 <= t_t10_11_12 <= 1
 0 <= t_t10_11_13 <= 1
 0 <= t_t10_11_14 <= 1
 0 <= t_t10_11_15 <= 1
 0 <= t_t10_11_16 <= 1
 0 <= t_t10_11_17 <= 1
 0 <= t_t10_11_18 <= 1
 0 <= t_t10_12_13 <= 1
 0 <= t_t10_12_14 <= 1
 0 <= t_t10_12_15 <= 1
 0 <= t_t10_12_16 <= 1
 0 <= t_t10_12_17 <= 1
 0 <= t_t10_12_18 <= 1
 0 <= t_t10_13_14 <= 1
 0 <= t_t10_13_15 <= 0
 0 <= t_t10_13_16 <= 1
 0 <= t_t10_13_17 <= 1
 0 <= t_t10_13_18 <= 1
 0 <= t_t10_14_15 <= 1
 0 <= t_t10_14_16 <= 1
 0 <= t_t10_14_17 <= 1
 0 <= t_t10_14_18 <= 1
 0 <= t_t10_15_16 <= 1
 0 <= t_t10_15_17 <= 1
 0 <= t_t10_15_18 <= 1
 0 <= t_t10_16_17 <= 1
 0 <= t_t10_16_18 <= 1
 0 <= t_t10_17_18 <= 1
 0 <= t_t11_12_13 <= 1
 0 <= t_t11_12_14 <= 1
 0 <= t_t11_12_15 <= 1
 0 <= t_t11_12_16 <= 1
 0 <= t_t11_12_17 <= 1
 0 <= t_t11_12_18 <= 1
 0 <= t_t11_13_14 <= 1
 0 <= t_t11_13_15 <= 0
 0 <= t_t11_13_16 <= 1
 0 <= t_t11_13_17 <= 1
 0 <= t_t11_13_18 <= 1
 0 <= t_t11_14_15 <= 1
 0 <= t_t11_14_16 <= 1
 0 <= t_t11_14_17 <= 1
 0 <= t_t11_14_18 <= 1
 0 <= t_t11_15_16 <= 1
 0 <= t_t11_15_17 <= 1
 0 <= t_t11_15_18 <= 1
 0 <= t_t11_16_17 <= 1
 0 <= t_t11_16_18 <= 1
 0 <= t_t11_17_18 <= 1
 0 <= t_t12_13_14 <= 1
 0 <= t_t12_13_15 <= 0
 0 <= t_t12_13_16 <= 1
 0 <= t_t12_13_17 <= 1
 0 <= t_t12_13_18 <= 1
 0 <= t_t12_14_15 <= 1
 0 <= t_t12_14_16 <= 1
 0 <= t_t12_14_17 <= 1
 0 <= t_t12_14_18 <= 1
 0 <= t_t12_15_16 <= 1
 0 <= t_t12_15_17 <= 1
 0 <= t_t12_15_18 <= 1
 0 <= t_t12_16_17 <= 1
 0 <= t_t12_16_18 <= 1
 0 <= t_t12_17_18 <= 1
 0 <= t_t13_14_15 <= 0
 0 <= t_t13_14_16 <= 1
 0 <= t_t13_14_17 <= 1
 0 <= t_t13_14_18 <= 1
 0 <= t_t13_15_16 <= 0
 0 <= t_t13_15_17 <= 0
 0 <= t_t13_15_18 <= 0
 0 <= t_t13_16_17 <= 1
 0 <= t_t13_16_18 <= 1
 0 <= t_t13_17_18 <= 1
 0 <= t_t14_15_16 <= 1
 0 <= t_t14_15_17 <= 1
 0 <= t_t14_15_18 <= 1
 0 <= t_t14_16_17 <= 1
 0 <= t_t14_16_18 <= 1
 0 <= t_t14_17_18 <= 1
 0 <= t_t15_16_17 <= 1
 0 <= t_t15_16_18 <= 1
 0 <= t_t15_17_18 <= 1
 0 <= t_t16_17_18 <= 1
 0 <= t_b_1_9 <= 1
 0 <= t_b_1_10 <= 1
 0 <= t_b_1_11 <= 1
 0 <= t_b_1_12 <= 0
 0 <= t_b_1_13 <= 0
 0 <= t_b_1_14 <= 0
 0 <= t_b_1_15 <= 0
 0 <= t_b_1_16 <= 0
 0 <= t_b_1_17 <= 0
 1 <= t_b_2_9 <= 1
 1 <= t_b_2_10 <= 1
 0 <= t_b_2_11 <= 1
 0 <= t_b_2_12 <= 1
 0 <= t_b_2_13 <= 1
 0 <= t_b_2_14 <= 1
 0 <= t_b_2_15 <= 0
 0 <= t_b_2_16 <= 0
 0 <= t_b_2_17 <= 0
 0 <= t_b_2_18 <= 0
 1 <= t_b_3_9 <= 1
 1 <= t_b_3_10 <= 1
 1 <= t_b_3_11 <= 1
 1 <= t_b_3_12 <= 1
 1 <= t_b_3_13 <= 1
 1 <= t_b_3_14 <= 1
 0 <= t_b_3_15 <= 1
 0 <= t_b_3_16 <= 0
 0 <= t_b_3_17 <= 0
 0 <= t_b_3_18 <= 0
 1 <= t_b_4_9 <= 1
 1 <= t_b_4_10 <= 1
 1 <= t_b_4_11 <= 1
 1 <= t_b_4_12 <= 1
 1 <= t_b_4_13 <= 1
 1 <= t_b_4_14 <= 1
 1 <= t_b_4_15 <= 1
 0 <= t_b_4_16 <= 1
 0 <= t_b_4_17 <= 0
 0 <= t_b_4_18 <= 0
 1 <= t_b_5_9 <= 1
 1 <= t_b_5_10 <= 1
 1 <= t_b_5_11 <= 1
 1 <= t_b_5_12 <= 1
 1 <= t_b_5_13 <= 1
 1 <= t_b_5_14 <= 1
 1 <= t_b_5_15 <= 1
 0 <= t_b_5_16 <= 1
 0 <= t_b_5_17 <= 1
 0 <= t_b_5_18 <= 0
 1 <= t_b_6_9 <= 1
 1 <= t_b_6_10 <= 1
 1 <= t_b_6_11 <= 1
 1 <= t_b_6_12 <= 1
 1 <= t_b_6_13 <= 1
 1 <= t_b_6_14 <= 1
 1 <= t_b_6_15 <= 1
 0 <= t_b_6_16 <= 1
 0 <= t_b_6_17 <= 1
 0 <= t_b_6_18 <= 1
 1 <= t_b_7_9 <= 1
 1 <= t_b_7_10 <= 1
 1 <= t_b_7_11 <= 1
 1 <= t_b_7_12 <= 1
 1 <= t_b_7_13 <= 1
 1 <= t_b_7_14 <= 1
 1 <= t_b_7_15 <= 1
 0 <= t_b_7_16 <= 1
 0 <= t_b_7_17 <= 1
 0 <= t_b_7_18 <= 1
 1 <= t_b_8_9 <= 1
 1 <= t_b_8_10 <= 1
 1 <= t_b_8_11 <= 1
 1 <= t_b_8_12 <= 1
 1 <= t_b_8_13 <= 1
 1 <= t_b_8_14 <= 1
 1 <= t_b_8_15 <= 1
 0 <= t_b_8_16 <= 1
 0 <= t_b_8_17 <= 1
 0 <= t_b_8_18 <= 1
 3 <= t_d1 <= 5
 0 <= t_d9 <= 4
 1 <= t_T_shift <= 12
 8 <= t_d8_shift <= 12
 8 <= t_d7_shift <= 12
 8 <= t_d6_shift <= 12
 9 <= t_d5_shift <= 9
 8 <= t_d4_shift <= 9
 8 <= t_d3_shift <= 8
 4 <= t_d2_shift <= 8
 4 <= t_d18_shift <= 10
 4 <= t_d17_shift <= 10
 4 <= t_d16_shift <= 10
 3 <= t_d15_shift <= 5
 3 <= t_d14_shift <= 4
 3 <= t_d13_shift <= 4
 3 <= t_d12_shift <= 4
 0 <= t_d11_shift <= 4
 0 <= t_d10_shift <= 4
Binaries
 t_x1_9 t_x1_10 t_x1_11 t_x1_12 t_x1_13 t_x1_14 t_x1_15 t_x1_16 t_x1_17 t_x1_18 t_x2_9 t_x2_10 t_x2_11
 t_x2_12 t_x2_13 t_x2_14 t_x2_15 t_x2_16 t_x2_17 t_x2_18 t_x3_9 t_x3_10 t_x3_11 t_x3_12 t_x3_13 t_x3_14
 t_x3_15 t_x3_16 t_x3_17 t_x3_18 t_x4_9 t_x4_10 t_x4_11 t_x4_12 t_x4_13 t_x4_14 t_x4_15 t_x4_16 t_x4_17
 t_x4_18 t_x5_9 t_x5_10 t_x5_11 t_x5_12 t_x5_13 t_x5_14 t_x5_15 t_x5_16 t_x5_17 t_x5_18 t_x6_9 t_x6_10
 t_x6_11 t_x6_12 t_x6_13 t_x6_14 t_x6_15 t_x6_16 t_x6_17 t_x6_18 t_x7_9 t_x7_10 t_x7_11 t_x7_12 t_x7_13
 t_x7_14 t_x7_15 t_x7_16 t_x7_17 t_x7_18 t_x8_9 t_x8_10 t_x8_11 t_x8_12 t_x8_13 t_x8_14 t_x8_15 t_x8_16
 t_x8_17 t_x8_18 t_x9_10 t_x9_11 t_x9_12 t_x9_13 t_x9_14 t_x9_15 t_x9_16 t_x9_17 t_x9_18 t_x10_11 t_x10_12
 t_x10_13 t_x10_14 t_x10_15 t_x10_16 t_x10_17 t_x10_18 t_x11_12 t_x11_13 t_x11_14 t_x11_15 t_x11_16 t_x11_17
 t_x11_18 t_x12_13 t_x12_14 t_x12_15 t_x12_16 t_x12_17 t_x12_18 t_x13_14 t_x13_15 t_x13_16 t_x13_17 t_x13_18
 t_x14_15 t_x14_16 t_x14_17 t_x14_18 t_x15_16 t_x15_17 t_x15_18 t_x16_17 t_x16_18 t_x17_18 t_t0_1_2 t_t0_1_3
 t_t0_1_4 t_t0_1_5 t_t0_1_6 t_t0_1_7 t_t0_1_8 t_t0_2_3 t_t0_2_4 t_t0_2_5 t_t0_2_6 t_t0_2_7 t_t0_2_8 t_t0_3_4
 t_t0_3_5 t_t0_3_6 t_t0_3_7 t_t0_3_8 t_t0_4_5 t_t0_4_6 t_t0_4_7 t_t0_4_8 t_t0_5_6 t_t0_5_7 t_t0_5_8 t_t0_6_7
 t_t0_6_8 t_t0_7_8 t_t1_2_3 t_t1_2_4 t_t1_2_5 t_t1_2_6 t_t1_2_7 t_t1_2_8 t_t1_2_9 t_t1_2_10 t_t1_2_11
 t_t1_2_12 t_t1_2_13 t_t1_2_14 t_t1_2_15 t_t1_2_16 t_t1_2_17 t_t1_2_18 t_t1_3_4 t_t1_3_5 t_t1_3_6 t_t1_3_7
 t_t1_3_8 t_t1_3_9 t_t1_3_10 t_t1_3_11 t_t1_3_12 t_t1_3_13 t_t1_3_14 t_t1_3_15 t_t1_3_16 t_t1_3_17 t_t1_3_18
 t_t1_4_5 t_t1_4_6 t_t1_4_7 t_t1_4_8 t_t1_4_9 t_t1_4_10 t_t1_4_11 t_t1_4_12 t_t1_4_13 t_t1_4_14 t_t1_4_15
 t_t1_4_16 t_t1_4_17 t_t1_4_18 t_t1_5_6 t_t1_5_7 t_t1_5_8 t_t1_5_9 t_t1_5_10 t_t1_5_11 t_t1_5_12 t_t1_5_13
 t_t1_5_14 t_t1_5_15 t_t1_5_16 t_t1_5_17 t_t1_5_18 t_t1_6_7 t_t1_6_8 t_t1_6_9 t_t1_6_10 t_t1_6_11 t_t1_6_12
 t_t1_6_13 t_t1_6_14 t_t1_6_15 t_t1_6_16 t_t1_6_17 t_t1_6_18 t_t1_7_8 t_t1_7_9 t_t1_7_10 t_t1_7_11 t_t1_7_12
 t_t1_7_13 t_t1_7_14 t_t1_7_15 t_t1_7_16 t_t1_7_17 t_t1_7_18 t_t1_8_9 t_t1_8_10 t_t1_8_11 t_t1_8_12 t_t1_8_13
 t_t1_8_14 t_t1_8_15 t_t1_8_16 t_t1_8_17 t_t1_8_18 t_t1_9_10 t_t1_9_11 t_t1_9_12 t_t1_9_13 t_t1_9_14 t_t1_9_15
 t_t1_9_16 t_t1_9_17 t_t1_9_18 t_t1_10_11 t_t1_10_12 t_t1_10_13 t_t1_10_14 t_t1_10_15 t_t1_10_16 t_t1_10_17
 t_t1_10_18 t_t1_11_12 t_t1_11_13 t_t1_11_14 t_t1_11_15 t_t1_11_16 t_t1_11_17 t_t1_11_18 t_t1_12_13 t_t1_12_14
 t_t1_12_15 t_t1_12_16 t_t1_12_17 t_t1_12_18 t_t1_13_14 t_t1_13_15 t_t1_13_16 t_t1_13_17 t_t1_13_18 t_t1_14_15
 t_t1_14_16 t_t1_14_17 t_t1_14_18 t_t1_15_16 t_t1_15_17 t_t1_15_18 t_t1_16_17 t_t1_16_18 t_t1_17_18 t_t2_3_4
 t_t2_3_5 t_t2_3_6 t_t2_3_7 t_t2_3_8 t_t2_3_9 t_t2_3_10 t_t2_3_11 t_t2_3_12 t_t2_3_13 t_t2_3_14 t_t2_3_15
 t_t2_3_16 t_t2_3_17 t_t2_3_18 t_t2_4_5 t_t2_4_6 t_t2_4_7 t_t2_4_8 t_t2_4_9 t_t2_4_10 t_t2_4_11 t_t2_4_12
 t_t2_4_13 t_t2_4_14 t_t2_4_15 t_t2_4_16 t_t2_4_17 t_t2_4_18 t_t2_5_6 t_t2_5_7 t_t2_5_8 t_t2_5_9 t_t2_5_10
 t_t2_5_11 t_t2_5_12 t_t2_5_13 t_t2_5_14 t_t2_5_15 t_t2_5_16 t_t2_5_17 t_t2_5_18 t_t2_6_7 t_t2_6_8 t_t2_6_9
 t_t2_6_10 t_t2_6_11 t_t2_6_12 t_t2_6_13 t_t2_6_14 t_t2_6_15 t_t2_6_16 t_t2_6_17 t_t2_6_18 t_t2_7_8 t_t2_7_9
 t_t2_7_10 t_t2_7_11 t_t2_7_12 t_t2_7_13 t_t2_7_14 t_t2_7_15 t_t2_7_16 t_t2_7_17 t_t2_7_18 t_t2_8_9 t_t2_8_10
 t_t2_8_11 t_t2_8_12 t_t2_8_13 t_t2_8_14 t_t2_8_15 t_t2_8_16 t_t2_8_17 t_t2_8_18 t_t2_9_10 t_t2_9_11 t_t2_9_12
 t_t2_9_13 t_t2_9_14 t_t2_9_15 t_t2_9_16 t_t2_9_17 t_t2_9_18 t_t2_10_11 t_t2_10_12 t_t2_10_13 t_t2_10_14
 t_t2_10_15 t_t2_10_16 t_t2_10_17 t_t2_10_18 t_t2_11_12 t_t2_11_13 t_t2_11_14 t_t2_11_15 t_t2_11_16 t_t2_11_17
 t_t2_11_18 t_t2_12_13 t_t2_12_14 t_t2_12_15 t_t2_12_16 t_t2_12_17 t_t2_12_18 t_t2_13_14 t_t2_13_15 t_t2_13_16
 t_t2_13_17 t_t2_13_18 t_t2_14_15 t_t2_14_16 t_t2_14_17 t_t2_14_18 t_t2_15_16 t_t2_15_17 t_t2_15_18 t_t2_16_17
 t_t2_16_18 t_t2_17_18 t_t3_4_5 t_t3_4_6 t_t3_4_7 t_t3_4_8 t_t3_4_9 t_t3_4_10 t_t3_4_11 t_t3_4_12 t_t3_4_13
 t_t3_4_14 t_t3_4_15 t_t3_4_16 t_t3_4_17 t_t3_4_18 t_t3_5_6 t_t3_5_7 t_t3_5_8 t_t3_5_9 t_t3_5_10 t_t3_5_11
 t_t3_5_12 t_t3_5_13 t_t3_5_14 t_t3_5_15 t_t3_5_16 t_t3_5_17 t_t3_5_18 t_t3_6_7 t_t3_6_8 t_t3_6_9 t_t3_6_10
 t_t3_6_11 t_t3_6_12 t_t3_6_13 t_t3_6_14 t_t3_6_15 t_t3_6_16 t_t3_6_17 t_t3_6_18 t_t3_7_8 t_t3_7_9 t_t3_7_10
 t_t3_7_11 t_t3_7_12 t_t3_7_13 t_t3_7_14 t_t3_7_15 t_t3_7_16 t_t3_7_17 t_t3_7_18 t_t3_8_9 t_t3_8_10 t_t3_8_11
 t_t3_8_12 t_t3_8_13 t_t3_8_14 t_t3_8_15 t_t3_8_16 t_t3_8_17 t_t3_8_18 t_t3_9_10 t_t3_9_11 t_t3_9_12 t_t3_9_13
 t_t3_9_14 t_t3_9_15 t_t3_9_16 t_t3_9_17 t_t3_9_18 t_t3_10_11 t_t3_10_12 t_t3_10_13 t_t3_10_14 t_t3_10_15
 t_t3_10_16 t_t3_10_17 t_t3_10_18 t_t3_11_12 t_t3_11_13 t_t3_11_14 t_t3_11_15 t_t3_11_16 t_t3_11_17 t_t3_11_18
 t_t3_12_13 t_t3_12_14 t_t3_12_15 t_t3_12_16 t_t3_12_17 t_t3_12_18 t_t3_13_14 t_t3_13_15 t_t3_13_16 t_t3_13_17
 t_t3_13_18 t_t3_14_15 t_t3_14_16 t_t3_14_17 t_t3_14_18 t_t3_15_16 t_t3_15_17 t_t3_15_18 t_t3_16_17 t_t3_16_18
 t_t3_17_18 t_t4_5_6 t_t4_5_7 t_t4_5_8 t_t4_5_9 t_t4_5_10 t_t4_5_11 t_t4_5_12 t_t4_5_13 t_t4_5_14 t_t4_5_15
 t_t4_5_16 t_t4_5_17 t_t4_5_18 t_t4_6_7 t_t4_6_8 t_t4_6_9 t_t4_6_10 t_t4_6_11 t_t4_6_12 t_t4_6_13 t_t4_6_14
 t_t4_6_15 t_t4_6_16 t_t4_6_17 t_t4_6_18 t_t4_7_8 t_t4_7_9 t_t4_7_10 t_t4_7_11 t_t4_7_12 t_t4_7_13 t_t4_7_14
 t_t4_7_15 t_t4_7_16 t_t4_7_17 t_t4_7_18 t_t4_8_9 t_t4_8_10 t_t4_8_11 t_t4_8_12 t_t4_8_13 t_t4_8_14 t_t4_8_15
 t_t4_8_16 t_t4_8_17 t_t4_8_18 t_t4_9_10 t_t4_9_11 t_t4_9_12 t_t4_9_13 t_t4_9_14 t_t4_9_15 t_t4_9_16 t_t4_9_17
 t_t4_9_18 t_t4_10_11 t_t4_10_12 t_t4_10_13 t_t4_10_14 t_t4_10_15 t_t4_10_16 t_t4_10_17 t_t4_10_18 t_t4_11_12
 t_t4_11_13 t_t4_11_14 t_t4_11_15 t_t4_11_16 t_t4_11_17 t_t4_11_18 t_t4_12_13 t_t4_12_14 t_t4_12_15 t_t4_12_16
 t_t4_12_17 t_t4_12_18 t_t4_13_14 t_t4_13_15 t_t4_13_16 t_t4_13_17 t_t4_13_18 t_t4_14_15 t_t4_14_16 t_t4_14_17
 t_t4_14_18 t_t4_15_16 t_t4_15_17 t_t4_15_18 t_t4_16_17 t_t4_16_18 t_t4_17_18 t_t5_6_7 t_t5_6_8 t_t5_6_9
 t_t5_6_10 t_t5_6_11 t_t5_6_12 t_t5_6_13 t_t5_6_14 t_t5_6_15 t_t5_6_16 t_t5_6_17 t_t5_6_18 t_t5_7_8 t_t5_7_9
 t_t5_7_10 t_t5_7_11 t_t5_7_12 t_t5_7_13 t_t5_7_14 t_t5_7_15 t_t5_7_16 t_t5_7_17 t_t5_7_18 t_t5_8_9 t_t5_8_10
 t_t5_8_11 t_t5_8_12 t_t5_8_13 t_t5_8_14 t_t5_8_15 t_t5_8_16 t_t5_8_17 t_t5_8_18 t_t5_9_10 t_t5_9_11 t_t5_9_12
 t_t5_9_13 t_t5_9_14 t_t5_9_15 t_t5_9_16 t_t5_9_17 t_t5_9_18 t_t5_10_11 t_t5_10_12 t_t5_10_13 t_t5_10_14
 t_t5_10_15 t_t5_10_16 t_t5_10_17 t_t5_10_18 t_t5_11_12 t_t5_11_13 t_t5_11_14 t_t5_11_15 t_t5_11_16 t_t5_11_17
 t_t5_11_18 t_t5_12_13 t_t5_12_14 t_t5_12_15 t_t5_12_16 t_t5_12_17 t_t5_12_18 t_t5_13_14 t_t5_13_15 t_t5_13_16
 t_t5_13_17 t_t5_13_18 t_t5_14_15 t_t5_14_16 t_t5_14_17 t_t5_14_18 t_t5_15_16 t_t5_15_17 t_t5_15_18 t_t5_16_17
 t_t5_16_18 t_t5_17_18 t_t6_7_8 t_t6_7_9 t_t6_7_10 t_t6_7_11 t_t6_7_12 t_t6_7_13 t_t6_7_14 t_t6_7_15 t_t6_7_16
 t_t6_7_17 t_t6_7_18 t_t6_8_9 t_t6_8_10 t_t6_8_11 t_t6_8_12 t_t6_8_13 t_t6_8_14 t_t6_8_15 t_t6_8_16 t_t6_8_17
 t_t6_8_18 t_t6_9_10 t_t6_9_11 t_t6_9_12 t_t6_9_13 t_t6_9_14 t_t6_9_15 t_t6_9_16 t_t6_9_17 t_t6_9_18 t_t6_10_11
 t_t6_10_12 t_t6_10_13 t_t6_10_14 t_t6_10_15 t_t6_10_16 t_t6_10_17 t_t6_10_18 t_t6_11_12 t_t6_11_13 t_t6_11_14
 t_t6_11_15 t_t6_11_16 t_t6_11_17 t_t6_11_18 t_t6_12_13 t_t6_12_14 t_t6_12_15 t_t6_12_16 t_t6_12_17 t_t6_12_18
 t_t6_13_14 t_t6_13_15 t_t6_13_16 t_t6_13_17 t_t6_13_18 t_t6_14_15 t_t6_14_16 t_t6_14_17 t_t6_14_18 t_t6_15_16
 t_t6_15_17 t_t6_15_18 t_t6_16_17 t_t6_16_18 t_t6_17_18 t_t7_8_9 t_t7_8_10 t_t7_8_11 t_t7_8_12 t_t7_8_13
 t_t7_8_14 t_t7_8_15 t_t7_8_16 t_t7_8_17 t_t7_8_18 t_t7_9_10 t_t7_9_11 t_t7_9_12 t_t7_9_13 t_t7_9_14 t_t7_9_15
 t_t7_9_16 t_t7_9_17 t_t7_9_18 t_t7_10_11 t_t7_10_12 t_t7_10_13 t_t7_10_14 t_t7_10_15 t_t7_10_16 t_t7_10_17
 t_t7_10_18 t_t7_11_12 t_t7_11_13 t_t7_11_14 t_t7_11_15 t_t7_11_16 t_t7_11_17 t_t7_11_18 t_t7_12_13 t_t7_12_14
 t_t7_12_15 t_t7_12_16 t_t7_12_17 t_t7_12_18 t_t7_13_14 t_t7_13_15 t_t7_13_16 t_t7_13_17 t_t7_13_18 t_t7_14_15
 t_t7_14_16 t_t7_14_17 t_t7_14_18 t_t7_15_16 t_t7_15_17 t_t7_15_18 t_t7_16_17 t_t7_16_18 t_t7_17_18 t_t8_9_10
 t_t8_9_11 t_t8_9_12 t_t8_9_13 t_t8_9_14 t_t8_9_15 t_t8_9_16 t_t8_9_17 t_t8_9_18 t_t8_10_11 t_t8_10_12
 t_t8_10_13 t_t8_10_14 t_t8_10_15 t_t8_10_16 t_t8_10_17 t_t8_10_18 t_t8_11_12 t_t8_11_13 t_t8_11_14 t_t8_11_15
 t_t8_11_16 t_t8_11_17 t_t8_11_18 t_t8_12_13 t_t8_12_14 t_t8_12_15 t_t8_12_16 t_t8_12_17 t_t8_12_18 t_t8_13_14
 t_t8_13_15 t_t8_13_16 t_t8_13_17 t_t8_13_18 t_t8_14_15 t_t8_14_16 t_t8_14_17 t_t8_14_18 t_t8_15_16 t_t8_15_17
 t_t8_15_18 t_t8_16_17 t_t8_16_18 t_t8_17_18 t_t9_10_11 t_t9_10_12 t_t9_10_13 t_t9_10_14 t_t9_10_15 t_t9_10_16
 t_t9_10_17 t_t9_10_18 t_t9_11_12 t_t9_11_13 t_t9_11_14 t_t9_11_15 t_t9_11_16 t_t9_11_17 t_t9_11_18 t_t9_12_13
 t_t9_12_14 t_t9_12_15 t_t9_12_16 t_t9_12_17 t_t9_12_18 t_t9_13_14 t_t9_13_15 t_t9_13_16 t_t9_13_17 t_t9_13_18
 t_t9_14_15 t_t9_14_16 t_t9_14_17 t_t9_14_18 t_t9_15_16 t_t9_15_17 t_t9_15_18 t_t9_16_17 t_t9_16_18 t_t9_17_18
 t_t10_11_12 t_t10_11_13 t_t10_11_14 t_t10_11_15 t_t10_11_16 t_t10_11_17 t_t10_11_18 t_t10_12_13 t_t10_12_14
 t_t10_12_15 t_t10_12_16 t_t10_12_17 t_t10_12_18 t_t10_13_14 t_t10_13_15 t_t10_13_16 t_t10_13_17 t_t10_13_18
 t_t10_14_15 t_t10_14_16 t_t10_14_17 t_t10_14_18 t_t10_15_16 t_t10_15_17 t_t10_15_18 t_t10_16_17 t_t10_16_18
 t_t10_17_18 t_t11_12_13 t_t11_12_14 t_t11_12_15 t_t11_12_16 t_t11_12_17 t_t11_12_18 t_t11_13_14 t_t11_13_15
 t_t11_13_16 t_t11_13_17 t_t11_13_18 t_t11_14_15 t_t11_14_16 t_t11_14_17 t_t11_14_18 t_t11_15_16 t_t11_15_17
 t_t11_15_18 t_t11_16_17 t_t11_16_18 t_t11_17_18 t_t12_13_14 t_t12_13_15 t_t12_13_16 t_t12_13_17 t_t12_13_18
 t_t12_14_15 t_t12_14_16 t_t12_14_17 t_t12_14_18 t_t12_15_16 t_t12_15_17 t_t12_15_18 t_t12_16_17 t_t12_16_18
 t_t12_17_18 t_t13_14_15 t_t13_14_16 t_t13_14_17 t_t13_14_18 t_t13_15_16 t_t13_15_17 t_t13_15_18 t_t13_16_17
 t_t13_16_18 t_t13_17_18 t_t14_15_16 t_t14_15_17 t_t14_15_18 t_t14_16_17 t_t14_16_18 t_t14_17_18 t_t15_16_17
 t_t15_16_18 t_t15_17_18 t_t16_17_18 t_b_1_9 t_b_1_10 t_b_1_11 t_b_1_12 t_b_1_13 t_b_1_14 t_b_1_15 t_b_1_16
 t_b_1_17 t_b_2_9 t_b_2_10 t_b_2_11 t_b_2_12 t_b_2_13 t_b_2_14 t_b_2_15 t_b_2_16 t_b_2_17 t_b_2_18 t_b_3_9
 t_b_3_10 t_b_3_11 t_b_3_12 t_b_3_13 t_b_3_14 t_b_3_15 t_b_3_16 t_b_3_17 t_b_3_18 t_b_4_9 t_b_4_10 t_b_4_11
 t_b_4_12 t_b_4_13 t_b_4_14 t_b_4_15 t_b_4_16 t_b_4_17 t_b_4_18 t_b_5_9 t_b_5_10 t_b_5_11 t_b_5_12 t_b_5_13
 t_b_5_14 t_b_5_15 t_b_5_16 t_b_5_17 t_b_5_18 t_b_6_9 t_b_6_10 t_b_6_11 t_b_6_12 t_b_6_13 t_b_6_14 t_b_6_15
 t_b_6_16 t_b_6_17 t_b_6_18 t_b_7_9 t_b_7_10 t_b_7_11 t_b_7_12 t_b_7_13 t_b_7_14 t_b_7_15 t_b_7_16 t_b_7_17
 t_b_7_18 t_b_8_9 t_b_8_10 t_b_8_11 t_b_8_12 t_b_8_13 t_b_8_14 t_b_8_15 t_b_8_16 t_b_8_17 t_b_8_18
Generals
 t_d1 t_d9 t_T_shift t_d8_shift t_d7_shift t_d6_shift t_d5_shift t_d4_shift t_d3_shift t_d2_shift t_d18_shift
 t_d17_shift t_d16_shift t_d15_shift t_d14_shift t_d13_shift t_d12_shift t_d11_shift t_d10_shift
End
