Minimize
 obj: 0

Subject To

fix9_10: x9_10 = 1
fix9_11: x9_11 = 1
fix9_12: x9_12 = 1
fix9_13: x9_13 = 1
fix9_14: x9_14 = 1
fix9_15: x9_15 = 0
fix9_16: x9_16 = 0
fix9_17: x9_17 = 0
fix9_18: x9_18 = 0
fix9_19: x9_19 = 0
fix9_20: x9_20 = 0
fix9_21: x9_21 = 0
fix9_1: x1_9 = 1
fix9_2: x2_9 = 1
fix9_3: x3_9 = 1
fix9_4: x4_9 = 0
fix9_5: x5_9 = 0
fix9_6: x6_9 = 0
fix9_7: x7_9 = 0
fix9_8: x8_9 = 0

fix10_11: x10_11 = 0
fix10_12: x10_12 = 0
fix10_13: x10_13 = 0
fix10_14: x10_14 = 0
fix10_1: x1_10 = 0
fix10_2: x2_10 = 0
fix10_3: x3_10 = 0
fix11_12: x11_12 = 0
fix11_13: x11_13 = 0
fix11_14: x11_14 = 0
fix11_1: x1_11 = 0
fix11_2: x2_11 = 0
fix11_3: x3_11 = 0
fix12_13: x12_13 = 0
fix12_14: x12_14 = 0
fix12_1: x1_12 = 0
fix12_2: x2_12 = 0
fix12_3: x3_12 = 0
fix13_14: x13_14 = 0
fix13_1: x1_13 = 0
fix13_2: x2_13 = 0
fix13_3: x3_13 = 0
fix14_1: x1_14 = 0
fix14_2: x2_14 = 0
fix14_3: x3_14 = 0
fix1_2: x1_2 = 0
fix1_3: x1_3 = 0
fix2_3: x2_3 = 0

fix0_1: x0_1 = 1
fix0_2: x0_2 = 1
fix0_3: x0_3 = 1
fix0_4: x0_4 = 1
fix0_5: x0_5 = 1
fix0_6: x0_6 = 1
fix0_7: x0_7 = 1
fix0_8: x0_8 = 1
fix0_9: x0_9 = 0
fix0_10: x0_10 = 0
fix0_11: x0_11 = 0
fix0_12: x0_12 = 0
fix0_13: x0_13 = 0
fix0_14: x0_14 = 0
fix0_15: x0_15 = 0
fix0_16: x0_16 = 0
fix0_17: x0_17 = 0
fix0_18: x0_18 = 0
fix0_19: x0_19 = 0
fix0_20: x0_20 = 0
fix0_21: x0_21 = 0
edges_inside_A: x1_2 + x1_3 + x1_4 + x1_5 + x1_6 + x1_7 + x1_8 + x2_3 + x2_4 + x2_5 + x2_6 + x2_7 + x2_8 + x3_4 + x3_5 + x3_6 + x3_7 + x3_8 + x4_5 + x4_6 + x4_7 + x4_8 + x5_6 + x5_7 + x5_8 + x6_7 + x6_8 + x7_8 = 21
edges_inside_B: x9_10 + x9_11 + x9_12 + x9_13 + x9_14 + x9_15 + x9_16 + x9_17 + x9_18 + x9_19 + x9_20 + x9_21 + x10_11 + x10_12 + x10_13 + x10_14 + x10_15 + x10_16 + x10_17 + x10_18 + x10_19 + x10_20 + x10_21 + x11_12 + x11_13 + x11_14 + x11_15 + x11_16 + x11_17 + x11_18 + x11_19 + x11_20 + x11_21 + x12_13 + x12_14 + x12_15 + x12_16 + x12_17 + x12_18 + x12_19 + x12_20 + x12_21 + x13_14 + x13_15 + x13_16 + x13_17 + x13_18 + x13_19 + x13_20 + x13_21 + x14_15 + x14_16 + x14_17 + x14_18 + x14_19 + x14_20 + x14_21 + x15_16 + x15_17 + x15_18 + x15_19 + x15_20 + x15_21 + x16_17 + x16_18 + x16_19 + x16_20 + x16_21 + x17_18 + x17_19 + x17_20 + x17_21 + x18_19 + x18_20 + x18_21 + x19_20 + x19_21 + x20_21 = 45
edges_between_AB: x1_9 + x1_10 + x1_11 + x1_12 + x1_13 + x1_14 + x1_15 + x1_16 + x1_17 + x1_18 + x1_19 + x1_20 + x1_21 + x2_9 + x2_10 + x2_11 + x2_12 + x2_13 + x2_14 + x2_15 + x2_16 + x2_17 + x2_18 + x2_19 + x2_20 + x2_21 + x3_9 + x3_10 + x3_11 + x3_12 + x3_13 + x3_14 + x3_15 + x3_16 + x3_17 + x3_18 + x3_19 + x3_20 + x3_21 + x4_9 + x4_10 + x4_11 + x4_12 + x4_13 + x4_14 + x4_15 + x4_16 + x4_17 + x4_18 + x4_19 + x4_20 + x4_21 + x5_9 + x5_10 + x5_11 + x5_12 + x5_13 + x5_14 + x5_15 + x5_16 + x5_17 + x5_18 + x5_19 + x5_20 + x5_21 + x6_9 + x6_10 + x6_11 + x6_12 + x6_13 + x6_14 + x6_15 + x6_16 + x6_17 + x6_18 + x6_19 + x6_20 + x6_21 + x7_9 + x7_10 + x7_11 + x7_12 + x7_13 + x7_14 + x7_15 + x7_16 + x7_17 + x7_18 + x7_19 + x7_20 + x7_21 + x8_9 + x8_10 + x8_11 + x8_12 + x8_13 + x8_14 + x8_15 + x8_16 + x8_17 + x8_18 + x8_19 + x8_20 + x8_21 = 14

edgesInside_YZ: x4_5 + x4_6 + x4_7 + x4_8 + x4_15 + x4_16 + x4_17 + x4_18 + x4_19 + x4_20 + x4_21 + x5_6 + x5_7 + x5_8 + x5_15 + x5_16 + x5_17 + x5_18 + x5_19 + x5_20 + x5_21 + x6_7 + x6_8 + x6_15 + x6_16 + x6_17 + x6_18 + x6_19 + x6_20 + x6_21 + x7_8 + x7_15 + x7_16 + x7_17 + x7_18 + x7_19 + x7_20 + x7_21 + x8_15 + x8_16 + x8_17 + x8_18 + x8_19 + x8_20 + x8_21 + x15_16 + x15_17 + x15_18 + x15_19 + x15_20 + x15_21 + x16_17 + x16_18 + x16_19 + x16_20 + x16_21 + x17_18 + x17_19 + x17_20 + x17_21 + x18_19 + x18_20 + x18_21 + x19_20 + x19_21 + x20_21 = 19
edges_insideNonZero_between_A_B: x4_15 + x4_16 + x4_17 + x4_18 + x4_19 + x4_20 + x4_21 + x5_15 + x5_16 + x5_17 + x5_18 + x5_19 + x5_20 + x5_21 + x6_15 + x6_16 + x6_17 + x6_18 + x6_19 + x6_20 + x6_21 + x7_15 + x7_16 + x7_17 + x7_18 + x7_19 + x7_20 + x7_21 + x8_15 + x8_16 + x8_17 + x8_18 + x8_19 + x8_20 + x8_21 = 11

edges_insideNonZero_in_A_in_B: x4_5 + x4_6 + x4_7 + x4_8 + x5_6 + x5_7 + x5_8 + x6_7 + x6_8 + x7_8 + x15_16 + x15_17 + x15_18 + x15_19 + x15_20 + x15_21 + x16_17 + x16_18 + x16_19 + x16_20 + x16_21 + x17_18 + x17_19 + x17_20 + x17_21 + x18_19 + x18_20 + x18_21 + x19_20 + x19_21 + x20_21 = 8

lemmaA_deg_1: x1_2 + x1_3 + x1_4 + x1_5 + x1_6 + x1_7 + x1_8 >= 3
lemmaA_deg_2: x1_2 + x2_3 + x2_4 + x2_5 + x2_6 + x2_7 + x2_8 >= 3
lemmaA_deg_3: x1_3 + x2_3 + x3_4 + x3_5 + x3_6 + x3_7 + x3_8 >= 3
lemmaA_deg_4: x1_4 + x2_4 + x3_4 + x4_5 + x4_6 + x4_7 + x4_8 >= 3
lemmaA_deg_5: x1_5 + x2_5 + x3_5 + x4_5 + x5_6 + x5_7 + x5_8 >= 3
lemmaA_deg_6: x1_6 + x2_6 + x3_6 + x4_6 + x5_6 + x6_7 + x6_8 >= 3
lemmaA_deg_7: x1_7 + x2_7 + x3_7 + x4_7 + x5_7 + x6_7 + x7_8 >= 3
lemmaA_deg_8: x1_8 + x2_8 + x3_8 + x4_8 + x5_8 + x6_8 + x7_8 >= 3

deg0: x0_1 + x0_2 + x0_3 + x0_4 + x0_5 + x0_6 + x0_7 + x0_8 + x0_9 + x0_10 + x0_11 + x0_12 + x0_13 + x0_14 + x0_15 + x0_16 + x0_17 + x0_18 + x0_19 + x0_20 + x0_21 = 8
deg1: x0_1 + x1_2 + x1_3 + x1_4 + x1_5 + x1_6 + x1_7 + x1_8 + x1_9 + x1_10 + x1_11 + x1_12 + x1_13 + x1_14 + x1_15 + x1_16 + x1_17 + x1_18 + x1_19 + x1_20 + x1_21 = 8
deg2: x0_2 + x1_2 + x2_3 + x2_4 + x2_5 + x2_6 + x2_7 + x2_8 + x2_9 + x2_10 + x2_11 + x2_12 + x2_13 + x2_14 + x2_15 + x2_16 + x2_17 + x2_18 + x2_19 + x2_20 + x2_21 = 8
deg3: x0_3 + x1_3 + x2_3 + x3_4 + x3_5 + x3_6 + x3_7 + x3_8 + x3_9 + x3_10 + x3_11 + x3_12 + x3_13 + x3_14 + x3_15 + x3_16 + x3_17 + x3_18 + x3_19 + x3_20 + x3_21 = 8
deg4: x0_4 + x1_4 + x2_4 + x3_4 + x4_5 + x4_6 + x4_7 + x4_8 + x4_9 + x4_10 + x4_11 + x4_12 + x4_13 + x4_14 + x4_15 + x4_16 + x4_17 + x4_18 + x4_19 + x4_20 + x4_21 = 8
deg5: x0_5 + x1_5 + x2_5 + x3_5 + x4_5 + x5_6 + x5_7 + x5_8 + x5_9 + x5_10 + x5_11 + x5_12 + x5_13 + x5_14 + x5_15 + x5_16 + x5_17 + x5_18 + x5_19 + x5_20 + x5_21 = 8
deg6: x0_6 + x1_6 + x2_6 + x3_6 + x4_6 + x5_6 + x6_7 + x6_8 + x6_9 + x6_10 + x6_11 + x6_12 + x6_13 + x6_14 + x6_15 + x6_16 + x6_17 + x6_18 + x6_19 + x6_20 + x6_21 = 8
deg7: x0_7 + x1_7 + x2_7 + x3_7 + x4_7 + x5_7 + x6_7 + x7_8 + x7_9 + x7_10 + x7_11 + x7_12 + x7_13 + x7_14 + x7_15 + x7_16 + x7_17 + x7_18 + x7_19 + x7_20 + x7_21 = 8
deg8: x0_8 + x1_8 + x2_8 + x3_8 + x4_8 + x5_8 + x6_8 + x7_8 + x8_9 + x8_10 + x8_11 + x8_12 + x8_13 + x8_14 + x8_15 + x8_16 + x8_17 + x8_18 + x8_19 + x8_20 + x8_21 = 8
deg9: x0_9 + x1_9 + x2_9 + x3_9 + x4_9 + x5_9 + x6_9 + x7_9 + x8_9 + x9_10 + x9_11 + x9_12 + x9_13 + x9_14 + x9_15 + x9_16 + x9_17 + x9_18 + x9_19 + x9_20 + x9_21 = 8
deg10: x0_10 + x1_10 + x2_10 + x3_10 + x4_10 + x5_10 + x6_10 + x7_10 + x8_10 + x9_10 + x10_11 + x10_12 + x10_13 + x10_14 + x10_15 + x10_16 + x10_17 + x10_18 + x10_19 + x10_20 + x10_21 = 8
deg11: x0_11 + x1_11 + x2_11 + x3_11 + x4_11 + x5_11 + x6_11 + x7_11 + x8_11 + x9_11 + x10_11 + x11_12 + x11_13 + x11_14 + x11_15 + x11_16 + x11_17 + x11_18 + x11_19 + x11_20 + x11_21 = 8
deg12: x0_12 + x1_12 + x2_12 + x3_12 + x4_12 + x5_12 + x6_12 + x7_12 + x8_12 + x9_12 + x10_12 + x11_12 + x12_13 + x12_14 + x12_15 + x12_16 + x12_17 + x12_18 + x12_19 + x12_20 + x12_21 = 8
deg13: x0_13 + x1_13 + x2_13 + x3_13 + x4_13 + x5_13 + x6_13 + x7_13 + x8_13 + x9_13 + x10_13 + x11_13 + x12_13 + x13_14 + x13_15 + x13_16 + x13_17 + x13_18 + x13_19 + x13_20 + x13_21 = 8
deg14: x0_14 + x1_14 + x2_14 + x3_14 + x4_14 + x5_14 + x6_14 + x7_14 + x8_14 + x9_14 + x10_14 + x11_14 + x12_14 + x13_14 + x14_15 + x14_16 + x14_17 + x14_18 + x14_19 + x14_20 + x14_21 = 8
deg15: x0_15 + x1_15 + x2_15 + x3_15 + x4_15 + x5_15 + x6_15 + x7_15 + x8_15 + x9_15 + x10_15 + x11_15 + x12_15 + x13_15 + x14_15 + x15_16 + x15_17 + x15_18 + x15_19 + x15_20 + x15_21 = 8
deg16: x0_16 + x1_16 + x2_16 + x3_16 + x4_16 + x5_16 + x6_16 + x7_16 + x8_16 + x9_16 + x10_16 + x11_16 + x12_16 + x13_16 + x14_16 + x15_16 + x16_17 + x16_18 + x16_19 + x16_20 + x16_21 = 8
deg17: x0_17 + x1_17 + x2_17 + x3_17 + x4_17 + x5_17 + x6_17 + x7_17 + x8_17 + x9_17 + x10_17 + x11_17 + x12_17 + x13_17 + x14_17 + x15_17 + x16_17 + x17_18 + x17_19 + x17_20 + x17_21 = 8
deg18: x0_18 + x1_18 + x2_18 + x3_18 + x4_18 + x5_18 + x6_18 + x7_18 + x8_18 + x9_18 + x10_18 + x11_18 + x12_18 + x13_18 + x14_18 + x15_18 + x16_18 + x17_18 + x18_19 + x18_20 + x18_21 = 8
deg19: x0_19 + x1_19 + x2_19 + x3_19 + x4_19 + x5_19 + x6_19 + x7_19 + x8_19 + x9_19 + x10_19 + x11_19 + x12_19 + x13_19 + x14_19 + x15_19 + x16_19 + x17_19 + x18_19 + x19_20 + x19_21 = 8
deg20: x0_20 + x1_20 + x2_20 + x3_20 + x4_20 + x5_20 + x6_20 + x7_20 + x8_20 + x9_20 + x10_20 + x11_20 + x12_20 + x13_20 + x14_20 + x15_20 + x16_20 + x17_20 + x18_20 + x19_20 + x20_21 = 8
deg21: x0_21 + x1_21 + x2_21 + x3_21 + x4_21 + x5_21 + x6_21 + x7_21 + x8_21 + x9_21 + x10_21 + x11_21 + x12_21 + x13_21 + x14_21 + x15_21 + x16_21 + x17_21 + x18_21 + x19_21 + x20_21 = 8

notruetwins_0_1: t0_1_2 + t0_1_3 + t0_1_4 + t0_1_5 + t0_1_6 + t0_1_7 + t0_1_8 + t0_1_9 + t0_1_10 + t0_1_11 + t0_1_12 + t0_1_13 + t0_1_14 + t0_1_15 + t0_1_16 + t0_1_17 + t0_1_18 + t0_1_19 + t0_1_20 + t0_1_21 <= 6
notruetwins_0_2: t0_1_2 + t0_2_3 + t0_2_4 + t0_2_5 + t0_2_6 + t0_2_7 + t0_2_8 + t0_2_9 + t0_2_10 + t0_2_11 + t0_2_12 + t0_2_13 + t0_2_14 + t0_2_15 + t0_2_16 + t0_2_17 + t0_2_18 + t0_2_19 + t0_2_20 + t0_2_21 <= 6
notruetwins_0_3: t0_1_3 + t0_2_3 + t0_3_4 + t0_3_5 + t0_3_6 + t0_3_7 + t0_3_8 + t0_3_9 + t0_3_10 + t0_3_11 + t0_3_12 + t0_3_13 + t0_3_14 + t0_3_15 + t0_3_16 + t0_3_17 + t0_3_18 + t0_3_19 + t0_3_20 + t0_3_21 <= 6
notruetwins_0_4: t0_1_4 + t0_2_4 + t0_3_4 + t0_4_5 + t0_4_6 + t0_4_7 + t0_4_8 + t0_4_9 + t0_4_10 + t0_4_11 + t0_4_12 + t0_4_13 + t0_4_14 + t0_4_15 + t0_4_16 + t0_4_17 + t0_4_18 + t0_4_19 + t0_4_20 + t0_4_21 <= 6
notruetwins_0_5: t0_1_5 + t0_2_5 + t0_3_5 + t0_4_5 + t0_5_6 + t0_5_7 + t0_5_8 + t0_5_9 + t0_5_10 + t0_5_11 + t0_5_12 + t0_5_13 + t0_5_14 + t0_5_15 + t0_5_16 + t0_5_17 + t0_5_18 + t0_5_19 + t0_5_20 + t0_5_21 <= 6
notruetwins_0_6: t0_1_6 + t0_2_6 + t0_3_6 + t0_4_6 + t0_5_6 + t0_6_7 + t0_6_8 + t0_6_9 + t0_6_10 + t0_6_11 + t0_6_12 + t0_6_13 + t0_6_14 + t0_6_15 + t0_6_16 + t0_6_17 + t0_6_18 + t0_6_19 + t0_6_20 + t0_6_21 <= 6
notruetwins_0_7: t0_1_7 + t0_2_7 + t0_3_7 + t0_4_7 + t0_5_7 + t0_6_7 + t0_7_8 + t0_7_9 + t0_7_10 + t0_7_11 + t0_7_12 + t0_7_13 + t0_7_14 + t0_7_15 + t0_7_16 + t0_7_17 + t0_7_18 + t0_7_19 + t0_7_20 + t0_7_21 <= 6
notruetwins_0_8: t0_1_8 + t0_2_8 + t0_3_8 + t0_4_8 + t0_5_8 + t0_6_8 + t0_7_8 + t0_8_9 + t0_8_10 + t0_8_11 + t0_8_12 + t0_8_13 + t0_8_14 + t0_8_15 + t0_8_16 + t0_8_17 + t0_8_18 + t0_8_19 + t0_8_20 + t0_8_21 <= 6
notruetwins_0_9: t0_1_9 + t0_2_9 + t0_3_9 + t0_4_9 + t0_5_9 + t0_6_9 + t0_7_9 + t0_8_9 + t0_9_10 + t0_9_11 + t0_9_12 + t0_9_13 + t0_9_14 + t0_9_15 + t0_9_16 + t0_9_17 + t0_9_18 + t0_9_19 + t0_9_20 + t0_9_21 <= 6
notruetwins_0_10: t0_1_10 + t0_2_10 + t0_3_10 + t0_4_10 + t0_5_10 + t0_6_10 + t0_7_10 + t0_8_10 + t0_9_10 + t0_10_11 + t0_10_12 + t0_10_13 + t0_10_14 + t0_10_15 + t0_10_16 + t0_10_17 + t0_10_18 + t0_10_19 + t0_10_20 + t0_10_21 <= 6
notruetwins_0_11: t0_1_11 + t0_2_11 + t0_3_11 + t0_4_11 + t0_5_11 + t0_6_11 + t0_7_11 + t0_8_11 + t0_9_11 + t0_10_11 + t0_11_12 + t0_11_13 + t0_11_14 + t0_11_15 + t0_11_16 + t0_11_17 + t0_11_18 + t0_11_19 + t0_11_20 + t0_11_21 <= 6
notruetwins_0_12: t0_1_12 + t0_2_12 + t0_3_12 + t0_4_12 + t0_5_12 + t0_6_12 + t0_7_12 + t0_8_12 + t0_9_12 + t0_10_12 + t0_11_12 + t0_12_13 + t0_12_14 + t0_12_15 + t0_12_16 + t0_12_17 + t0_12_18 + t0_12_19 + t0_12_20 + t0_12_21 <= 6
notruetwins_0_13: t0_1_13 + t0_2_13 + t0_3_13 + t0_4_13 + t0_5_13 + t0_6_13 + t0_7_13 + t0_8_13 + t0_9_13 + t0_10_13 + t0_11_13 + t0_12_13 + t0_13_14 + t0_13_15 + t0_13_16 + t0_13_17 + t0_13_18 + t0_13_19 + t0_13_20 + t0_13_21 <= 6
notruetwins_0_14: t0_1_14 + t0_2_14 + t0_3_14 + t0_4_14 + t0_5_14 + t0_6_14 + t0_7_14 + t0_8_14 + t0_9_14 + t0_10_14 + t0_11_14 + t0_12_14 + t0_13_14 + t0_14_15 + t0_14_16 + t0_14_17 + t0_14_18 + t0_14_19 + t0_14_20 + t0_14_21 <= 6
notruetwins_0_15: t0_1_15 + t0_2_15 + t0_3_15 + t0_4_15 + t0_5_15 + t0_6_15 + t0_7_15 + t0_8_15 + t0_9_15 + t0_10_15 + t0_11_15 + t0_12_15 + t0_13_15 + t0_14_15 + t0_15_16 + t0_15_17 + t0_15_18 + t0_15_19 + t0_15_20 + t0_15_21 <= 6
notruetwins_0_16: t0_1_16 + t0_2_16 + t0_3_16 + t0_4_16 + t0_5_16 + t0_6_16 + t0_7_16 + t0_8_16 + t0_9_16 + t0_10_16 + t0_11_16 + t0_12_16 + t0_13_16 + t0_14_16 + t0_15_16 + t0_16_17 + t0_16_18 + t0_16_19 + t0_16_20 + t0_16_21 <= 6
notruetwins_0_17: t0_1_17 + t0_2_17 + t0_3_17 + t0_4_17 + t0_5_17 + t0_6_17 + t0_7_17 + t0_8_17 + t0_9_17 + t0_10_17 + t0_11_17 + t0_12_17 + t0_13_17 + t0_14_17 + t0_15_17 + t0_16_17 + t0_17_18 + t0_17_19 + t0_17_20 + t0_17_21 <= 6
notruetwins_0_18: t0_1_18 + t0_2_18 + t0_3_18 + t0_4_18 + t0_5_18 + t0_6_18 + t0_7_18 + t0_8_18 + t0_9_18 + t0_10_18 + t0_11_18 + t0_12_18 + t0_13_18 + t0_14_18 + t0_15_18 + t0_16_18 + t0_17_18 + t0_18_19 + t0_18_20 + t0_18_21 <= 6
notruetwins_0_19: t0_1_19 + t0_2_19 + t0_3_19 + t0_4_19 + t0_5_19 + t0_6_19 + t0_7_19 + t0_8_19 + t0_9_19 + t0_10_19 + t0_11_19 + t0_12_19 + t0_13_19 + t0_14_19 + t0_15_19 + t0_16_19 + t0_17_19 + t0_18_19 + t0_19_20 + t0_19_21 <= 6
notruetwins_0_20: t0_1_20 + t0_2_20 + t0_3_20 + t0_4_20 + t0_5_20 + t0_6_20 + t0_7_20 + t0_8_20 + t0_9_20 + t0_10_20 + t0_11_20 + t0_12_20 + t0_13_20 + t0_14_20 + t0_15_20 + t0_16_20 + t0_17_20 + t0_18_20 + t0_19_20 + t0_20_21 <= 6
notruetwins_0_21: t0_1_21 + t0_2_21 + t0_3_21 + t0_4_21 + t0_5_21 + t0_6_21 + t0_7_21 + t0_8_21 + t0_9_21 + t0_10_21 + t0_11_21 + t0_12_21 + t0_13_21 + t0_14_21 + t0_15_21 + t0_16_21 + t0_17_21 + t0_18_21 + t0_19_21 + t0_20_21 <= 6
notruetwins_1_2: t0_1_2 + t1_2_3 + t1_2_4 + t1_2_5 + t1_2_6 + t1_2_7 + t1_2_8 + t1_2_9 + t1_2_10 + t1_2_11 + t1_2_12 + t1_2_13 + t1_2_14 + t1_2_15 + t1_2_16 + t1_2_17 + t1_2_18 + t1_2_19 + t1_2_20 + t1_2_21 <= 6
notruetwins_1_3: t0_1_3 + t1_2_3 + t1_3_4 + t1_3_5 + t1_3_6 + t1_3_7 + t1_3_8 + t1_3_9 + t1_3_10 + t1_3_11 + t1_3_12 + t1_3_13 + t1_3_14 + t1_3_15 + t1_3_16 + t1_3_17 + t1_3_18 + t1_3_19 + t1_3_20 + t1_3_21 <= 6
notruetwins_1_4: t0_1_4 + t1_2_4 + t1_3_4 + t1_4_5 + t1_4_6 + t1_4_7 + t1_4_8 + t1_4_9 + t1_4_10 + t1_4_11 + t1_4_12 + t1_4_13 + t1_4_14 + t1_4_15 + t1_4_16 + t1_4_17 + t1_4_18 + t1_4_19 + t1_4_20 + t1_4_21 <= 6
notruetwins_1_5: t0_1_5 + t1_2_5 + t1_3_5 + t1_4_5 + t1_5_6 + t1_5_7 + t1_5_8 + t1_5_9 + t1_5_10 + t1_5_11 + t1_5_12 + t1_5_13 + t1_5_14 + t1_5_15 + t1_5_16 + t1_5_17 + t1_5_18 + t1_5_19 + t1_5_20 + t1_5_21 <= 6
notruetwins_1_6: t0_1_6 + t1_2_6 + t1_3_6 + t1_4_6 + t1_5_6 + t1_6_7 + t1_6_8 + t1_6_9 + t1_6_10 + t1_6_11 + t1_6_12 + t1_6_13 + t1_6_14 + t1_6_15 + t1_6_16 + t1_6_17 + t1_6_18 + t1_6_19 + t1_6_20 + t1_6_21 <= 6
notruetwins_1_7: t0_1_7 + t1_2_7 + t1_3_7 + t1_4_7 + t1_5_7 + t1_6_7 + t1_7_8 + t1_7_9 + t1_7_10 + t1_7_11 + t1_7_12 + t1_7_13 + t1_7_14 + t1_7_15 + t1_7_16 + t1_7_17 + t1_7_18 + t1_7_19 + t1_7_20 + t1_7_21 <= 6
notruetwins_1_8: t0_1_8 + t1_2_8 + t1_3_8 + t1_4_8 + t1_5_8 + t1_6_8 + t1_7_8 + t1_8_9 + t1_8_10 + t1_8_11 + t1_8_12 + t1_8_13 + t1_8_14 + t1_8_15 + t1_8_16 + t1_8_17 + t1_8_18 + t1_8_19 + t1_8_20 + t1_8_21 <= 6
notruetwins_1_9: t0_1_9 + t1_2_9 + t1_3_9 + t1_4_9 + t1_5_9 + t1_6_9 + t1_7_9 + t1_8_9 + t1_9_10 + t1_9_11 + t1_9_12 + t1_9_13 + t1_9_14 + t1_9_15 + t1_9_16 + t1_9_17 + t1_9_18 + t1_9_19 + t1_9_20 + t1_9_21 <= 6
notruetwins_1_10: t0_1_10 + t1_2_10 + t1_3_10 + t1_4_10 + t1_5_10 + t1_6_10 + t1_7_10 + t1_8_10 + t1_9_10 + t1_10_11 + t1_10_12 + t1_10_13 + t1_10_14 + t1_10_15 + t1_10_16 + t1_10_17 + t1_10_18 + t1_10_19 + t1_10_20 + t1_10_21 <= 6
notruetwins_1_11: t0_1_11 + t1_2_11 + t1_3_11 + t1_4_11 + t1_5_11 + t1_6_11 + t1_7_11 + t1_8_11 + t1_9_11 + t1_10_11 + t1_11_12 + t1_11_13 + t1_11_14 + t1_11_15 + t1_11_16 + t1_11_17 + t1_11_18 + t1_11_19 + t1_11_20 + t1_11_21 <= 6
notruetwins_1_12: t0_1_12 + t1_2_12 + t1_3_12 + t1_4_12 + t1_5_12 + t1_6_12 + t1_7_12 + t1_8_12 + t1_9_12 + t1_10_12 + t1_11_12 + t1_12_13 + t1_12_14 + t1_12_15 + t1_12_16 + t1_12_17 + t1_12_18 + t1_12_19 + t1_12_20 + t1_12_21 <= 6
notruetwins_1_13: t0_1_13 + t1_2_13 + t1_3_13 + t1_4_13 + t1_5_13 + t1_6_13 + t1_7_13 + t1_8_13 + t1_9_13 + t1_10_13 + t1_11_13 + t1_12_13 + t1_13_14 + t1_13_15 + t1_13_16 + t1_13_17 + t1_13_18 + t1_13_19 + t1_13_20 + t1_13_21 <= 6
notruetwins_1_14: t0_1_14 + t1_2_14 + t1_3_14 + t1_4_14 + t1_5_14 + t1_6_14 + t1_7_14 + t1_8_14 + t1_9_14 + t1_10_14 + t1_11_14 + t1_12_14 + t1_13_14 + t1_14_15 + t1_14_16 + t1_14_17 + t1_14_18 + t1_14_19 + t1_14_20 + t1_14_21 <= 6
notruetwins_1_15: t0_1_15 + t1_2_15 + t1_3_15 + t1_4_15 + t1_5_15 + t1_6_15 + t1_7_15 + t1_8_15 + t1_9_15 + t1_10_15 + t1_11_15 + t1_12_15 + t1_13_15 + t1_14_15 + t1_15_16 + t1_15_17 + t1_15_18 + t1_15_19 + t1_15_20 + t1_15_21 <= 6
notruetwins_1_16: t0_1_16 + t1_2_16 + t1_3_16 + t1_4_16 + t1_5_16 + t1_6_16 + t1_7_16 + t1_8_16 + t1_9_16 + t1_10_16 + t1_11_16 + t1_12_16 + t1_13_16 + t1_14_16 + t1_15_16 + t1_16_17 + t1_16_18 + t1_16_19 + t1_16_20 + t1_16_21 <= 6
notruetwins_1_17: t0_1_17 + t1_2_17 + t1_3_17 + t1_4_17 + t1_5_17 + t1_6_17 + t1_7_17 + t1_8_17 + t1_9_17 + t1_10_17 + t1_11_17 + t1_12_17 + t1_13_17 + t1_14_17 + t1_15_17 + t1_16_17 + t1_17_18 + t1_17_19 + t1_17_20 + t1_17_21 <= 6
notruetwins_1_18: t0_1_18 + t1_2_18 + t1_3_18 + t1_4_18 + t1_5_18 + t1_6_18 + t1_7_18 + t1_8_18 + t1_9_18 + t1_10_18 + t1_11_18 + t1_12_18 + t1_13_18 + t1_14_18 + t1_15_18 + t1_16_18 + t1_17_18 + t1_18_19 + t1_18_20 + t1_18_21 <= 6
notruetwins_1_19: t0_1_19 + t1_2_19 + t1_3_19 + t1_4_19 + t1_5_19 + t1_6_19 + t1_7_19 + t1_8_19 + t1_9_19 + t1_10_19 + t1_11_19 + t1_12_19 + t1_13_19 + t1_14_19 + t1_15_19 + t1_16_19 + t1_17_19 + t1_18_19 + t1_19_20 + t1_19_21 <= 6
notruetwins_1_20: t0_1_20 + t1_2_20 + t1_3_20 + t1_4_20 + t1_5_20 + t1_6_20 + t1_7_20 + t1_8_20 + t1_9_20 + t1_10_20 + t1_11_20 + t1_12_20 + t1_13_20 + t1_14_20 + t1_15_20 + t1_16_20 + t1_17_20 + t1_18_20 + t1_19_20 + t1_20_21 <= 6
notruetwins_1_21: t0_1_21 + t1_2_21 + t1_3_21 + t1_4_21 + t1_5_21 + t1_6_21 + t1_7_21 + t1_8_21 + t1_9_21 + t1_10_21 + t1_11_21 + t1_12_21 + t1_13_21 + t1_14_21 + t1_15_21 + t1_16_21 + t1_17_21 + t1_18_21 + t1_19_21 + t1_20_21 <= 6
notruetwins_2_3: t0_2_3 + t1_2_3 + t2_3_4 + t2_3_5 + t2_3_6 + t2_3_7 + t2_3_8 + t2_3_9 + t2_3_10 + t2_3_11 + t2_3_12 + t2_3_13 + t2_3_14 + t2_3_15 + t2_3_16 + t2_3_17 + t2_3_18 + t2_3_19 + t2_3_20 + t2_3_21 <= 6
notruetwins_2_4: t0_2_4 + t1_2_4 + t2_3_4 + t2_4_5 + t2_4_6 + t2_4_7 + t2_4_8 + t2_4_9 + t2_4_10 + t2_4_11 + t2_4_12 + t2_4_13 + t2_4_14 + t2_4_15 + t2_4_16 + t2_4_17 + t2_4_18 + t2_4_19 + t2_4_20 + t2_4_21 <= 6
notruetwins_2_5: t0_2_5 + t1_2_5 + t2_3_5 + t2_4_5 + t2_5_6 + t2_5_7 + t2_5_8 + t2_5_9 + t2_5_10 + t2_5_11 + t2_5_12 + t2_5_13 + t2_5_14 + t2_5_15 + t2_5_16 + t2_5_17 + t2_5_18 + t2_5_19 + t2_5_20 + t2_5_21 <= 6
notruetwins_2_6: t0_2_6 + t1_2_6 + t2_3_6 + t2_4_6 + t2_5_6 + t2_6_7 + t2_6_8 + t2_6_9 + t2_6_10 + t2_6_11 + t2_6_12 + t2_6_13 + t2_6_14 + t2_6_15 + t2_6_16 + t2_6_17 + t2_6_18 + t2_6_19 + t2_6_20 + t2_6_21 <= 6
notruetwins_2_7: t0_2_7 + t1_2_7 + t2_3_7 + t2_4_7 + t2_5_7 + t2_6_7 + t2_7_8 + t2_7_9 + t2_7_10 + t2_7_11 + t2_7_12 + t2_7_13 + t2_7_14 + t2_7_15 + t2_7_16 + t2_7_17 + t2_7_18 + t2_7_19 + t2_7_20 + t2_7_21 <= 6
notruetwins_2_8: t0_2_8 + t1_2_8 + t2_3_8 + t2_4_8 + t2_5_8 + t2_6_8 + t2_7_8 + t2_8_9 + t2_8_10 + t2_8_11 + t2_8_12 + t2_8_13 + t2_8_14 + t2_8_15 + t2_8_16 + t2_8_17 + t2_8_18 + t2_8_19 + t2_8_20 + t2_8_21 <= 6
notruetwins_2_9: t0_2_9 + t1_2_9 + t2_3_9 + t2_4_9 + t2_5_9 + t2_6_9 + t2_7_9 + t2_8_9 + t2_9_10 + t2_9_11 + t2_9_12 + t2_9_13 + t2_9_14 + t2_9_15 + t2_9_16 + t2_9_17 + t2_9_18 + t2_9_19 + t2_9_20 + t2_9_21 <= 6
notruetwins_2_10: t0_2_10 + t1_2_10 + t2_3_10 + t2_4_10 + t2_5_10 + t2_6_10 + t2_7_10 + t2_8_10 + t2_9_10 + t2_10_11 + t2_10_12 + t2_10_13 + t2_10_14 + t2_10_15 + t2_10_16 + t2_10_17 + t2_10_18 + t2_10_19 + t2_10_20 + t2_10_21 <= 6
notruetwins_2_11: t0_2_11 + t1_2_11 + t2_3_11 + t2_4_11 + t2_5_11 + t2_6_11 + t2_7_11 + t2_8_11 + t2_9_11 + t2_10_11 + t2_11_12 + t2_11_13 + t2_11_14 + t2_11_15 + t2_11_16 + t2_11_17 + t2_11_18 + t2_11_19 + t2_11_20 + t2_11_21 <= 6
notruetwins_2_12: t0_2_12 + t1_2_12 + t2_3_12 + t2_4_12 + t2_5_12 + t2_6_12 + t2_7_12 + t2_8_12 + t2_9_12 + t2_10_12 + t2_11_12 + t2_12_13 + t2_12_14 + t2_12_15 + t2_12_16 + t2_12_17 + t2_12_18 + t2_12_19 + t2_12_20 + t2_12_21 <= 6
notruetwins_2_13: t0_2_13 + t1_2_13 + t2_3_13 + t2_4_13 + t2_5_13 + t2_6_13 + t2_7_13 + t2_8_13 + t2_9_13 + t2_10_13 + t2_11_13 + t2_12_13 + t2_13_14 + t2_13_15 + t2_13_16 + t2_13_17 + t2_13_18 + t2_13_19 + t2_13_20 + t2_13_21 <= 6
notruetwins_2_14: t0_2_14 + t1_2_14 + t2_3_14 + t2_4_14 + t2_5_14 + t2_6_14 + t2_7_14 + t2_8_14 + t2_9_14 + t2_10_14 + t2_11_14 + t2_12_14 + t2_13_14 + t2_14_15 + t2_14_16 + t2_14_17 + t2_14_18 + t2_14_19 + t2_14_20 + t2_14_21 <= 6
notruetwins_2_15: t0_2_15 + t1_2_15 + t2_3_15 + t2_4_15 + t2_5_15 + t2_6_15 + t2_7_15 + t2_8_15 + t2_9_15 + t2_10_15 + t2_11_15 + t2_12_15 + t2_13_15 + t2_14_15 + t2_15_16 + t2_15_17 + t2_15_18 + t2_15_19 + t2_15_20 + t2_15_21 <= 6
notruetwins_2_16: t0_2_16 + t1_2_16 + t2_3_16 + t2_4_16 + t2_5_16 + t2_6_16 + t2_7_16 + t2_8_16 + t2_9_16 + t2_10_16 + t2_11_16 + t2_12_16 + t2_13_16 + t2_14_16 + t2_15_16 + t2_16_17 + t2_16_18 + t2_16_19 + t2_16_20 + t2_16_21 <= 6
notruetwins_2_17: t0_2_17 + t1_2_17 + t2_3_17 + t2_4_17 + t2_5_17 + t2_6_17 + t2_7_17 + t2_8_17 + t2_9_17 + t2_10_17 + t2_11_17 + t2_12_17 + t2_13_17 + t2_14_17 + t2_15_17 + t2_16_17 + t2_17_18 + t2_17_19 + t2_17_20 + t2_17_21 <= 6
notruetwins_2_18: t0_2_18 + t1_2_18 + t2_3_18 + t2_4_18 + t2_5_18 + t2_6_18 + t2_7_18 + t2_8_18 + t2_9_18 + t2_10_18 + t2_11_18 + t2_12_18 + t2_13_18 + t2_14_18 + t2_15_18 + t2_16_18 + t2_17_18 + t2_18_19 + t2_18_20 + t2_18_21 <= 6
notruetwins_2_19: t0_2_19 + t1_2_19 + t2_3_19 + t2_4_19 + t2_5_19 + t2_6_19 + t2_7_19 + t2_8_19 + t2_9_19 + t2_10_19 + t2_11_19 + t2_12_19 + t2_13_19 + t2_14_19 + t2_15_19 + t2_16_19 + t2_17_19 + t2_18_19 + t2_19_20 + t2_19_21 <= 6
notruetwins_2_20: t0_2_20 + t1_2_20 + t2_3_20 + t2_4_20 + t2_5_20 + t2_6_20 + t2_7_20 + t2_8_20 + t2_9_20 + t2_10_20 + t2_11_20 + t2_12_20 + t2_13_20 + t2_14_20 + t2_15_20 + t2_16_20 + t2_17_20 + t2_18_20 + t2_19_20 + t2_20_21 <= 6
notruetwins_2_21: t0_2_21 + t1_2_21 + t2_3_21 + t2_4_21 + t2_5_21 + t2_6_21 + t2_7_21 + t2_8_21 + t2_9_21 + t2_10_21 + t2_11_21 + t2_12_21 + t2_13_21 + t2_14_21 + t2_15_21 + t2_16_21 + t2_17_21 + t2_18_21 + t2_19_21 + t2_20_21 <= 6
notruetwins_3_4: t0_3_4 + t1_3_4 + t2_3_4 + t3_4_5 + t3_4_6 + t3_4_7 + t3_4_8 + t3_4_9 + t3_4_10 + t3_4_11 + t3_4_12 + t3_4_13 + t3_4_14 + t3_4_15 + t3_4_16 + t3_4_17 + t3_4_18 + t3_4_19 + t3_4_20 + t3_4_21 <= 6
notruetwins_3_5: t0_3_5 + t1_3_5 + t2_3_5 + t3_4_5 + t3_5_6 + t3_5_7 + t3_5_8 + t3_5_9 + t3_5_10 + t3_5_11 + t3_5_12 + t3_5_13 + t3_5_14 + t3_5_15 + t3_5_16 + t3_5_17 + t3_5_18 + t3_5_19 + t3_5_20 + t3_5_21 <= 6
notruetwins_3_6: t0_3_6 + t1_3_6 + t2_3_6 + t3_4_6 + t3_5_6 + t3_6_7 + t3_6_8 + t3_6_9 + t3_6_10 + t3_6_11 + t3_6_12 + t3_6_13 + t3_6_14 + t3_6_15 + t3_6_16 + t3_6_17 + t3_6_18 + t3_6_19 + t3_6_20 + t3_6_21 <= 6
notruetwins_3_7: t0_3_7 + t1_3_7 + t2_3_7 + t3_4_7 + t3_5_7 + t3_6_7 + t3_7_8 + t3_7_9 + t3_7_10 + t3_7_11 + t3_7_12 + t3_7_13 + t3_7_14 + t3_7_15 + t3_7_16 + t3_7_17 + t3_7_18 + t3_7_19 + t3_7_20 + t3_7_21 <= 6
notruetwins_3_8: t0_3_8 + t1_3_8 + t2_3_8 + t3_4_8 + t3_5_8 + t3_6_8 + t3_7_8 + t3_8_9 + t3_8_10 + t3_8_11 + t3_8_12 + t3_8_13 + t3_8_14 + t3_8_15 + t3_8_16 + t3_8_17 + t3_8_18 + t3_8_19 + t3_8_20 + t3_8_21 <= 6
notruetwins_3_9: t0_3_9 + t1_3_9 + t2_3_9 + t3_4_9 + t3_5_9 + t3_6_9 + t3_7_9 + t3_8_9 + t3_9_10 + t3_9_11 + t3_9_12 + t3_9_13 + t3_9_14 + t3_9_15 + t3_9_16 + t3_9_17 + t3_9_18 + t3_9_19 + t3_9_20 + t3_9_21 <= 6
notruetwins_3_10: t0_3_10 + t1_3_10 + t2_3_10 + t3_4_10 + t3_5_10 + t3_6_10 + t3_7_10 + t3_8_10 + t3_9_10 + t3_10_11 + t3_10_12 + t3_10_13 + t3_10_14 + t3_10_15 + t3_10_16 + t3_10_17 + t3_10_18 + t3_10_19 + t3_10_20 + t3_10_21 <= 6
notruetwins_3_11: t0_3_11 + t1_3_11 + t2_3_11 + t3_4_11 + t3_5_11 + t3_6_11 + t3_7_11 + t3_8_11 + t3_9_11 + t3_10_11 + t3_11_12 + t3_11_13 + t3_11_14 + t3_11_15 + t3_11_16 + t3_11_17 + t3_11_18 + t3_11_19 + t3_11_20 + t3_11_21 <= 6
notruetwins_3_12: t0_3_12 + t1_3_12 + t2_3_12 + t3_4_12 + t3_5_12 + t3_6_12 + t3_7_12 + t3_8_12 + t3_9_12 + t3_10_12 + t3_11_12 + t3_12_13 + t3_12_14 + t3_12_15 + t3_12_16 + t3_12_17 + t3_12_18 + t3_12_19 + t3_12_20 + t3_12_21 <= 6
notruetwins_3_13: t0_3_13 + t1_3_13 + t2_3_13 + t3_4_13 + t3_5_13 + t3_6_13 + t3_7_13 + t3_8_13 + t3_9_13 + t3_10_13 + t3_11_13 + t3_12_13 + t3_13_14 + t3_13_15 + t3_13_16 + t3_13_17 + t3_13_18 + t3_13_19 + t3_13_20 + t3_13_21 <= 6
notruetwins_3_14: t0_3_14 + t1_3_14 + t2_3_14 + t3_4_14 + t3_5_14 + t3_6_14 + t3_7_14 + t3_8_14 + t3_9_14 + t3_10_14 + t3_11_14 + t3_12_14 + t3_13_14 + t3_14_15 + t3_14_16 + t3_14_17 + t3_14_18 + t3_14_19 + t3_14_20 + t3_14_21 <= 6
notruetwins_3_15: t0_3_15 + t1_3_15 + t2_3_15 + t3_4_15 + t3_5_15 + t3_6_15 + t3_7_15 + t3_8_15 + t3_9_15 + t3_10_15 + t3_11_15 + t3_12_15 + t3_13_15 + t3_14_15 + t3_15_16 + t3_15_17 + t3_15_18 + t3_15_19 + t3_15_20 + t3_15_21 <= 6
notruetwins_3_16: t0_3_16 + t1_3_16 + t2_3_16 + t3_4_16 + t3_5_16 + t3_6_16 + t3_7_16 + t3_8_16 + t3_9_16 + t3_10_16 + t3_11_16 + t3_12_16 + t3_13_16 + t3_14_16 + t3_15_16 + t3_16_17 + t3_16_18 + t3_16_19 + t3_16_20 + t3_16_21 <= 6
notruetwins_3_17: t0_3_17 + t1_3_17 + t2_3_17 + t3_4_17 + t3_5_17 + t3_6_17 + t3_7_17 + t3_8_17 + t3_9_17 + t3_10_17 + t3_11_17 + t3_12_17 + t3_13_17 + t3_14_17 + t3_15_17 + t3_16_17 + t3_17_18 + t3_17_19 + t3_17_20 + t3_17_21 <= 6
notruetwins_3_18: t0_3_18 + t1_3_18 + t2_3_18 + t3_4_18 + t3_5_18 + t3_6_18 + t3_7_18 + t3_8_18 + t3_9_18 + t3_10_18 + t3_11_18 + t3_12_18 + t3_13_18 + t3_14_18 + t3_15_18 + t3_16_18 + t3_17_18 + t3_18_19 + t3_18_20 + t3_18_21 <= 6
notruetwins_3_19: t0_3_19 + t1_3_19 + t2_3_19 + t3_4_19 + t3_5_19 + t3_6_19 + t3_7_19 + t3_8_19 + t3_9_19 + t3_10_19 + t3_11_19 + t3_12_19 + t3_13_19 + t3_14_19 + t3_15_19 + t3_16_19 + t3_17_19 + t3_18_19 + t3_19_20 + t3_19_21 <= 6
notruetwins_3_20: t0_3_20 + t1_3_20 + t2_3_20 + t3_4_20 + t3_5_20 + t3_6_20 + t3_7_20 + t3_8_20 + t3_9_20 + t3_10_20 + t3_11_20 + t3_12_20 + t3_13_20 + t3_14_20 + t3_15_20 + t3_16_20 + t3_17_20 + t3_18_20 + t3_19_20 + t3_20_21 <= 6
notruetwins_3_21: t0_3_21 + t1_3_21 + t2_3_21 + t3_4_21 + t3_5_21 + t3_6_21 + t3_7_21 + t3_8_21 + t3_9_21 + t3_10_21 + t3_11_21 + t3_12_21 + t3_13_21 + t3_14_21 + t3_15_21 + t3_16_21 + t3_17_21 + t3_18_21 + t3_19_21 + t3_20_21 <= 6
notruetwins_4_5: t0_4_5 + t1_4_5 + t2_4_5 + t3_4_5 + t4_5_6 + t4_5_7 + t4_5_8 + t4_5_9 + t4_5_10 + t4_5_11 + t4_5_12 + t4_5_13 + t4_5_14 + t4_5_15 + t4_5_16 + t4_5_17 + t4_5_18 + t4_5_19 + t4_5_20 + t4_5_21 <= 6
notruetwins_4_6: t0_4_6 + t1_4_6 + t2_4_6 + t3_4_6 + t4_5_6 + t4_6_7 + t4_6_8 + t4_6_9 + t4_6_10 + t4_6_11 + t4_6_12 + t4_6_13 + t4_6_14 + t4_6_15 + t4_6_16 + t4_6_17 + t4_6_18 + t4_6_19 + t4_6_20 + t4_6_21 <= 6
notruetwins_4_7: t0_4_7 + t1_4_7 + t2_4_7 + t3_4_7 + t4_5_7 + t4_6_7 + t4_7_8 + t4_7_9 + t4_7_10 + t4_7_11 + t4_7_12 + t4_7_13 + t4_7_14 + t4_7_15 + t4_7_16 + t4_7_17 + t4_7_18 + t4_7_19 + t4_7_20 + t4_7_21 <= 6
notruetwins_4_8: t0_4_8 + t1_4_8 + t2_4_8 + t3_4_8 + t4_5_8 + t4_6_8 + t4_7_8 + t4_8_9 + t4_8_10 + t4_8_11 + t4_8_12 + t4_8_13 + t4_8_14 + t4_8_15 + t4_8_16 + t4_8_17 + t4_8_18 + t4_8_19 + t4_8_20 + t4_8_21 <= 6
notruetwins_4_9: t0_4_9 + t1_4_9 + t2_4_9 + t3_4_9 + t4_5_9 + t4_6_9 + t4_7_9 + t4_8_9 + t4_9_10 + t4_9_11 + t4_9_12 + t4_9_13 + t4_9_14 + t4_9_15 + t4_9_16 + t4_9_17 + t4_9_18 + t4_9_19 + t4_9_20 + t4_9_21 <= 6
notruetwins_4_10: t0_4_10 + t1_4_10 + t2_4_10 + t3_4_10 + t4_5_10 + t4_6_10 + t4_7_10 + t4_8_10 + t4_9_10 + t4_10_11 + t4_10_12 + t4_10_13 + t4_10_14 + t4_10_15 + t4_10_16 + t4_10_17 + t4_10_18 + t4_10_19 + t4_10_20 + t4_10_21 <= 6
notruetwins_4_11: t0_4_11 + t1_4_11 + t2_4_11 + t3_4_11 + t4_5_11 + t4_6_11 + t4_7_11 + t4_8_11 + t4_9_11 + t4_10_11 + t4_11_12 + t4_11_13 + t4_11_14 + t4_11_15 + t4_11_16 + t4_11_17 + t4_11_18 + t4_11_19 + t4_11_20 + t4_11_21 <= 6
notruetwins_4_12: t0_4_12 + t1_4_12 + t2_4_12 + t3_4_12 + t4_5_12 + t4_6_12 + t4_7_12 + t4_8_12 + t4_9_12 + t4_10_12 + t4_11_12 + t4_12_13 + t4_12_14 + t4_12_15 + t4_12_16 + t4_12_17 + t4_12_18 + t4_12_19 + t4_12_20 + t4_12_21 <= 6
notruetwins_4_13: t0_4_13 + t1_4_13 + t2_4_13 + t3_4_13 + t4_5_13 + t4_6_13 + t4_7_13 + t4_8_13 + t4_9_13 + t4_10_13 + t4_11_13 + t4_12_13 + t4_13_14 + t4_13_15 + t4_13_16 + t4_13_17 + t4_13_18 + t4_13_19 + t4_13_20 + t4_13_21 <= 6
notruetwins_4_14: t0_4_14 + t1_4_14 + t2_4_14 + t3_4_14 + t4_5_14 + t4_6_14 + t4_7_14 + t4_8_14 + t4_9_14 + t4_10_14 + t4_11_14 + t4_12_14 + t4_13_14 + t4_14_15 + t4_14_16 + t4_14_17 + t4_14_18 + t4_14_19 + t4_14_20 + t4_14_21 <= 6
notruetwins_4_15: t0_4_15 + t1_4_15 + t2_4_15 + t3_4_15 + t4_5_15 + t4_6_15 + t4_7_15 + t4_8_15 + t4_9_15 + t4_10_15 + t4_11_15 + t4_12_15 + t4_13_15 + t4_14_15 + t4_15_16 + t4_15_17 + t4_15_18 + t4_15_19 + t4_15_20 + t4_15_21 <= 6
notruetwins_4_16: t0_4_16 + t1_4_16 + t2_4_16 + t3_4_16 + t4_5_16 + t4_6_16 + t4_7_16 + t4_8_16 + t4_9_16 + t4_10_16 + t4_11_16 + t4_12_16 + t4_13_16 + t4_14_16 + t4_15_16 + t4_16_17 + t4_16_18 + t4_16_19 + t4_16_20 + t4_16_21 <= 6
notruetwins_4_17: t0_4_17 + t1_4_17 + t2_4_17 + t3_4_17 + t4_5_17 + t4_6_17 + t4_7_17 + t4_8_17 + t4_9_17 + t4_10_17 + t4_11_17 + t4_12_17 + t4_13_17 + t4_14_17 + t4_15_17 + t4_16_17 + t4_17_18 + t4_17_19 + t4_17_20 + t4_17_21 <= 6
notruetwins_4_18: t0_4_18 + t1_4_18 + t2_4_18 + t3_4_18 + t4_5_18 + t4_6_18 + t4_7_18 + t4_8_18 + t4_9_18 + t4_10_18 + t4_11_18 + t4_12_18 + t4_13_18 + t4_14_18 + t4_15_18 + t4_16_18 + t4_17_18 + t4_18_19 + t4_18_20 + t4_18_21 <= 6
notruetwins_4_19: t0_4_19 + t1_4_19 + t2_4_19 + t3_4_19 + t4_5_19 + t4_6_19 + t4_7_19 + t4_8_19 + t4_9_19 + t4_10_19 + t4_11_19 + t4_12_19 + t4_13_19 + t4_14_19 + t4_15_19 + t4_16_19 + t4_17_19 + t4_18_19 + t4_19_20 + t4_19_21 <= 6
notruetwins_4_20: t0_4_20 + t1_4_20 + t2_4_20 + t3_4_20 + t4_5_20 + t4_6_20 + t4_7_20 + t4_8_20 + t4_9_20 + t4_10_20 + t4_11_20 + t4_12_20 + t4_13_20 + t4_14_20 + t4_15_20 + t4_16_20 + t4_17_20 + t4_18_20 + t4_19_20 + t4_20_21 <= 6
notruetwins_4_21: t0_4_21 + t1_4_21 + t2_4_21 + t3_4_21 + t4_5_21 + t4_6_21 + t4_7_21 + t4_8_21 + t4_9_21 + t4_10_21 + t4_11_21 + t4_12_21 + t4_13_21 + t4_14_21 + t4_15_21 + t4_16_21 + t4_17_21 + t4_18_21 + t4_19_21 + t4_20_21 <= 6
notruetwins_5_6: t0_5_6 + t1_5_6 + t2_5_6 + t3_5_6 + t4_5_6 + t5_6_7 + t5_6_8 + t5_6_9 + t5_6_10 + t5_6_11 + t5_6_12 + t5_6_13 + t5_6_14 + t5_6_15 + t5_6_16 + t5_6_17 + t5_6_18 + t5_6_19 + t5_6_20 + t5_6_21 <= 6
notruetwins_5_7: t0_5_7 + t1_5_7 + t2_5_7 + t3_5_7 + t4_5_7 + t5_6_7 + t5_7_8 + t5_7_9 + t5_7_10 + t5_7_11 + t5_7_12 + t5_7_13 + t5_7_14 + t5_7_15 + t5_7_16 + t5_7_17 + t5_7_18 + t5_7_19 + t5_7_20 + t5_7_21 <= 6
notruetwins_5_8: t0_5_8 + t1_5_8 + t2_5_8 + t3_5_8 + t4_5_8 + t5_6_8 + t5_7_8 + t5_8_9 + t5_8_10 + t5_8_11 + t5_8_12 + t5_8_13 + t5_8_14 + t5_8_15 + t5_8_16 + t5_8_17 + t5_8_18 + t5_8_19 + t5_8_20 + t5_8_21 <= 6
notruetwins_5_9: t0_5_9 + t1_5_9 + t2_5_9 + t3_5_9 + t4_5_9 + t5_6_9 + t5_7_9 + t5_8_9 + t5_9_10 + t5_9_11 + t5_9_12 + t5_9_13 + t5_9_14 + t5_9_15 + t5_9_16 + t5_9_17 + t5_9_18 + t5_9_19 + t5_9_20 + t5_9_21 <= 6
notruetwins_5_10: t0_5_10 + t1_5_10 + t2_5_10 + t3_5_10 + t4_5_10 + t5_6_10 + t5_7_10 + t5_8_10 + t5_9_10 + t5_10_11 + t5_10_12 + t5_10_13 + t5_10_14 + t5_10_15 + t5_10_16 + t5_10_17 + t5_10_18 + t5_10_19 + t5_10_20 + t5_10_21 <= 6
notruetwins_5_11: t0_5_11 + t1_5_11 + t2_5_11 + t3_5_11 + t4_5_11 + t5_6_11 + t5_7_11 + t5_8_11 + t5_9_11 + t5_10_11 + t5_11_12 + t5_11_13 + t5_11_14 + t5_11_15 + t5_11_16 + t5_11_17 + t5_11_18 + t5_11_19 + t5_11_20 + t5_11_21 <= 6
notruetwins_5_12: t0_5_12 + t1_5_12 + t2_5_12 + t3_5_12 + t4_5_12 + t5_6_12 + t5_7_12 + t5_8_12 + t5_9_12 + t5_10_12 + t5_11_12 + t5_12_13 + t5_12_14 + t5_12_15 + t5_12_16 + t5_12_17 + t5_12_18 + t5_12_19 + t5_12_20 + t5_12_21 <= 6
notruetwins_5_13: t0_5_13 + t1_5_13 + t2_5_13 + t3_5_13 + t4_5_13 + t5_6_13 + t5_7_13 + t5_8_13 + t5_9_13 + t5_10_13 + t5_11_13 + t5_12_13 + t5_13_14 + t5_13_15 + t5_13_16 + t5_13_17 + t5_13_18 + t5_13_19 + t5_13_20 + t5_13_21 <= 6
notruetwins_5_14: t0_5_14 + t1_5_14 + t2_5_14 + t3_5_14 + t4_5_14 + t5_6_14 + t5_7_14 + t5_8_14 + t5_9_14 + t5_10_14 + t5_11_14 + t5_12_14 + t5_13_14 + t5_14_15 + t5_14_16 + t5_14_17 + t5_14_18 + t5_14_19 + t5_14_20 + t5_14_21 <= 6
notruetwins_5_15: t0_5_15 + t1_5_15 + t2_5_15 + t3_5_15 + t4_5_15 + t5_6_15 + t5_7_15 + t5_8_15 + t5_9_15 + t5_10_15 + t5_11_15 + t5_12_15 + t5_13_15 + t5_14_15 + t5_15_16 + t5_15_17 + t5_15_18 + t5_15_19 + t5_15_20 + t5_15_21 <= 6
notruetwins_5_16: t0_5_16 + t1_5_16 + t2_5_16 + t3_5_16 + t4_5_16 + t5_6_16 + t5_7_16 + t5_8_16 + t5_9_16 + t5_10_16 + t5_11_16 + t5_12_16 + t5_13_16 + t5_14_16 + t5_15_16 + t5_16_17 + t5_16_18 + t5_16_19 + t5_16_20 + t5_16_21 <= 6
notruetwins_5_17: t0_5_17 + t1_5_17 + t2_5_17 + t3_5_17 + t4_5_17 + t5_6_17 + t5_7_17 + t5_8_17 + t5_9_17 + t5_10_17 + t5_11_17 + t5_12_17 + t5_13_17 + t5_14_17 + t5_15_17 + t5_16_17 + t5_17_18 + t5_17_19 + t5_17_20 + t5_17_21 <= 6
notruetwins_5_18: t0_5_18 + t1_5_18 + t2_5_18 + t3_5_18 + t4_5_18 + t5_6_18 + t5_7_18 + t5_8_18 + t5_9_18 + t5_10_18 + t5_11_18 + t5_12_18 + t5_13_18 + t5_14_18 + t5_15_18 + t5_16_18 + t5_17_18 + t5_18_19 + t5_18_20 + t5_18_21 <= 6
notruetwins_5_19: t0_5_19 + t1_5_19 + t2_5_19 + t3_5_19 + t4_5_19 + t5_6_19 + t5_7_19 + t5_8_19 + t5_9_19 + t5_10_19 + t5_11_19 + t5_12_19 + t5_13_19 + t5_14_19 + t5_15_19 + t5_16_19 + t5_17_19 + t5_18_19 + t5_19_20 + t5_19_21 <= 6
notruetwins_5_20: t0_5_20 + t1_5_20 + t2_5_20 + t3_5_20 + t4_5_20 + t5_6_20 + t5_7_20 + t5_8_20 + t5_9_20 + t5_10_20 + t5_11_20 + t5_12_20 + t5_13_20 + t5_14_20 + t5_15_20 + t5_16_20 + t5_17_20 + t5_18_20 + t5_19_20 + t5_20_21 <= 6
notruetwins_5_21: t0_5_21 + t1_5_21 + t2_5_21 + t3_5_21 + t4_5_21 + t5_6_21 + t5_7_21 + t5_8_21 + t5_9_21 + t5_10_21 + t5_11_21 + t5_12_21 + t5_13_21 + t5_14_21 + t5_15_21 + t5_16_21 + t5_17_21 + t5_18_21 + t5_19_21 + t5_20_21 <= 6
notruetwins_6_7: t0_6_7 + t1_6_7 + t2_6_7 + t3_6_7 + t4_6_7 + t5_6_7 + t6_7_8 + t6_7_9 + t6_7_10 + t6_7_11 + t6_7_12 + t6_7_13 + t6_7_14 + t6_7_15 + t6_7_16 + t6_7_17 + t6_7_18 + t6_7_19 + t6_7_20 + t6_7_21 <= 6
notruetwins_6_8: t0_6_8 + t1_6_8 + t2_6_8 + t3_6_8 + t4_6_8 + t5_6_8 + t6_7_8 + t6_8_9 + t6_8_10 + t6_8_11 + t6_8_12 + t6_8_13 + t6_8_14 + t6_8_15 + t6_8_16 + t6_8_17 + t6_8_18 + t6_8_19 + t6_8_20 + t6_8_21 <= 6
notruetwins_6_9: t0_6_9 + t1_6_9 + t2_6_9 + t3_6_9 + t4_6_9 + t5_6_9 + t6_7_9 + t6_8_9 + t6_9_10 + t6_9_11 + t6_9_12 + t6_9_13 + t6_9_14 + t6_9_15 + t6_9_16 + t6_9_17 + t6_9_18 + t6_9_19 + t6_9_20 + t6_9_21 <= 6
notruetwins_6_10: t0_6_10 + t1_6_10 + t2_6_10 + t3_6_10 + t4_6_10 + t5_6_10 + t6_7_10 + t6_8_10 + t6_9_10 + t6_10_11 + t6_10_12 + t6_10_13 + t6_10_14 + t6_10_15 + t6_10_16 + t6_10_17 + t6_10_18 + t6_10_19 + t6_10_20 + t6_10_21 <= 6
notruetwins_6_11: t0_6_11 + t1_6_11 + t2_6_11 + t3_6_11 + t4_6_11 + t5_6_11 + t6_7_11 + t6_8_11 + t6_9_11 + t6_10_11 + t6_11_12 + t6_11_13 + t6_11_14 + t6_11_15 + t6_11_16 + t6_11_17 + t6_11_18 + t6_11_19 + t6_11_20 + t6_11_21 <= 6
notruetwins_6_12: t0_6_12 + t1_6_12 + t2_6_12 + t3_6_12 + t4_6_12 + t5_6_12 + t6_7_12 + t6_8_12 + t6_9_12 + t6_10_12 + t6_11_12 + t6_12_13 + t6_12_14 + t6_12_15 + t6_12_16 + t6_12_17 + t6_12_18 + t6_12_19 + t6_12_20 + t6_12_21 <= 6
notruetwins_6_13: t0_6_13 + t1_6_13 + t2_6_13 + t3_6_13 + t4_6_13 + t5_6_13 + t6_7_13 + t6_8_13 + t6_9_13 + t6_10_13 + t6_11_13 + t6_12_13 + t6_13_14 + t6_13_15 + t6_13_16 + t6_13_17 + t6_13_18 + t6_13_19 + t6_13_20 + t6_13_21 <= 6
notruetwins_6_14: t0_6_14 + t1_6_14 + t2_6_14 + t3_6_14 + t4_6_14 + t5_6_14 + t6_7_14 + t6_8_14 + t6_9_14 + t6_10_14 + t6_11_14 + t6_12_14 + t6_13_14 + t6_14_15 + t6_14_16 + t6_14_17 + t6_14_18 + t6_14_19 + t6_14_20 + t6_14_21 <= 6
notruetwins_6_15: t0_6_15 + t1_6_15 + t2_6_15 + t3_6_15 + t4_6_15 + t5_6_15 + t6_7_15 + t6_8_15 + t6_9_15 + t6_10_15 + t6_11_15 + t6_12_15 + t6_13_15 + t6_14_15 + t6_15_16 + t6_15_17 + t6_15_18 + t6_15_19 + t6_15_20 + t6_15_21 <= 6
notruetwins_6_16: t0_6_16 + t1_6_16 + t2_6_16 + t3_6_16 + t4_6_16 + t5_6_16 + t6_7_16 + t6_8_16 + t6_9_16 + t6_10_16 + t6_11_16 + t6_12_16 + t6_13_16 + t6_14_16 + t6_15_16 + t6_16_17 + t6_16_18 + t6_16_19 + t6_16_20 + t6_16_21 <= 6
notruetwins_6_17: t0_6_17 + t1_6_17 + t2_6_17 + t3_6_17 + t4_6_17 + t5_6_17 + t6_7_17 + t6_8_17 + t6_9_17 + t6_10_17 + t6_11_17 + t6_12_17 + t6_13_17 + t6_14_17 + t6_15_17 + t6_16_17 + t6_17_18 + t6_17_19 + t6_17_20 + t6_17_21 <= 6
notruetwins_6_18: t0_6_18 + t1_6_18 + t2_6_18 + t3_6_18 + t4_6_18 + t5_6_18 + t6_7_18 + t6_8_18 + t6_9_18 + t6_10_18 + t6_11_18 + t6_12_18 + t6_13_18 + t6_14_18 + t6_15_18 + t6_16_18 + t6_17_18 + t6_18_19 + t6_18_20 + t6_18_21 <= 6
notruetwins_6_19: t0_6_19 + t1_6_19 + t2_6_19 + t3_6_19 + t4_6_19 + t5_6_19 + t6_7_19 + t6_8_19 + t6_9_19 + t6_10_19 + t6_11_19 + t6_12_19 + t6_13_19 + t6_14_19 + t6_15_19 + t6_16_19 + t6_17_19 + t6_18_19 + t6_19_20 + t6_19_21 <= 6
notruetwins_6_20: t0_6_20 + t1_6_20 + t2_6_20 + t3_6_20 + t4_6_20 + t5_6_20 + t6_7_20 + t6_8_20 + t6_9_20 + t6_10_20 + t6_11_20 + t6_12_20 + t6_13_20 + t6_14_20 + t6_15_20 + t6_16_20 + t6_17_20 + t6_18_20 + t6_19_20 + t6_20_21 <= 6
notruetwins_6_21: t0_6_21 + t1_6_21 + t2_6_21 + t3_6_21 + t4_6_21 + t5_6_21 + t6_7_21 + t6_8_21 + t6_9_21 + t6_10_21 + t6_11_21 + t6_12_21 + t6_13_21 + t6_14_21 + t6_15_21 + t6_16_21 + t6_17_21 + t6_18_21 + t6_19_21 + t6_20_21 <= 6
notruetwins_7_8: t0_7_8 + t1_7_8 + t2_7_8 + t3_7_8 + t4_7_8 + t5_7_8 + t6_7_8 + t7_8_9 + t7_8_10 + t7_8_11 + t7_8_12 + t7_8_13 + t7_8_14 + t7_8_15 + t7_8_16 + t7_8_17 + t7_8_18 + t7_8_19 + t7_8_20 + t7_8_21 <= 6
notruetwins_7_9: t0_7_9 + t1_7_9 + t2_7_9 + t3_7_9 + t4_7_9 + t5_7_9 + t6_7_9 + t7_8_9 + t7_9_10 + t7_9_11 + t7_9_12 + t7_9_13 + t7_9_14 + t7_9_15 + t7_9_16 + t7_9_17 + t7_9_18 + t7_9_19 + t7_9_20 + t7_9_21 <= 6
notruetwins_7_10: t0_7_10 + t1_7_10 + t2_7_10 + t3_7_10 + t4_7_10 + t5_7_10 + t6_7_10 + t7_8_10 + t7_9_10 + t7_10_11 + t7_10_12 + t7_10_13 + t7_10_14 + t7_10_15 + t7_10_16 + t7_10_17 + t7_10_18 + t7_10_19 + t7_10_20 + t7_10_21 <= 6
notruetwins_7_11: t0_7_11 + t1_7_11 + t2_7_11 + t3_7_11 + t4_7_11 + t5_7_11 + t6_7_11 + t7_8_11 + t7_9_11 + t7_10_11 + t7_11_12 + t7_11_13 + t7_11_14 + t7_11_15 + t7_11_16 + t7_11_17 + t7_11_18 + t7_11_19 + t7_11_20 + t7_11_21 <= 6
notruetwins_7_12: t0_7_12 + t1_7_12 + t2_7_12 + t3_7_12 + t4_7_12 + t5_7_12 + t6_7_12 + t7_8_12 + t7_9_12 + t7_10_12 + t7_11_12 + t7_12_13 + t7_12_14 + t7_12_15 + t7_12_16 + t7_12_17 + t7_12_18 + t7_12_19 + t7_12_20 + t7_12_21 <= 6
notruetwins_7_13: t0_7_13 + t1_7_13 + t2_7_13 + t3_7_13 + t4_7_13 + t5_7_13 + t6_7_13 + t7_8_13 + t7_9_13 + t7_10_13 + t7_11_13 + t7_12_13 + t7_13_14 + t7_13_15 + t7_13_16 + t7_13_17 + t7_13_18 + t7_13_19 + t7_13_20 + t7_13_21 <= 6
notruetwins_7_14: t0_7_14 + t1_7_14 + t2_7_14 + t3_7_14 + t4_7_14 + t5_7_14 + t6_7_14 + t7_8_14 + t7_9_14 + t7_10_14 + t7_11_14 + t7_12_14 + t7_13_14 + t7_14_15 + t7_14_16 + t7_14_17 + t7_14_18 + t7_14_19 + t7_14_20 + t7_14_21 <= 6
notruetwins_7_15: t0_7_15 + t1_7_15 + t2_7_15 + t3_7_15 + t4_7_15 + t5_7_15 + t6_7_15 + t7_8_15 + t7_9_15 + t7_10_15 + t7_11_15 + t7_12_15 + t7_13_15 + t7_14_15 + t7_15_16 + t7_15_17 + t7_15_18 + t7_15_19 + t7_15_20 + t7_15_21 <= 6
notruetwins_7_16: t0_7_16 + t1_7_16 + t2_7_16 + t3_7_16 + t4_7_16 + t5_7_16 + t6_7_16 + t7_8_16 + t7_9_16 + t7_10_16 + t7_11_16 + t7_12_16 + t7_13_16 + t7_14_16 + t7_15_16 + t7_16_17 + t7_16_18 + t7_16_19 + t7_16_20 + t7_16_21 <= 6
notruetwins_7_17: t0_7_17 + t1_7_17 + t2_7_17 + t3_7_17 + t4_7_17 + t5_7_17 + t6_7_17 + t7_8_17 + t7_9_17 + t7_10_17 + t7_11_17 + t7_12_17 + t7_13_17 + t7_14_17 + t7_15_17 + t7_16_17 + t7_17_18 + t7_17_19 + t7_17_20 + t7_17_21 <= 6
notruetwins_7_18: t0_7_18 + t1_7_18 + t2_7_18 + t3_7_18 + t4_7_18 + t5_7_18 + t6_7_18 + t7_8_18 + t7_9_18 + t7_10_18 + t7_11_18 + t7_12_18 + t7_13_18 + t7_14_18 + t7_15_18 + t7_16_18 + t7_17_18 + t7_18_19 + t7_18_20 + t7_18_21 <= 6
notruetwins_7_19: t0_7_19 + t1_7_19 + t2_7_19 + t3_7_19 + t4_7_19 + t5_7_19 + t6_7_19 + t7_8_19 + t7_9_19 + t7_10_19 + t7_11_19 + t7_12_19 + t7_13_19 + t7_14_19 + t7_15_19 + t7_16_19 + t7_17_19 + t7_18_19 + t7_19_20 + t7_19_21 <= 6
notruetwins_7_20: t0_7_20 + t1_7_20 + t2_7_20 + t3_7_20 + t4_7_20 + t5_7_20 + t6_7_20 + t7_8_20 + t7_9_20 + t7_10_20 + t7_11_20 + t7_12_20 + t7_13_20 + t7_14_20 + t7_15_20 + t7_16_20 + t7_17_20 + t7_18_20 + t7_19_20 + t7_20_21 <= 6
notruetwins_7_21: t0_7_21 + t1_7_21 + t2_7_21 + t3_7_21 + t4_7_21 + t5_7_21 + t6_7_21 + t7_8_21 + t7_9_21 + t7_10_21 + t7_11_21 + t7_12_21 + t7_13_21 + t7_14_21 + t7_15_21 + t7_16_21 + t7_17_21 + t7_18_21 + t7_19_21 + t7_20_21 <= 6
notruetwins_8_9: t0_8_9 + t1_8_9 + t2_8_9 + t3_8_9 + t4_8_9 + t5_8_9 + t6_8_9 + t7_8_9 + t8_9_10 + t8_9_11 + t8_9_12 + t8_9_13 + t8_9_14 + t8_9_15 + t8_9_16 + t8_9_17 + t8_9_18 + t8_9_19 + t8_9_20 + t8_9_21 <= 6
notruetwins_8_10: t0_8_10 + t1_8_10 + t2_8_10 + t3_8_10 + t4_8_10 + t5_8_10 + t6_8_10 + t7_8_10 + t8_9_10 + t8_10_11 + t8_10_12 + t8_10_13 + t8_10_14 + t8_10_15 + t8_10_16 + t8_10_17 + t8_10_18 + t8_10_19 + t8_10_20 + t8_10_21 <= 6
notruetwins_8_11: t0_8_11 + t1_8_11 + t2_8_11 + t3_8_11 + t4_8_11 + t5_8_11 + t6_8_11 + t7_8_11 + t8_9_11 + t8_10_11 + t8_11_12 + t8_11_13 + t8_11_14 + t8_11_15 + t8_11_16 + t8_11_17 + t8_11_18 + t8_11_19 + t8_11_20 + t8_11_21 <= 6
notruetwins_8_12: t0_8_12 + t1_8_12 + t2_8_12 + t3_8_12 + t4_8_12 + t5_8_12 + t6_8_12 + t7_8_12 + t8_9_12 + t8_10_12 + t8_11_12 + t8_12_13 + t8_12_14 + t8_12_15 + t8_12_16 + t8_12_17 + t8_12_18 + t8_12_19 + t8_12_20 + t8_12_21 <= 6
notruetwins_8_13: t0_8_13 + t1_8_13 + t2_8_13 + t3_8_13 + t4_8_13 + t5_8_13 + t6_8_13 + t7_8_13 + t8_9_13 + t8_10_13 + t8_11_13 + t8_12_13 + t8_13_14 + t8_13_15 + t8_13_16 + t8_13_17 + t8_13_18 + t8_13_19 + t8_13_20 + t8_13_21 <= 6
notruetwins_8_14: t0_8_14 + t1_8_14 + t2_8_14 + t3_8_14 + t4_8_14 + t5_8_14 + t6_8_14 + t7_8_14 + t8_9_14 + t8_10_14 + t8_11_14 + t8_12_14 + t8_13_14 + t8_14_15 + t8_14_16 + t8_14_17 + t8_14_18 + t8_14_19 + t8_14_20 + t8_14_21 <= 6
notruetwins_8_15: t0_8_15 + t1_8_15 + t2_8_15 + t3_8_15 + t4_8_15 + t5_8_15 + t6_8_15 + t7_8_15 + t8_9_15 + t8_10_15 + t8_11_15 + t8_12_15 + t8_13_15 + t8_14_15 + t8_15_16 + t8_15_17 + t8_15_18 + t8_15_19 + t8_15_20 + t8_15_21 <= 6
notruetwins_8_16: t0_8_16 + t1_8_16 + t2_8_16 + t3_8_16 + t4_8_16 + t5_8_16 + t6_8_16 + t7_8_16 + t8_9_16 + t8_10_16 + t8_11_16 + t8_12_16 + t8_13_16 + t8_14_16 + t8_15_16 + t8_16_17 + t8_16_18 + t8_16_19 + t8_16_20 + t8_16_21 <= 6
notruetwins_8_17: t0_8_17 + t1_8_17 + t2_8_17 + t3_8_17 + t4_8_17 + t5_8_17 + t6_8_17 + t7_8_17 + t8_9_17 + t8_10_17 + t8_11_17 + t8_12_17 + t8_13_17 + t8_14_17 + t8_15_17 + t8_16_17 + t8_17_18 + t8_17_19 + t8_17_20 + t8_17_21 <= 6
notruetwins_8_18: t0_8_18 + t1_8_18 + t2_8_18 + t3_8_18 + t4_8_18 + t5_8_18 + t6_8_18 + t7_8_18 + t8_9_18 + t8_10_18 + t8_11_18 + t8_12_18 + t8_13_18 + t8_14_18 + t8_15_18 + t8_16_18 + t8_17_18 + t8_18_19 + t8_18_20 + t8_18_21 <= 6
notruetwins_8_19: t0_8_19 + t1_8_19 + t2_8_19 + t3_8_19 + t4_8_19 + t5_8_19 + t6_8_19 + t7_8_19 + t8_9_19 + t8_10_19 + t8_11_19 + t8_12_19 + t8_13_19 + t8_14_19 + t8_15_19 + t8_16_19 + t8_17_19 + t8_18_19 + t8_19_20 + t8_19_21 <= 6
notruetwins_8_20: t0_8_20 + t1_8_20 + t2_8_20 + t3_8_20 + t4_8_20 + t5_8_20 + t6_8_20 + t7_8_20 + t8_9_20 + t8_10_20 + t8_11_20 + t8_12_20 + t8_13_20 + t8_14_20 + t8_15_20 + t8_16_20 + t8_17_20 + t8_18_20 + t8_19_20 + t8_20_21 <= 6
notruetwins_8_21: t0_8_21 + t1_8_21 + t2_8_21 + t3_8_21 + t4_8_21 + t5_8_21 + t6_8_21 + t7_8_21 + t8_9_21 + t8_10_21 + t8_11_21 + t8_12_21 + t8_13_21 + t8_14_21 + t8_15_21 + t8_16_21 + t8_17_21 + t8_18_21 + t8_19_21 + t8_20_21 <= 6
notruetwins_9_10: t0_9_10 + t1_9_10 + t2_9_10 + t3_9_10 + t4_9_10 + t5_9_10 + t6_9_10 + t7_9_10 + t8_9_10 + t9_10_11 + t9_10_12 + t9_10_13 + t9_10_14 + t9_10_15 + t9_10_16 + t9_10_17 + t9_10_18 + t9_10_19 + t9_10_20 + t9_10_21 <= 6
notruetwins_9_11: t0_9_11 + t1_9_11 + t2_9_11 + t3_9_11 + t4_9_11 + t5_9_11 + t6_9_11 + t7_9_11 + t8_9_11 + t9_10_11 + t9_11_12 + t9_11_13 + t9_11_14 + t9_11_15 + t9_11_16 + t9_11_17 + t9_11_18 + t9_11_19 + t9_11_20 + t9_11_21 <= 6
notruetwins_9_12: t0_9_12 + t1_9_12 + t2_9_12 + t3_9_12 + t4_9_12 + t5_9_12 + t6_9_12 + t7_9_12 + t8_9_12 + t9_10_12 + t9_11_12 + t9_12_13 + t9_12_14 + t9_12_15 + t9_12_16 + t9_12_17 + t9_12_18 + t9_12_19 + t9_12_20 + t9_12_21 <= 6
notruetwins_9_13: t0_9_13 + t1_9_13 + t2_9_13 + t3_9_13 + t4_9_13 + t5_9_13 + t6_9_13 + t7_9_13 + t8_9_13 + t9_10_13 + t9_11_13 + t9_12_13 + t9_13_14 + t9_13_15 + t9_13_16 + t9_13_17 + t9_13_18 + t9_13_19 + t9_13_20 + t9_13_21 <= 6
notruetwins_9_14: t0_9_14 + t1_9_14 + t2_9_14 + t3_9_14 + t4_9_14 + t5_9_14 + t6_9_14 + t7_9_14 + t8_9_14 + t9_10_14 + t9_11_14 + t9_12_14 + t9_13_14 + t9_14_15 + t9_14_16 + t9_14_17 + t9_14_18 + t9_14_19 + t9_14_20 + t9_14_21 <= 6
notruetwins_9_15: t0_9_15 + t1_9_15 + t2_9_15 + t3_9_15 + t4_9_15 + t5_9_15 + t6_9_15 + t7_9_15 + t8_9_15 + t9_10_15 + t9_11_15 + t9_12_15 + t9_13_15 + t9_14_15 + t9_15_16 + t9_15_17 + t9_15_18 + t9_15_19 + t9_15_20 + t9_15_21 <= 6
notruetwins_9_16: t0_9_16 + t1_9_16 + t2_9_16 + t3_9_16 + t4_9_16 + t5_9_16 + t6_9_16 + t7_9_16 + t8_9_16 + t9_10_16 + t9_11_16 + t9_12_16 + t9_13_16 + t9_14_16 + t9_15_16 + t9_16_17 + t9_16_18 + t9_16_19 + t9_16_20 + t9_16_21 <= 6
notruetwins_9_17: t0_9_17 + t1_9_17 + t2_9_17 + t3_9_17 + t4_9_17 + t5_9_17 + t6_9_17 + t7_9_17 + t8_9_17 + t9_10_17 + t9_11_17 + t9_12_17 + t9_13_17 + t9_14_17 + t9_15_17 + t9_16_17 + t9_17_18 + t9_17_19 + t9_17_20 + t9_17_21 <= 6
notruetwins_9_18: t0_9_18 + t1_9_18 + t2_9_18 + t3_9_18 + t4_9_18 + t5_9_18 + t6_9_18 + t7_9_18 + t8_9_18 + t9_10_18 + t9_11_18 + t9_12_18 + t9_13_18 + t9_14_18 + t9_15_18 + t9_16_18 + t9_17_18 + t9_18_19 + t9_18_20 + t9_18_21 <= 6
notruetwins_9_19: t0_9_19 + t1_9_19 + t2_9_19 + t3_9_19 + t4_9_19 + t5_9_19 + t6_9_19 + t7_9_19 + t8_9_19 + t9_10_19 + t9_11_19 + t9_12_19 + t9_13_19 + t9_14_19 + t9_15_19 + t9_16_19 + t9_17_19 + t9_18_19 + t9_19_20 + t9_19_21 <= 6
notruetwins_9_20: t0_9_20 + t1_9_20 + t2_9_20 + t3_9_20 + t4_9_20 + t5_9_20 + t6_9_20 + t7_9_20 + t8_9_20 + t9_10_20 + t9_11_20 + t9_12_20 + t9_13_20 + t9_14_20 + t9_15_20 + t9_16_20 + t9_17_20 + t9_18_20 + t9_19_20 + t9_20_21 <= 6
notruetwins_9_21: t0_9_21 + t1_9_21 + t2_9_21 + t3_9_21 + t4_9_21 + t5_9_21 + t6_9_21 + t7_9_21 + t8_9_21 + t9_10_21 + t9_11_21 + t9_12_21 + t9_13_21 + t9_14_21 + t9_15_21 + t9_16_21 + t9_17_21 + t9_18_21 + t9_19_21 + t9_20_21 <= 6
notruetwins_10_11: t0_10_11 + t1_10_11 + t2_10_11 + t3_10_11 + t4_10_11 + t5_10_11 + t6_10_11 + t7_10_11 + t8_10_11 + t9_10_11 + t10_11_12 + t10_11_13 + t10_11_14 + t10_11_15 + t10_11_16 + t10_11_17 + t10_11_18 + t10_11_19 + t10_11_20 + t10_11_21 <= 6
notruetwins_10_12: t0_10_12 + t1_10_12 + t2_10_12 + t3_10_12 + t4_10_12 + t5_10_12 + t6_10_12 + t7_10_12 + t8_10_12 + t9_10_12 + t10_11_12 + t10_12_13 + t10_12_14 + t10_12_15 + t10_12_16 + t10_12_17 + t10_12_18 + t10_12_19 + t10_12_20 + t10_12_21 <= 6
notruetwins_10_13: t0_10_13 + t1_10_13 + t2_10_13 + t3_10_13 + t4_10_13 + t5_10_13 + t6_10_13 + t7_10_13 + t8_10_13 + t9_10_13 + t10_11_13 + t10_12_13 + t10_13_14 + t10_13_15 + t10_13_16 + t10_13_17 + t10_13_18 + t10_13_19 + t10_13_20 + t10_13_21 <= 6
notruetwins_10_14: t0_10_14 + t1_10_14 + t2_10_14 + t3_10_14 + t4_10_14 + t5_10_14 + t6_10_14 + t7_10_14 + t8_10_14 + t9_10_14 + t10_11_14 + t10_12_14 + t10_13_14 + t10_14_15 + t10_14_16 + t10_14_17 + t10_14_18 + t10_14_19 + t10_14_20 + t10_14_21 <= 6
notruetwins_10_15: t0_10_15 + t1_10_15 + t2_10_15 + t3_10_15 + t4_10_15 + t5_10_15 + t6_10_15 + t7_10_15 + t8_10_15 + t9_10_15 + t10_11_15 + t10_12_15 + t10_13_15 + t10_14_15 + t10_15_16 + t10_15_17 + t10_15_18 + t10_15_19 + t10_15_20 + t10_15_21 <= 6
notruetwins_10_16: t0_10_16 + t1_10_16 + t2_10_16 + t3_10_16 + t4_10_16 + t5_10_16 + t6_10_16 + t7_10_16 + t8_10_16 + t9_10_16 + t10_11_16 + t10_12_16 + t10_13_16 + t10_14_16 + t10_15_16 + t10_16_17 + t10_16_18 + t10_16_19 + t10_16_20 + t10_16_21 <= 6
notruetwins_10_17: t0_10_17 + t1_10_17 + t2_10_17 + t3_10_17 + t4_10_17 + t5_10_17 + t6_10_17 + t7_10_17 + t8_10_17 + t9_10_17 + t10_11_17 + t10_12_17 + t10_13_17 + t10_14_17 + t10_15_17 + t10_16_17 + t10_17_18 + t10_17_19 + t10_17_20 + t10_17_21 <= 6
notruetwins_10_18: t0_10_18 + t1_10_18 + t2_10_18 + t3_10_18 + t4_10_18 + t5_10_18 + t6_10_18 + t7_10_18 + t8_10_18 + t9_10_18 + t10_11_18 + t10_12_18 + t10_13_18 + t10_14_18 + t10_15_18 + t10_16_18 + t10_17_18 + t10_18_19 + t10_18_20 + t10_18_21 <= 6
notruetwins_10_19: t0_10_19 + t1_10_19 + t2_10_19 + t3_10_19 + t4_10_19 + t5_10_19 + t6_10_19 + t7_10_19 + t8_10_19 + t9_10_19 + t10_11_19 + t10_12_19 + t10_13_19 + t10_14_19 + t10_15_19 + t10_16_19 + t10_17_19 + t10_18_19 + t10_19_20 + t10_19_21 <= 6
notruetwins_10_20: t0_10_20 + t1_10_20 + t2_10_20 + t3_10_20 + t4_10_20 + t5_10_20 + t6_10_20 + t7_10_20 + t8_10_20 + t9_10_20 + t10_11_20 + t10_12_20 + t10_13_20 + t10_14_20 + t10_15_20 + t10_16_20 + t10_17_20 + t10_18_20 + t10_19_20 + t10_20_21 <= 6
notruetwins_10_21: t0_10_21 + t1_10_21 + t2_10_21 + t3_10_21 + t4_10_21 + t5_10_21 + t6_10_21 + t7_10_21 + t8_10_21 + t9_10_21 + t10_11_21 + t10_12_21 + t10_13_21 + t10_14_21 + t10_15_21 + t10_16_21 + t10_17_21 + t10_18_21 + t10_19_21 + t10_20_21 <= 6
notruetwins_11_12: t0_11_12 + t1_11_12 + t2_11_12 + t3_11_12 + t4_11_12 + t5_11_12 + t6_11_12 + t7_11_12 + t8_11_12 + t9_11_12 + t10_11_12 + t11_12_13 + t11_12_14 + t11_12_15 + t11_12_16 + t11_12_17 + t11_12_18 + t11_12_19 + t11_12_20 + t11_12_21 <= 6
notruetwins_11_13: t0_11_13 + t1_11_13 + t2_11_13 + t3_11_13 + t4_11_13 + t5_11_13 + t6_11_13 + t7_11_13 + t8_11_13 + t9_11_13 + t10_11_13 + t11_12_13 + t11_13_14 + t11_13_15 + t11_13_16 + t11_13_17 + t11_13_18 + t11_13_19 + t11_13_20 + t11_13_21 <= 6
notruetwins_11_14: t0_11_14 + t1_11_14 + t2_11_14 + t3_11_14 + t4_11_14 + t5_11_14 + t6_11_14 + t7_11_14 + t8_11_14 + t9_11_14 + t10_11_14 + t11_12_14 + t11_13_14 + t11_14_15 + t11_14_16 + t11_14_17 + t11_14_18 + t11_14_19 + t11_14_20 + t11_14_21 <= 6
notruetwins_11_15: t0_11_15 + t1_11_15 + t2_11_15 + t3_11_15 + t4_11_15 + t5_11_15 + t6_11_15 + t7_11_15 + t8_11_15 + t9_11_15 + t10_11_15 + t11_12_15 + t11_13_15 + t11_14_15 + t11_15_16 + t11_15_17 + t11_15_18 + t11_15_19 + t11_15_20 + t11_15_21 <= 6
notruetwins_11_16: t0_11_16 + t1_11_16 + t2_11_16 + t3_11_16 + t4_11_16 + t5_11_16 + t6_11_16 + t7_11_16 + t8_11_16 + t9_11_16 + t10_11_16 + t11_12_16 + t11_13_16 + t11_14_16 + t11_15_16 + t11_16_17 + t11_16_18 + t11_16_19 + t11_16_20 + t11_16_21 <= 6
notruetwins_11_17: t0_11_17 + t1_11_17 + t2_11_17 + t3_11_17 + t4_11_17 + t5_11_17 + t6_11_17 + t7_11_17 + t8_11_17 + t9_11_17 + t10_11_17 + t11_12_17 + t11_13_17 + t11_14_17 + t11_15_17 + t11_16_17 + t11_17_18 + t11_17_19 + t11_17_20 + t11_17_21 <= 6
notruetwins_11_18: t0_11_18 + t1_11_18 + t2_11_18 + t3_11_18 + t4_11_18 + t5_11_18 + t6_11_18 + t7_11_18 + t8_11_18 + t9_11_18 + t10_11_18 + t11_12_18 + t11_13_18 + t11_14_18 + t11_15_18 + t11_16_18 + t11_17_18 + t11_18_19 + t11_18_20 + t11_18_21 <= 6
notruetwins_11_19: t0_11_19 + t1_11_19 + t2_11_19 + t3_11_19 + t4_11_19 + t5_11_19 + t6_11_19 + t7_11_19 + t8_11_19 + t9_11_19 + t10_11_19 + t11_12_19 + t11_13_19 + t11_14_19 + t11_15_19 + t11_16_19 + t11_17_19 + t11_18_19 + t11_19_20 + t11_19_21 <= 6
notruetwins_11_20: t0_11_20 + t1_11_20 + t2_11_20 + t3_11_20 + t4_11_20 + t5_11_20 + t6_11_20 + t7_11_20 + t8_11_20 + t9_11_20 + t10_11_20 + t11_12_20 + t11_13_20 + t11_14_20 + t11_15_20 + t11_16_20 + t11_17_20 + t11_18_20 + t11_19_20 + t11_20_21 <= 6
notruetwins_11_21: t0_11_21 + t1_11_21 + t2_11_21 + t3_11_21 + t4_11_21 + t5_11_21 + t6_11_21 + t7_11_21 + t8_11_21 + t9_11_21 + t10_11_21 + t11_12_21 + t11_13_21 + t11_14_21 + t11_15_21 + t11_16_21 + t11_17_21 + t11_18_21 + t11_19_21 + t11_20_21 <= 6
notruetwins_12_13: t0_12_13 + t1_12_13 + t2_12_13 + t3_12_13 + t4_12_13 + t5_12_13 + t6_12_13 + t7_12_13 + t8_12_13 + t9_12_13 + t10_12_13 + t11_12_13 + t12_13_14 + t12_13_15 + t12_13_16 + t12_13_17 + t12_13_18 + t12_13_19 + t12_13_20 + t12_13_21 <= 6
notruetwins_12_14: t0_12_14 + t1_12_14 + t2_12_14 + t3_12_14 + t4_12_14 + t5_12_14 + t6_12_14 + t7_12_14 + t8_12_14 + t9_12_14 + t10_12_14 + t11_12_14 + t12_13_14 + t12_14_15 + t12_14_16 + t12_14_17 + t12_14_18 + t12_14_19 + t12_14_20 + t12_14_21 <= 6
notruetwins_12_15: t0_12_15 + t1_12_15 + t2_12_15 + t3_12_15 + t4_12_15 + t5_12_15 + t6_12_15 + t7_12_15 + t8_12_15 + t9_12_15 + t10_12_15 + t11_12_15 + t12_13_15 + t12_14_15 + t12_15_16 + t12_15_17 + t12_15_18 + t12_15_19 + t12_15_20 + t12_15_21 <= 6
notruetwins_12_16: t0_12_16 + t1_12_16 + t2_12_16 + t3_12_16 + t4_12_16 + t5_12_16 + t6_12_16 + t7_12_16 + t8_12_16 + t9_12_16 + t10_12_16 + t11_12_16 + t12_13_16 + t12_14_16 + t12_15_16 + t12_16_17 + t12_16_18 + t12_16_19 + t12_16_20 + t12_16_21 <= 6
notruetwins_12_17: t0_12_17 + t1_12_17 + t2_12_17 + t3_12_17 + t4_12_17 + t5_12_17 + t6_12_17 + t7_12_17 + t8_12_17 + t9_12_17 + t10_12_17 + t11_12_17 + t12_13_17 + t12_14_17 + t12_15_17 + t12_16_17 + t12_17_18 + t12_17_19 + t12_17_20 + t12_17_21 <= 6
notruetwins_12_18: t0_12_18 + t1_12_18 + t2_12_18 + t3_12_18 + t4_12_18 + t5_12_18 + t6_12_18 + t7_12_18 + t8_12_18 + t9_12_18 + t10_12_18 + t11_12_18 + t12_13_18 + t12_14_18 + t12_15_18 + t12_16_18 + t12_17_18 + t12_18_19 + t12_18_20 + t12_18_21 <= 6
notruetwins_12_19: t0_12_19 + t1_12_19 + t2_12_19 + t3_12_19 + t4_12_19 + t5_12_19 + t6_12_19 + t7_12_19 + t8_12_19 + t9_12_19 + t10_12_19 + t11_12_19 + t12_13_19 + t12_14_19 + t12_15_19 + t12_16_19 + t12_17_19 + t12_18_19 + t12_19_20 + t12_19_21 <= 6
notruetwins_12_20: t0_12_20 + t1_12_20 + t2_12_20 + t3_12_20 + t4_12_20 + t5_12_20 + t6_12_20 + t7_12_20 + t8_12_20 + t9_12_20 + t10_12_20 + t11_12_20 + t12_13_20 + t12_14_20 + t12_15_20 + t12_16_20 + t12_17_20 + t12_18_20 + t12_19_20 + t12_20_21 <= 6
notruetwins_12_21: t0_12_21 + t1_12_21 + t2_12_21 + t3_12_21 + t4_12_21 + t5_12_21 + t6_12_21 + t7_12_21 + t8_12_21 + t9_12_21 + t10_12_21 + t11_12_21 + t12_13_21 + t12_14_21 + t12_15_21 + t12_16_21 + t12_17_21 + t12_18_21 + t12_19_21 + t12_20_21 <= 6
notruetwins_13_14: t0_13_14 + t1_13_14 + t2_13_14 + t3_13_14 + t4_13_14 + t5_13_14 + t6_13_14 + t7_13_14 + t8_13_14 + t9_13_14 + t10_13_14 + t11_13_14 + t12_13_14 + t13_14_15 + t13_14_16 + t13_14_17 + t13_14_18 + t13_14_19 + t13_14_20 + t13_14_21 <= 6
notruetwins_13_15: t0_13_15 + t1_13_15 + t2_13_15 + t3_13_15 + t4_13_15 + t5_13_15 + t6_13_15 + t7_13_15 + t8_13_15 + t9_13_15 + t10_13_15 + t11_13_15 + t12_13_15 + t13_14_15 + t13_15_16 + t13_15_17 + t13_15_18 + t13_15_19 + t13_15_20 + t13_15_21 <= 6
notruetwins_13_16: t0_13_16 + t1_13_16 + t2_13_16 + t3_13_16 + t4_13_16 + t5_13_16 + t6_13_16 + t7_13_16 + t8_13_16 + t9_13_16 + t10_13_16 + t11_13_16 + t12_13_16 + t13_14_16 + t13_15_16 + t13_16_17 + t13_16_18 + t13_16_19 + t13_16_20 + t13_16_21 <= 6
notruetwins_13_17: t0_13_17 + t1_13_17 + t2_13_17 + t3_13_17 + t4_13_17 + t5_13_17 + t6_13_17 + t7_13_17 + t8_13_17 + t9_13_17 + t10_13_17 + t11_13_17 + t12_13_17 + t13_14_17 + t13_15_17 + t13_16_17 + t13_17_18 + t13_17_19 + t13_17_20 + t13_17_21 <= 6
notruetwins_13_18: t0_13_18 + t1_13_18 + t2_13_18 + t3_13_18 + t4_13_18 + t5_13_18 + t6_13_18 + t7_13_18 + t8_13_18 + t9_13_18 + t10_13_18 + t11_13_18 + t12_13_18 + t13_14_18 + t13_15_18 + t13_16_18 + t13_17_18 + t13_18_19 + t13_18_20 + t13_18_21 <= 6
notruetwins_13_19: t0_13_19 + t1_13_19 + t2_13_19 + t3_13_19 + t4_13_19 + t5_13_19 + t6_13_19 + t7_13_19 + t8_13_19 + t9_13_19 + t10_13_19 + t11_13_19 + t12_13_19 + t13_14_19 + t13_15_19 + t13_16_19 + t13_17_19 + t13_18_19 + t13_19_20 + t13_19_21 <= 6
notruetwins_13_20: t0_13_20 + t1_13_20 + t2_13_20 + t3_13_20 + t4_13_20 + t5_13_20 + t6_13_20 + t7_13_20 + t8_13_20 + t9_13_20 + t10_13_20 + t11_13_20 + t12_13_20 + t13_14_20 + t13_15_20 + t13_16_20 + t13_17_20 + t13_18_20 + t13_19_20 + t13_20_21 <= 6
notruetwins_13_21: t0_13_21 + t1_13_21 + t2_13_21 + t3_13_21 + t4_13_21 + t5_13_21 + t6_13_21 + t7_13_21 + t8_13_21 + t9_13_21 + t10_13_21 + t11_13_21 + t12_13_21 + t13_14_21 + t13_15_21 + t13_16_21 + t13_17_21 + t13_18_21 + t13_19_21 + t13_20_21 <= 6
notruetwins_14_15: t0_14_15 + t1_14_15 + t2_14_15 + t3_14_15 + t4_14_15 + t5_14_15 + t6_14_15 + t7_14_15 + t8_14_15 + t9_14_15 + t10_14_15 + t11_14_15 + t12_14_15 + t13_14_15 + t14_15_16 + t14_15_17 + t14_15_18 + t14_15_19 + t14_15_20 + t14_15_21 <= 6
notruetwins_14_16: t0_14_16 + t1_14_16 + t2_14_16 + t3_14_16 + t4_14_16 + t5_14_16 + t6_14_16 + t7_14_16 + t8_14_16 + t9_14_16 + t10_14_16 + t11_14_16 + t12_14_16 + t13_14_16 + t14_15_16 + t14_16_17 + t14_16_18 + t14_16_19 + t14_16_20 + t14_16_21 <= 6
notruetwins_14_17: t0_14_17 + t1_14_17 + t2_14_17 + t3_14_17 + t4_14_17 + t5_14_17 + t6_14_17 + t7_14_17 + t8_14_17 + t9_14_17 + t10_14_17 + t11_14_17 + t12_14_17 + t13_14_17 + t14_15_17 + t14_16_17 + t14_17_18 + t14_17_19 + t14_17_20 + t14_17_21 <= 6
notruetwins_14_18: t0_14_18 + t1_14_18 + t2_14_18 + t3_14_18 + t4_14_18 + t5_14_18 + t6_14_18 + t7_14_18 + t8_14_18 + t9_14_18 + t10_14_18 + t11_14_18 + t12_14_18 + t13_14_18 + t14_15_18 + t14_16_18 + t14_17_18 + t14_18_19 + t14_18_20 + t14_18_21 <= 6
notruetwins_14_19: t0_14_19 + t1_14_19 + t2_14_19 + t3_14_19 + t4_14_19 + t5_14_19 + t6_14_19 + t7_14_19 + t8_14_19 + t9_14_19 + t10_14_19 + t11_14_19 + t12_14_19 + t13_14_19 + t14_15_19 + t14_16_19 + t14_17_19 + t14_18_19 + t14_19_20 + t14_19_21 <= 6
notruetwins_14_20: t0_14_20 + t1_14_20 + t2_14_20 + t3_14_20 + t4_14_20 + t5_14_20 + t6_14_20 + t7_14_20 + t8_14_20 + t9_14_20 + t10_14_20 + t11_14_20 + t12_14_20 + t13_14_20 + t14_15_20 + t14_16_20 + t14_17_20 + t14_18_20 + t14_19_20 + t14_20_21 <= 6
notruetwins_14_21: t0_14_21 + t1_14_21 + t2_14_21 + t3_14_21 + t4_14_21 + t5_14_21 + t6_14_21 + t7_14_21 + t8_14_21 + t9_14_21 + t10_14_21 + t11_14_21 + t12_14_21 + t13_14_21 + t14_15_21 + t14_16_21 + t14_17_21 + t14_18_21 + t14_19_21 + t14_20_21 <= 6
notruetwins_15_16: t0_15_16 + t1_15_16 + t2_15_16 + t3_15_16 + t4_15_16 + t5_15_16 + t6_15_16 + t7_15_16 + t8_15_16 + t9_15_16 + t10_15_16 + t11_15_16 + t12_15_16 + t13_15_16 + t14_15_16 + t15_16_17 + t15_16_18 + t15_16_19 + t15_16_20 + t15_16_21 <= 6
notruetwins_15_17: t0_15_17 + t1_15_17 + t2_15_17 + t3_15_17 + t4_15_17 + t5_15_17 + t6_15_17 + t7_15_17 + t8_15_17 + t9_15_17 + t10_15_17 + t11_15_17 + t12_15_17 + t13_15_17 + t14_15_17 + t15_16_17 + t15_17_18 + t15_17_19 + t15_17_20 + t15_17_21 <= 6
notruetwins_15_18: t0_15_18 + t1_15_18 + t2_15_18 + t3_15_18 + t4_15_18 + t5_15_18 + t6_15_18 + t7_15_18 + t8_15_18 + t9_15_18 + t10_15_18 + t11_15_18 + t12_15_18 + t13_15_18 + t14_15_18 + t15_16_18 + t15_17_18 + t15_18_19 + t15_18_20 + t15_18_21 <= 6
notruetwins_15_19: t0_15_19 + t1_15_19 + t2_15_19 + t3_15_19 + t4_15_19 + t5_15_19 + t6_15_19 + t7_15_19 + t8_15_19 + t9_15_19 + t10_15_19 + t11_15_19 + t12_15_19 + t13_15_19 + t14_15_19 + t15_16_19 + t15_17_19 + t15_18_19 + t15_19_20 + t15_19_21 <= 6
notruetwins_15_20: t0_15_20 + t1_15_20 + t2_15_20 + t3_15_20 + t4_15_20 + t5_15_20 + t6_15_20 + t7_15_20 + t8_15_20 + t9_15_20 + t10_15_20 + t11_15_20 + t12_15_20 + t13_15_20 + t14_15_20 + t15_16_20 + t15_17_20 + t15_18_20 + t15_19_20 + t15_20_21 <= 6
notruetwins_15_21: t0_15_21 + t1_15_21 + t2_15_21 + t3_15_21 + t4_15_21 + t5_15_21 + t6_15_21 + t7_15_21 + t8_15_21 + t9_15_21 + t10_15_21 + t11_15_21 + t12_15_21 + t13_15_21 + t14_15_21 + t15_16_21 + t15_17_21 + t15_18_21 + t15_19_21 + t15_20_21 <= 6
notruetwins_16_17: t0_16_17 + t1_16_17 + t2_16_17 + t3_16_17 + t4_16_17 + t5_16_17 + t6_16_17 + t7_16_17 + t8_16_17 + t9_16_17 + t10_16_17 + t11_16_17 + t12_16_17 + t13_16_17 + t14_16_17 + t15_16_17 + t16_17_18 + t16_17_19 + t16_17_20 + t16_17_21 <= 6
notruetwins_16_18: t0_16_18 + t1_16_18 + t2_16_18 + t3_16_18 + t4_16_18 + t5_16_18 + t6_16_18 + t7_16_18 + t8_16_18 + t9_16_18 + t10_16_18 + t11_16_18 + t12_16_18 + t13_16_18 + t14_16_18 + t15_16_18 + t16_17_18 + t16_18_19 + t16_18_20 + t16_18_21 <= 6
notruetwins_16_19: t0_16_19 + t1_16_19 + t2_16_19 + t3_16_19 + t4_16_19 + t5_16_19 + t6_16_19 + t7_16_19 + t8_16_19 + t9_16_19 + t10_16_19 + t11_16_19 + t12_16_19 + t13_16_19 + t14_16_19 + t15_16_19 + t16_17_19 + t16_18_19 + t16_19_20 + t16_19_21 <= 6
notruetwins_16_20: t0_16_20 + t1_16_20 + t2_16_20 + t3_16_20 + t4_16_20 + t5_16_20 + t6_16_20 + t7_16_20 + t8_16_20 + t9_16_20 + t10_16_20 + t11_16_20 + t12_16_20 + t13_16_20 + t14_16_20 + t15_16_20 + t16_17_20 + t16_18_20 + t16_19_20 + t16_20_21 <= 6
notruetwins_16_21: t0_16_21 + t1_16_21 + t2_16_21 + t3_16_21 + t4_16_21 + t5_16_21 + t6_16_21 + t7_16_21 + t8_16_21 + t9_16_21 + t10_16_21 + t11_16_21 + t12_16_21 + t13_16_21 + t14_16_21 + t15_16_21 + t16_17_21 + t16_18_21 + t16_19_21 + t16_20_21 <= 6
notruetwins_17_18: t0_17_18 + t1_17_18 + t2_17_18 + t3_17_18 + t4_17_18 + t5_17_18 + t6_17_18 + t7_17_18 + t8_17_18 + t9_17_18 + t10_17_18 + t11_17_18 + t12_17_18 + t13_17_18 + t14_17_18 + t15_17_18 + t16_17_18 + t17_18_19 + t17_18_20 + t17_18_21 <= 6
notruetwins_17_19: t0_17_19 + t1_17_19 + t2_17_19 + t3_17_19 + t4_17_19 + t5_17_19 + t6_17_19 + t7_17_19 + t8_17_19 + t9_17_19 + t10_17_19 + t11_17_19 + t12_17_19 + t13_17_19 + t14_17_19 + t15_17_19 + t16_17_19 + t17_18_19 + t17_19_20 + t17_19_21 <= 6
notruetwins_17_20: t0_17_20 + t1_17_20 + t2_17_20 + t3_17_20 + t4_17_20 + t5_17_20 + t6_17_20 + t7_17_20 + t8_17_20 + t9_17_20 + t10_17_20 + t11_17_20 + t12_17_20 + t13_17_20 + t14_17_20 + t15_17_20 + t16_17_20 + t17_18_20 + t17_19_20 + t17_20_21 <= 6
notruetwins_17_21: t0_17_21 + t1_17_21 + t2_17_21 + t3_17_21 + t4_17_21 + t5_17_21 + t6_17_21 + t7_17_21 + t8_17_21 + t9_17_21 + t10_17_21 + t11_17_21 + t12_17_21 + t13_17_21 + t14_17_21 + t15_17_21 + t16_17_21 + t17_18_21 + t17_19_21 + t17_20_21 <= 6
notruetwins_18_19: t0_18_19 + t1_18_19 + t2_18_19 + t3_18_19 + t4_18_19 + t5_18_19 + t6_18_19 + t7_18_19 + t8_18_19 + t9_18_19 + t10_18_19 + t11_18_19 + t12_18_19 + t13_18_19 + t14_18_19 + t15_18_19 + t16_18_19 + t17_18_19 + t18_19_20 + t18_19_21 <= 6
notruetwins_18_20: t0_18_20 + t1_18_20 + t2_18_20 + t3_18_20 + t4_18_20 + t5_18_20 + t6_18_20 + t7_18_20 + t8_18_20 + t9_18_20 + t10_18_20 + t11_18_20 + t12_18_20 + t13_18_20 + t14_18_20 + t15_18_20 + t16_18_20 + t17_18_20 + t18_19_20 + t18_20_21 <= 6
notruetwins_18_21: t0_18_21 + t1_18_21 + t2_18_21 + t3_18_21 + t4_18_21 + t5_18_21 + t6_18_21 + t7_18_21 + t8_18_21 + t9_18_21 + t10_18_21 + t11_18_21 + t12_18_21 + t13_18_21 + t14_18_21 + t15_18_21 + t16_18_21 + t17_18_21 + t18_19_21 + t18_20_21 <= 6
notruetwins_19_20: t0_19_20 + t1_19_20 + t2_19_20 + t3_19_20 + t4_19_20 + t5_19_20 + t6_19_20 + t7_19_20 + t8_19_20 + t9_19_20 + t10_19_20 + t11_19_20 + t12_19_20 + t13_19_20 + t14_19_20 + t15_19_20 + t16_19_20 + t17_19_20 + t18_19_20 + t19_20_21 <= 6
notruetwins_19_21: t0_19_21 + t1_19_21 + t2_19_21 + t3_19_21 + t4_19_21 + t5_19_21 + t6_19_21 + t7_19_21 + t8_19_21 + t9_19_21 + t10_19_21 + t11_19_21 + t12_19_21 + t13_19_21 + t14_19_21 + t15_19_21 + t16_19_21 + t17_19_21 + t18_19_21 + t19_20_21 <= 6
notruetwins_20_21: t0_20_21 + t1_20_21 + t2_20_21 + t3_20_21 + t4_20_21 + t5_20_21 + t6_20_21 + t7_20_21 + t8_20_21 + t9_20_21 + t10_20_21 + t11_20_21 + t12_20_21 + t13_20_21 + t14_20_21 + t15_20_21 + t16_20_21 + t17_20_21 + t18_20_21 + t19_20_21 <= 6

tri1_0_1_2: t0_1_2 - x0_1 <= 0
tri2_0_1_2: t0_1_2 - x0_2 <= 0
tri3_0_1_2: t0_1_2 - x1_2 <= 0
tri4_0_1_2: t0_1_2 - x0_1 - x0_2 - x1_2 >= -2
tri1_0_1_3: t0_1_3 - x0_1 <= 0
tri2_0_1_3: t0_1_3 - x0_3 <= 0
tri3_0_1_3: t0_1_3 - x1_3 <= 0
tri4_0_1_3: t0_1_3 - x0_1 - x0_3 - x1_3 >= -2
tri1_0_1_4: t0_1_4 - x0_1 <= 0
tri2_0_1_4: t0_1_4 - x0_4 <= 0
tri3_0_1_4: t0_1_4 - x1_4 <= 0
tri4_0_1_4: t0_1_4 - x0_1 - x0_4 - x1_4 >= -2
tri1_0_1_5: t0_1_5 - x0_1 <= 0
tri2_0_1_5: t0_1_5 - x0_5 <= 0
tri3_0_1_5: t0_1_5 - x1_5 <= 0
tri4_0_1_5: t0_1_5 - x0_1 - x0_5 - x1_5 >= -2
tri1_0_1_6: t0_1_6 - x0_1 <= 0
tri2_0_1_6: t0_1_6 - x0_6 <= 0
tri3_0_1_6: t0_1_6 - x1_6 <= 0
tri4_0_1_6: t0_1_6 - x0_1 - x0_6 - x1_6 >= -2
tri1_0_1_7: t0_1_7 - x0_1 <= 0
tri2_0_1_7: t0_1_7 - x0_7 <= 0
tri3_0_1_7: t0_1_7 - x1_7 <= 0
tri4_0_1_7: t0_1_7 - x0_1 - x0_7 - x1_7 >= -2
tri1_0_1_8: t0_1_8 - x0_1 <= 0
tri2_0_1_8: t0_1_8 - x0_8 <= 0
tri3_0_1_8: t0_1_8 - x1_8 <= 0
tri4_0_1_8: t0_1_8 - x0_1 - x0_8 - x1_8 >= -2
tri1_0_1_9: t0_1_9 - x0_1 <= 0
tri2_0_1_9: t0_1_9 - x0_9 <= 0
tri3_0_1_9: t0_1_9 - x1_9 <= 0
tri4_0_1_9: t0_1_9 - x0_1 - x0_9 - x1_9 >= -2
tri1_0_1_10: t0_1_10 - x0_1 <= 0
tri2_0_1_10: t0_1_10 - x0_10 <= 0
tri3_0_1_10: t0_1_10 - x1_10 <= 0
tri4_0_1_10: t0_1_10 - x0_1 - x0_10 - x1_10 >= -2
tri1_0_1_11: t0_1_11 - x0_1 <= 0
tri2_0_1_11: t0_1_11 - x0_11 <= 0
tri3_0_1_11: t0_1_11 - x1_11 <= 0
tri4_0_1_11: t0_1_11 - x0_1 - x0_11 - x1_11 >= -2
tri1_0_1_12: t0_1_12 - x0_1 <= 0
tri2_0_1_12: t0_1_12 - x0_12 <= 0
tri3_0_1_12: t0_1_12 - x1_12 <= 0
tri4_0_1_12: t0_1_12 - x0_1 - x0_12 - x1_12 >= -2
tri1_0_1_13: t0_1_13 - x0_1 <= 0
tri2_0_1_13: t0_1_13 - x0_13 <= 0
tri3_0_1_13: t0_1_13 - x1_13 <= 0
tri4_0_1_13: t0_1_13 - x0_1 - x0_13 - x1_13 >= -2
tri1_0_1_14: t0_1_14 - x0_1 <= 0
tri2_0_1_14: t0_1_14 - x0_14 <= 0
tri3_0_1_14: t0_1_14 - x1_14 <= 0
tri4_0_1_14: t0_1_14 - x0_1 - x0_14 - x1_14 >= -2
tri1_0_1_15: t0_1_15 - x0_1 <= 0
tri2_0_1_15: t0_1_15 - x0_15 <= 0
tri3_0_1_15: t0_1_15 - x1_15 <= 0
tri4_0_1_15: t0_1_15 - x0_1 - x0_15 - x1_15 >= -2
tri1_0_1_16: t0_1_16 - x0_1 <= 0
tri2_0_1_16: t0_1_16 - x0_16 <= 0
tri3_0_1_16: t0_1_16 - x1_16 <= 0
tri4_0_1_16: t0_1_16 - x0_1 - x0_16 - x1_16 >= -2
tri1_0_1_17: t0_1_17 - x0_1 <= 0
tri2_0_1_17: t0_1_17 - x0_17 <= 0
tri3_0_1_17: t0_1_17 - x1_17 <= 0
tri4_0_1_17: t0_1_17 - x0_1 - x0_17 - x1_17 >= -2
tri1_0_1_18: t0_1_18 - x0_1 <= 0
tri2_0_1_18: t0_1_18 - x0_18 <= 0
tri3_0_1_18: t0_1_18 - x1_18 <= 0
tri4_0_1_18: t0_1_18 - x0_1 - x0_18 - x1_18 >= -2
tri1_0_1_19: t0_1_19 - x0_1 <= 0
tri2_0_1_19: t0_1_19 - x0_19 <= 0
tri3_0_1_19: t0_1_19 - x1_19 <= 0
tri4_0_1_19: t0_1_19 - x0_1 - x0_19 - x1_19 >= -2
tri1_0_1_20: t0_1_20 - x0_1 <= 0
tri2_0_1_20: t0_1_20 - x0_20 <= 0
tri3_0_1_20: t0_1_20 - x1_20 <= 0
tri4_0_1_20: t0_1_20 - x0_1 - x0_20 - x1_20 >= -2
tri1_0_1_21: t0_1_21 - x0_1 <= 0
tri2_0_1_21: t0_1_21 - x0_21 <= 0
tri3_0_1_21: t0_1_21 - x1_21 <= 0
tri4_0_1_21: t0_1_21 - x0_1 - x0_21 - x1_21 >= -2
tri1_0_2_3: t0_2_3 - x0_2 <= 0
tri2_0_2_3: t0_2_3 - x0_3 <= 0
tri3_0_2_3: t0_2_3 - x2_3 <= 0
tri4_0_2_3: t0_2_3 - x0_2 - x0_3 - x2_3 >= -2
tri1_0_2_4: t0_2_4 - x0_2 <= 0
tri2_0_2_4: t0_2_4 - x0_4 <= 0
tri3_0_2_4: t0_2_4 - x2_4 <= 0
tri4_0_2_4: t0_2_4 - x0_2 - x0_4 - x2_4 >= -2
tri1_0_2_5: t0_2_5 - x0_2 <= 0
tri2_0_2_5: t0_2_5 - x0_5 <= 0
tri3_0_2_5: t0_2_5 - x2_5 <= 0
tri4_0_2_5: t0_2_5 - x0_2 - x0_5 - x2_5 >= -2
tri1_0_2_6: t0_2_6 - x0_2 <= 0
tri2_0_2_6: t0_2_6 - x0_6 <= 0
tri3_0_2_6: t0_2_6 - x2_6 <= 0
tri4_0_2_6: t0_2_6 - x0_2 - x0_6 - x2_6 >= -2
tri1_0_2_7: t0_2_7 - x0_2 <= 0
tri2_0_2_7: t0_2_7 - x0_7 <= 0
tri3_0_2_7: t0_2_7 - x2_7 <= 0
tri4_0_2_7: t0_2_7 - x0_2 - x0_7 - x2_7 >= -2
tri1_0_2_8: t0_2_8 - x0_2 <= 0
tri2_0_2_8: t0_2_8 - x0_8 <= 0
tri3_0_2_8: t0_2_8 - x2_8 <= 0
tri4_0_2_8: t0_2_8 - x0_2 - x0_8 - x2_8 >= -2
tri1_0_2_9: t0_2_9 - x0_2 <= 0
tri2_0_2_9: t0_2_9 - x0_9 <= 0
tri3_0_2_9: t0_2_9 - x2_9 <= 0
tri4_0_2_9: t0_2_9 - x0_2 - x0_9 - x2_9 >= -2
tri1_0_2_10: t0_2_10 - x0_2 <= 0
tri2_0_2_10: t0_2_10 - x0_10 <= 0
tri3_0_2_10: t0_2_10 - x2_10 <= 0
tri4_0_2_10: t0_2_10 - x0_2 - x0_10 - x2_10 >= -2
tri1_0_2_11: t0_2_11 - x0_2 <= 0
tri2_0_2_11: t0_2_11 - x0_11 <= 0
tri3_0_2_11: t0_2_11 - x2_11 <= 0
tri4_0_2_11: t0_2_11 - x0_2 - x0_11 - x2_11 >= -2
tri1_0_2_12: t0_2_12 - x0_2 <= 0
tri2_0_2_12: t0_2_12 - x0_12 <= 0
tri3_0_2_12: t0_2_12 - x2_12 <= 0
tri4_0_2_12: t0_2_12 - x0_2 - x0_12 - x2_12 >= -2
tri1_0_2_13: t0_2_13 - x0_2 <= 0
tri2_0_2_13: t0_2_13 - x0_13 <= 0
tri3_0_2_13: t0_2_13 - x2_13 <= 0
tri4_0_2_13: t0_2_13 - x0_2 - x0_13 - x2_13 >= -2
tri1_0_2_14: t0_2_14 - x0_2 <= 0
tri2_0_2_14: t0_2_14 - x0_14 <= 0
tri3_0_2_14: t0_2_14 - x2_14 <= 0
tri4_0_2_14: t0_2_14 - x0_2 - x0_14 - x2_14 >= -2
tri1_0_2_15: t0_2_15 - x0_2 <= 0
tri2_0_2_15: t0_2_15 - x0_15 <= 0
tri3_0_2_15: t0_2_15 - x2_15 <= 0
tri4_0_2_15: t0_2_15 - x0_2 - x0_15 - x2_15 >= -2
tri1_0_2_16: t0_2_16 - x0_2 <= 0
tri2_0_2_16: t0_2_16 - x0_16 <= 0
tri3_0_2_16: t0_2_16 - x2_16 <= 0
tri4_0_2_16: t0_2_16 - x0_2 - x0_16 - x2_16 >= -2
tri1_0_2_17: t0_2_17 - x0_2 <= 0
tri2_0_2_17: t0_2_17 - x0_17 <= 0
tri3_0_2_17: t0_2_17 - x2_17 <= 0
tri4_0_2_17: t0_2_17 - x0_2 - x0_17 - x2_17 >= -2
tri1_0_2_18: t0_2_18 - x0_2 <= 0
tri2_0_2_18: t0_2_18 - x0_18 <= 0
tri3_0_2_18: t0_2_18 - x2_18 <= 0
tri4_0_2_18: t0_2_18 - x0_2 - x0_18 - x2_18 >= -2
tri1_0_2_19: t0_2_19 - x0_2 <= 0
tri2_0_2_19: t0_2_19 - x0_19 <= 0
tri3_0_2_19: t0_2_19 - x2_19 <= 0
tri4_0_2_19: t0_2_19 - x0_2 - x0_19 - x2_19 >= -2
tri1_0_2_20: t0_2_20 - x0_2 <= 0
tri2_0_2_20: t0_2_20 - x0_20 <= 0
tri3_0_2_20: t0_2_20 - x2_20 <= 0
tri4_0_2_20: t0_2_20 - x0_2 - x0_20 - x2_20 >= -2
tri1_0_2_21: t0_2_21 - x0_2 <= 0
tri2_0_2_21: t0_2_21 - x0_21 <= 0
tri3_0_2_21: t0_2_21 - x2_21 <= 0
tri4_0_2_21: t0_2_21 - x0_2 - x0_21 - x2_21 >= -2
tri1_0_3_4: t0_3_4 - x0_3 <= 0
tri2_0_3_4: t0_3_4 - x0_4 <= 0
tri3_0_3_4: t0_3_4 - x3_4 <= 0
tri4_0_3_4: t0_3_4 - x0_3 - x0_4 - x3_4 >= -2
tri1_0_3_5: t0_3_5 - x0_3 <= 0
tri2_0_3_5: t0_3_5 - x0_5 <= 0
tri3_0_3_5: t0_3_5 - x3_5 <= 0
tri4_0_3_5: t0_3_5 - x0_3 - x0_5 - x3_5 >= -2
tri1_0_3_6: t0_3_6 - x0_3 <= 0
tri2_0_3_6: t0_3_6 - x0_6 <= 0
tri3_0_3_6: t0_3_6 - x3_6 <= 0
tri4_0_3_6: t0_3_6 - x0_3 - x0_6 - x3_6 >= -2
tri1_0_3_7: t0_3_7 - x0_3 <= 0
tri2_0_3_7: t0_3_7 - x0_7 <= 0
tri3_0_3_7: t0_3_7 - x3_7 <= 0
tri4_0_3_7: t0_3_7 - x0_3 - x0_7 - x3_7 >= -2
tri1_0_3_8: t0_3_8 - x0_3 <= 0
tri2_0_3_8: t0_3_8 - x0_8 <= 0
tri3_0_3_8: t0_3_8 - x3_8 <= 0
tri4_0_3_8: t0_3_8 - x0_3 - x0_8 - x3_8 >= -2
tri1_0_3_9: t0_3_9 - x0_3 <= 0
tri2_0_3_9: t0_3_9 - x0_9 <= 0
tri3_0_3_9: t0_3_9 - x3_9 <= 0
tri4_0_3_9: t0_3_9 - x0_3 - x0_9 - x3_9 >= -2
tri1_0_3_10: t0_3_10 - x0_3 <= 0
tri2_0_3_10: t0_3_10 - x0_10 <= 0
tri3_0_3_10: t0_3_10 - x3_10 <= 0
tri4_0_3_10: t0_3_10 - x0_3 - x0_10 - x3_10 >= -2
tri1_0_3_11: t0_3_11 - x0_3 <= 0
tri2_0_3_11: t0_3_11 - x0_11 <= 0
tri3_0_3_11: t0_3_11 - x3_11 <= 0
tri4_0_3_11: t0_3_11 - x0_3 - x0_11 - x3_11 >= -2
tri1_0_3_12: t0_3_12 - x0_3 <= 0
tri2_0_3_12: t0_3_12 - x0_12 <= 0
tri3_0_3_12: t0_3_12 - x3_12 <= 0
tri4_0_3_12: t0_3_12 - x0_3 - x0_12 - x3_12 >= -2
tri1_0_3_13: t0_3_13 - x0_3 <= 0
tri2_0_3_13: t0_3_13 - x0_13 <= 0
tri3_0_3_13: t0_3_13 - x3_13 <= 0
tri4_0_3_13: t0_3_13 - x0_3 - x0_13 - x3_13 >= -2
tri1_0_3_14: t0_3_14 - x0_3 <= 0
tri2_0_3_14: t0_3_14 - x0_14 <= 0
tri3_0_3_14: t0_3_14 - x3_14 <= 0
tri4_0_3_14: t0_3_14 - x0_3 - x0_14 - x3_14 >= -2
tri1_0_3_15: t0_3_15 - x0_3 <= 0
tri2_0_3_15: t0_3_15 - x0_15 <= 0
tri3_0_3_15: t0_3_15 - x3_15 <= 0
tri4_0_3_15: t0_3_15 - x0_3 - x0_15 - x3_15 >= -2
tri1_0_3_16: t0_3_16 - x0_3 <= 0
tri2_0_3_16: t0_3_16 - x0_16 <= 0
tri3_0_3_16: t0_3_16 - x3_16 <= 0
tri4_0_3_16: t0_3_16 - x0_3 - x0_16 - x3_16 >= -2
tri1_0_3_17: t0_3_17 - x0_3 <= 0
tri2_0_3_17: t0_3_17 - x0_17 <= 0
tri3_0_3_17: t0_3_17 - x3_17 <= 0
tri4_0_3_17: t0_3_17 - x0_3 - x0_17 - x3_17 >= -2
tri1_0_3_18: t0_3_18 - x0_3 <= 0
tri2_0_3_18: t0_3_18 - x0_18 <= 0
tri3_0_3_18: t0_3_18 - x3_18 <= 0
tri4_0_3_18: t0_3_18 - x0_3 - x0_18 - x3_18 >= -2
tri1_0_3_19: t0_3_19 - x0_3 <= 0
tri2_0_3_19: t0_3_19 - x0_19 <= 0
tri3_0_3_19: t0_3_19 - x3_19 <= 0
tri4_0_3_19: t0_3_19 - x0_3 - x0_19 - x3_19 >= -2
tri1_0_3_20: t0_3_20 - x0_3 <= 0
tri2_0_3_20: t0_3_20 - x0_20 <= 0
tri3_0_3_20: t0_3_20 - x3_20 <= 0
tri4_0_3_20: t0_3_20 - x0_3 - x0_20 - x3_20 >= -2
tri1_0_3_21: t0_3_21 - x0_3 <= 0
tri2_0_3_21: t0_3_21 - x0_21 <= 0
tri3_0_3_21: t0_3_21 - x3_21 <= 0
tri4_0_3_21: t0_3_21 - x0_3 - x0_21 - x3_21 >= -2
tri1_0_4_5: t0_4_5 - x0_4 <= 0
tri2_0_4_5: t0_4_5 - x0_5 <= 0
tri3_0_4_5: t0_4_5 - x4_5 <= 0
tri4_0_4_5: t0_4_5 - x0_4 - x0_5 - x4_5 >= -2
tri1_0_4_6: t0_4_6 - x0_4 <= 0
tri2_0_4_6: t0_4_6 - x0_6 <= 0
tri3_0_4_6: t0_4_6 - x4_6 <= 0
tri4_0_4_6: t0_4_6 - x0_4 - x0_6 - x4_6 >= -2
tri1_0_4_7: t0_4_7 - x0_4 <= 0
tri2_0_4_7: t0_4_7 - x0_7 <= 0
tri3_0_4_7: t0_4_7 - x4_7 <= 0
tri4_0_4_7: t0_4_7 - x0_4 - x0_7 - x4_7 >= -2
tri1_0_4_8: t0_4_8 - x0_4 <= 0
tri2_0_4_8: t0_4_8 - x0_8 <= 0
tri3_0_4_8: t0_4_8 - x4_8 <= 0
tri4_0_4_8: t0_4_8 - x0_4 - x0_8 - x4_8 >= -2
tri1_0_4_9: t0_4_9 - x0_4 <= 0
tri2_0_4_9: t0_4_9 - x0_9 <= 0
tri3_0_4_9: t0_4_9 - x4_9 <= 0
tri4_0_4_9: t0_4_9 - x0_4 - x0_9 - x4_9 >= -2
tri1_0_4_10: t0_4_10 - x0_4 <= 0
tri2_0_4_10: t0_4_10 - x0_10 <= 0
tri3_0_4_10: t0_4_10 - x4_10 <= 0
tri4_0_4_10: t0_4_10 - x0_4 - x0_10 - x4_10 >= -2
tri1_0_4_11: t0_4_11 - x0_4 <= 0
tri2_0_4_11: t0_4_11 - x0_11 <= 0
tri3_0_4_11: t0_4_11 - x4_11 <= 0
tri4_0_4_11: t0_4_11 - x0_4 - x0_11 - x4_11 >= -2
tri1_0_4_12: t0_4_12 - x0_4 <= 0
tri2_0_4_12: t0_4_12 - x0_12 <= 0
tri3_0_4_12: t0_4_12 - x4_12 <= 0
tri4_0_4_12: t0_4_12 - x0_4 - x0_12 - x4_12 >= -2
tri1_0_4_13: t0_4_13 - x0_4 <= 0
tri2_0_4_13: t0_4_13 - x0_13 <= 0
tri3_0_4_13: t0_4_13 - x4_13 <= 0
tri4_0_4_13: t0_4_13 - x0_4 - x0_13 - x4_13 >= -2
tri1_0_4_14: t0_4_14 - x0_4 <= 0
tri2_0_4_14: t0_4_14 - x0_14 <= 0
tri3_0_4_14: t0_4_14 - x4_14 <= 0
tri4_0_4_14: t0_4_14 - x0_4 - x0_14 - x4_14 >= -2
tri1_0_4_15: t0_4_15 - x0_4 <= 0
tri2_0_4_15: t0_4_15 - x0_15 <= 0
tri3_0_4_15: t0_4_15 - x4_15 <= 0
tri4_0_4_15: t0_4_15 - x0_4 - x0_15 - x4_15 >= -2
tri1_0_4_16: t0_4_16 - x0_4 <= 0
tri2_0_4_16: t0_4_16 - x0_16 <= 0
tri3_0_4_16: t0_4_16 - x4_16 <= 0
tri4_0_4_16: t0_4_16 - x0_4 - x0_16 - x4_16 >= -2
tri1_0_4_17: t0_4_17 - x0_4 <= 0
tri2_0_4_17: t0_4_17 - x0_17 <= 0
tri3_0_4_17: t0_4_17 - x4_17 <= 0
tri4_0_4_17: t0_4_17 - x0_4 - x0_17 - x4_17 >= -2
tri1_0_4_18: t0_4_18 - x0_4 <= 0
tri2_0_4_18: t0_4_18 - x0_18 <= 0
tri3_0_4_18: t0_4_18 - x4_18 <= 0
tri4_0_4_18: t0_4_18 - x0_4 - x0_18 - x4_18 >= -2
tri1_0_4_19: t0_4_19 - x0_4 <= 0
tri2_0_4_19: t0_4_19 - x0_19 <= 0
tri3_0_4_19: t0_4_19 - x4_19 <= 0
tri4_0_4_19: t0_4_19 - x0_4 - x0_19 - x4_19 >= -2
tri1_0_4_20: t0_4_20 - x0_4 <= 0
tri2_0_4_20: t0_4_20 - x0_20 <= 0
tri3_0_4_20: t0_4_20 - x4_20 <= 0
tri4_0_4_20: t0_4_20 - x0_4 - x0_20 - x4_20 >= -2
tri1_0_4_21: t0_4_21 - x0_4 <= 0
tri2_0_4_21: t0_4_21 - x0_21 <= 0
tri3_0_4_21: t0_4_21 - x4_21 <= 0
tri4_0_4_21: t0_4_21 - x0_4 - x0_21 - x4_21 >= -2
tri1_0_5_6: t0_5_6 - x0_5 <= 0
tri2_0_5_6: t0_5_6 - x0_6 <= 0
tri3_0_5_6: t0_5_6 - x5_6 <= 0
tri4_0_5_6: t0_5_6 - x0_5 - x0_6 - x5_6 >= -2
tri1_0_5_7: t0_5_7 - x0_5 <= 0
tri2_0_5_7: t0_5_7 - x0_7 <= 0
tri3_0_5_7: t0_5_7 - x5_7 <= 0
tri4_0_5_7: t0_5_7 - x0_5 - x0_7 - x5_7 >= -2
tri1_0_5_8: t0_5_8 - x0_5 <= 0
tri2_0_5_8: t0_5_8 - x0_8 <= 0
tri3_0_5_8: t0_5_8 - x5_8 <= 0
tri4_0_5_8: t0_5_8 - x0_5 - x0_8 - x5_8 >= -2
tri1_0_5_9: t0_5_9 - x0_5 <= 0
tri2_0_5_9: t0_5_9 - x0_9 <= 0
tri3_0_5_9: t0_5_9 - x5_9 <= 0
tri4_0_5_9: t0_5_9 - x0_5 - x0_9 - x5_9 >= -2
tri1_0_5_10: t0_5_10 - x0_5 <= 0
tri2_0_5_10: t0_5_10 - x0_10 <= 0
tri3_0_5_10: t0_5_10 - x5_10 <= 0
tri4_0_5_10: t0_5_10 - x0_5 - x0_10 - x5_10 >= -2
tri1_0_5_11: t0_5_11 - x0_5 <= 0
tri2_0_5_11: t0_5_11 - x0_11 <= 0
tri3_0_5_11: t0_5_11 - x5_11 <= 0
tri4_0_5_11: t0_5_11 - x0_5 - x0_11 - x5_11 >= -2
tri1_0_5_12: t0_5_12 - x0_5 <= 0
tri2_0_5_12: t0_5_12 - x0_12 <= 0
tri3_0_5_12: t0_5_12 - x5_12 <= 0
tri4_0_5_12: t0_5_12 - x0_5 - x0_12 - x5_12 >= -2
tri1_0_5_13: t0_5_13 - x0_5 <= 0
tri2_0_5_13: t0_5_13 - x0_13 <= 0
tri3_0_5_13: t0_5_13 - x5_13 <= 0
tri4_0_5_13: t0_5_13 - x0_5 - x0_13 - x5_13 >= -2
tri1_0_5_14: t0_5_14 - x0_5 <= 0
tri2_0_5_14: t0_5_14 - x0_14 <= 0
tri3_0_5_14: t0_5_14 - x5_14 <= 0
tri4_0_5_14: t0_5_14 - x0_5 - x0_14 - x5_14 >= -2
tri1_0_5_15: t0_5_15 - x0_5 <= 0
tri2_0_5_15: t0_5_15 - x0_15 <= 0
tri3_0_5_15: t0_5_15 - x5_15 <= 0
tri4_0_5_15: t0_5_15 - x0_5 - x0_15 - x5_15 >= -2
tri1_0_5_16: t0_5_16 - x0_5 <= 0
tri2_0_5_16: t0_5_16 - x0_16 <= 0
tri3_0_5_16: t0_5_16 - x5_16 <= 0
tri4_0_5_16: t0_5_16 - x0_5 - x0_16 - x5_16 >= -2
tri1_0_5_17: t0_5_17 - x0_5 <= 0
tri2_0_5_17: t0_5_17 - x0_17 <= 0
tri3_0_5_17: t0_5_17 - x5_17 <= 0
tri4_0_5_17: t0_5_17 - x0_5 - x0_17 - x5_17 >= -2
tri1_0_5_18: t0_5_18 - x0_5 <= 0
tri2_0_5_18: t0_5_18 - x0_18 <= 0
tri3_0_5_18: t0_5_18 - x5_18 <= 0
tri4_0_5_18: t0_5_18 - x0_5 - x0_18 - x5_18 >= -2
tri1_0_5_19: t0_5_19 - x0_5 <= 0
tri2_0_5_19: t0_5_19 - x0_19 <= 0
tri3_0_5_19: t0_5_19 - x5_19 <= 0
tri4_0_5_19: t0_5_19 - x0_5 - x0_19 - x5_19 >= -2
tri1_0_5_20: t0_5_20 - x0_5 <= 0
tri2_0_5_20: t0_5_20 - x0_20 <= 0
tri3_0_5_20: t0_5_20 - x5_20 <= 0
tri4_0_5_20: t0_5_20 - x0_5 - x0_20 - x5_20 >= -2
tri1_0_5_21: t0_5_21 - x0_5 <= 0
tri2_0_5_21: t0_5_21 - x0_21 <= 0
tri3_0_5_21: t0_5_21 - x5_21 <= 0
tri4_0_5_21: t0_5_21 - x0_5 - x0_21 - x5_21 >= -2
tri1_0_6_7: t0_6_7 - x0_6 <= 0
tri2_0_6_7: t0_6_7 - x0_7 <= 0
tri3_0_6_7: t0_6_7 - x6_7 <= 0
tri4_0_6_7: t0_6_7 - x0_6 - x0_7 - x6_7 >= -2
tri1_0_6_8: t0_6_8 - x0_6 <= 0
tri2_0_6_8: t0_6_8 - x0_8 <= 0
tri3_0_6_8: t0_6_8 - x6_8 <= 0
tri4_0_6_8: t0_6_8 - x0_6 - x0_8 - x6_8 >= -2
tri1_0_6_9: t0_6_9 - x0_6 <= 0
tri2_0_6_9: t0_6_9 - x0_9 <= 0
tri3_0_6_9: t0_6_9 - x6_9 <= 0
tri4_0_6_9: t0_6_9 - x0_6 - x0_9 - x6_9 >= -2
tri1_0_6_10: t0_6_10 - x0_6 <= 0
tri2_0_6_10: t0_6_10 - x0_10 <= 0
tri3_0_6_10: t0_6_10 - x6_10 <= 0
tri4_0_6_10: t0_6_10 - x0_6 - x0_10 - x6_10 >= -2
tri1_0_6_11: t0_6_11 - x0_6 <= 0
tri2_0_6_11: t0_6_11 - x0_11 <= 0
tri3_0_6_11: t0_6_11 - x6_11 <= 0
tri4_0_6_11: t0_6_11 - x0_6 - x0_11 - x6_11 >= -2
tri1_0_6_12: t0_6_12 - x0_6 <= 0
tri2_0_6_12: t0_6_12 - x0_12 <= 0
tri3_0_6_12: t0_6_12 - x6_12 <= 0
tri4_0_6_12: t0_6_12 - x0_6 - x0_12 - x6_12 >= -2
tri1_0_6_13: t0_6_13 - x0_6 <= 0
tri2_0_6_13: t0_6_13 - x0_13 <= 0
tri3_0_6_13: t0_6_13 - x6_13 <= 0
tri4_0_6_13: t0_6_13 - x0_6 - x0_13 - x6_13 >= -2
tri1_0_6_14: t0_6_14 - x0_6 <= 0
tri2_0_6_14: t0_6_14 - x0_14 <= 0
tri3_0_6_14: t0_6_14 - x6_14 <= 0
tri4_0_6_14: t0_6_14 - x0_6 - x0_14 - x6_14 >= -2
tri1_0_6_15: t0_6_15 - x0_6 <= 0
tri2_0_6_15: t0_6_15 - x0_15 <= 0
tri3_0_6_15: t0_6_15 - x6_15 <= 0
tri4_0_6_15: t0_6_15 - x0_6 - x0_15 - x6_15 >= -2
tri1_0_6_16: t0_6_16 - x0_6 <= 0
tri2_0_6_16: t0_6_16 - x0_16 <= 0
tri3_0_6_16: t0_6_16 - x6_16 <= 0
tri4_0_6_16: t0_6_16 - x0_6 - x0_16 - x6_16 >= -2
tri1_0_6_17: t0_6_17 - x0_6 <= 0
tri2_0_6_17: t0_6_17 - x0_17 <= 0
tri3_0_6_17: t0_6_17 - x6_17 <= 0
tri4_0_6_17: t0_6_17 - x0_6 - x0_17 - x6_17 >= -2
tri1_0_6_18: t0_6_18 - x0_6 <= 0
tri2_0_6_18: t0_6_18 - x0_18 <= 0
tri3_0_6_18: t0_6_18 - x6_18 <= 0
tri4_0_6_18: t0_6_18 - x0_6 - x0_18 - x6_18 >= -2
tri1_0_6_19: t0_6_19 - x0_6 <= 0
tri2_0_6_19: t0_6_19 - x0_19 <= 0
tri3_0_6_19: t0_6_19 - x6_19 <= 0
tri4_0_6_19: t0_6_19 - x0_6 - x0_19 - x6_19 >= -2
tri1_0_6_20: t0_6_20 - x0_6 <= 0
tri2_0_6_20: t0_6_20 - x0_20 <= 0
tri3_0_6_20: t0_6_20 - x6_20 <= 0
tri4_0_6_20: t0_6_20 - x0_6 - x0_20 - x6_20 >= -2
tri1_0_6_21: t0_6_21 - x0_6 <= 0
tri2_0_6_21: t0_6_21 - x0_21 <= 0
tri3_0_6_21: t0_6_21 - x6_21 <= 0
tri4_0_6_21: t0_6_21 - x0_6 - x0_21 - x6_21 >= -2
tri1_0_7_8: t0_7_8 - x0_7 <= 0
tri2_0_7_8: t0_7_8 - x0_8 <= 0
tri3_0_7_8: t0_7_8 - x7_8 <= 0
tri4_0_7_8: t0_7_8 - x0_7 - x0_8 - x7_8 >= -2
tri1_0_7_9: t0_7_9 - x0_7 <= 0
tri2_0_7_9: t0_7_9 - x0_9 <= 0
tri3_0_7_9: t0_7_9 - x7_9 <= 0
tri4_0_7_9: t0_7_9 - x0_7 - x0_9 - x7_9 >= -2
tri1_0_7_10: t0_7_10 - x0_7 <= 0
tri2_0_7_10: t0_7_10 - x0_10 <= 0
tri3_0_7_10: t0_7_10 - x7_10 <= 0
tri4_0_7_10: t0_7_10 - x0_7 - x0_10 - x7_10 >= -2
tri1_0_7_11: t0_7_11 - x0_7 <= 0
tri2_0_7_11: t0_7_11 - x0_11 <= 0
tri3_0_7_11: t0_7_11 - x7_11 <= 0
tri4_0_7_11: t0_7_11 - x0_7 - x0_11 - x7_11 >= -2
tri1_0_7_12: t0_7_12 - x0_7 <= 0
tri2_0_7_12: t0_7_12 - x0_12 <= 0
tri3_0_7_12: t0_7_12 - x7_12 <= 0
tri4_0_7_12: t0_7_12 - x0_7 - x0_12 - x7_12 >= -2
tri1_0_7_13: t0_7_13 - x0_7 <= 0
tri2_0_7_13: t0_7_13 - x0_13 <= 0
tri3_0_7_13: t0_7_13 - x7_13 <= 0
tri4_0_7_13: t0_7_13 - x0_7 - x0_13 - x7_13 >= -2
tri1_0_7_14: t0_7_14 - x0_7 <= 0
tri2_0_7_14: t0_7_14 - x0_14 <= 0
tri3_0_7_14: t0_7_14 - x7_14 <= 0
tri4_0_7_14: t0_7_14 - x0_7 - x0_14 - x7_14 >= -2
tri1_0_7_15: t0_7_15 - x0_7 <= 0
tri2_0_7_15: t0_7_15 - x0_15 <= 0
tri3_0_7_15: t0_7_15 - x7_15 <= 0
tri4_0_7_15: t0_7_15 - x0_7 - x0_15 - x7_15 >= -2
tri1_0_7_16: t0_7_16 - x0_7 <= 0
tri2_0_7_16: t0_7_16 - x0_16 <= 0
tri3_0_7_16: t0_7_16 - x7_16 <= 0
tri4_0_7_16: t0_7_16 - x0_7 - x0_16 - x7_16 >= -2
tri1_0_7_17: t0_7_17 - x0_7 <= 0
tri2_0_7_17: t0_7_17 - x0_17 <= 0
tri3_0_7_17: t0_7_17 - x7_17 <= 0
tri4_0_7_17: t0_7_17 - x0_7 - x0_17 - x7_17 >= -2
tri1_0_7_18: t0_7_18 - x0_7 <= 0
tri2_0_7_18: t0_7_18 - x0_18 <= 0
tri3_0_7_18: t0_7_18 - x7_18 <= 0
tri4_0_7_18: t0_7_18 - x0_7 - x0_18 - x7_18 >= -2
tri1_0_7_19: t0_7_19 - x0_7 <= 0
tri2_0_7_19: t0_7_19 - x0_19 <= 0
tri3_0_7_19: t0_7_19 - x7_19 <= 0
tri4_0_7_19: t0_7_19 - x0_7 - x0_19 - x7_19 >= -2
tri1_0_7_20: t0_7_20 - x0_7 <= 0
tri2_0_7_20: t0_7_20 - x0_20 <= 0
tri3_0_7_20: t0_7_20 - x7_20 <= 0
tri4_0_7_20: t0_7_20 - x0_7 - x0_20 - x7_20 >= -2
tri1_0_7_21: t0_7_21 - x0_7 <= 0
tri2_0_7_21: t0_7_21 - x0_21 <= 0
tri3_0_7_21: t0_7_21 - x7_21 <= 0
tri4_0_7_21: t0_7_21 - x0_7 - x0_21 - x7_21 >= -2
tri1_0_8_9: t0_8_9 - x0_8 <= 0
tri2_0_8_9: t0_8_9 - x0_9 <= 0
tri3_0_8_9: t0_8_9 - x8_9 <= 0
tri4_0_8_9: t0_8_9 - x0_8 - x0_9 - x8_9 >= -2
tri1_0_8_10: t0_8_10 - x0_8 <= 0
tri2_0_8_10: t0_8_10 - x0_10 <= 0
tri3_0_8_10: t0_8_10 - x8_10 <= 0
tri4_0_8_10: t0_8_10 - x0_8 - x0_10 - x8_10 >= -2
tri1_0_8_11: t0_8_11 - x0_8 <= 0
tri2_0_8_11: t0_8_11 - x0_11 <= 0
tri3_0_8_11: t0_8_11 - x8_11 <= 0
tri4_0_8_11: t0_8_11 - x0_8 - x0_11 - x8_11 >= -2
tri1_0_8_12: t0_8_12 - x0_8 <= 0
tri2_0_8_12: t0_8_12 - x0_12 <= 0
tri3_0_8_12: t0_8_12 - x8_12 <= 0
tri4_0_8_12: t0_8_12 - x0_8 - x0_12 - x8_12 >= -2
tri1_0_8_13: t0_8_13 - x0_8 <= 0
tri2_0_8_13: t0_8_13 - x0_13 <= 0
tri3_0_8_13: t0_8_13 - x8_13 <= 0
tri4_0_8_13: t0_8_13 - x0_8 - x0_13 - x8_13 >= -2
tri1_0_8_14: t0_8_14 - x0_8 <= 0
tri2_0_8_14: t0_8_14 - x0_14 <= 0
tri3_0_8_14: t0_8_14 - x8_14 <= 0
tri4_0_8_14: t0_8_14 - x0_8 - x0_14 - x8_14 >= -2
tri1_0_8_15: t0_8_15 - x0_8 <= 0
tri2_0_8_15: t0_8_15 - x0_15 <= 0
tri3_0_8_15: t0_8_15 - x8_15 <= 0
tri4_0_8_15: t0_8_15 - x0_8 - x0_15 - x8_15 >= -2
tri1_0_8_16: t0_8_16 - x0_8 <= 0
tri2_0_8_16: t0_8_16 - x0_16 <= 0
tri3_0_8_16: t0_8_16 - x8_16 <= 0
tri4_0_8_16: t0_8_16 - x0_8 - x0_16 - x8_16 >= -2
tri1_0_8_17: t0_8_17 - x0_8 <= 0
tri2_0_8_17: t0_8_17 - x0_17 <= 0
tri3_0_8_17: t0_8_17 - x8_17 <= 0
tri4_0_8_17: t0_8_17 - x0_8 - x0_17 - x8_17 >= -2
tri1_0_8_18: t0_8_18 - x0_8 <= 0
tri2_0_8_18: t0_8_18 - x0_18 <= 0
tri3_0_8_18: t0_8_18 - x8_18 <= 0
tri4_0_8_18: t0_8_18 - x0_8 - x0_18 - x8_18 >= -2
tri1_0_8_19: t0_8_19 - x0_8 <= 0
tri2_0_8_19: t0_8_19 - x0_19 <= 0
tri3_0_8_19: t0_8_19 - x8_19 <= 0
tri4_0_8_19: t0_8_19 - x0_8 - x0_19 - x8_19 >= -2
tri1_0_8_20: t0_8_20 - x0_8 <= 0
tri2_0_8_20: t0_8_20 - x0_20 <= 0
tri3_0_8_20: t0_8_20 - x8_20 <= 0
tri4_0_8_20: t0_8_20 - x0_8 - x0_20 - x8_20 >= -2
tri1_0_8_21: t0_8_21 - x0_8 <= 0
tri2_0_8_21: t0_8_21 - x0_21 <= 0
tri3_0_8_21: t0_8_21 - x8_21 <= 0
tri4_0_8_21: t0_8_21 - x0_8 - x0_21 - x8_21 >= -2
tri1_0_9_10: t0_9_10 - x0_9 <= 0
tri2_0_9_10: t0_9_10 - x0_10 <= 0
tri3_0_9_10: t0_9_10 - x9_10 <= 0
tri4_0_9_10: t0_9_10 - x0_9 - x0_10 - x9_10 >= -2
tri1_0_9_11: t0_9_11 - x0_9 <= 0
tri2_0_9_11: t0_9_11 - x0_11 <= 0
tri3_0_9_11: t0_9_11 - x9_11 <= 0
tri4_0_9_11: t0_9_11 - x0_9 - x0_11 - x9_11 >= -2
tri1_0_9_12: t0_9_12 - x0_9 <= 0
tri2_0_9_12: t0_9_12 - x0_12 <= 0
tri3_0_9_12: t0_9_12 - x9_12 <= 0
tri4_0_9_12: t0_9_12 - x0_9 - x0_12 - x9_12 >= -2
tri1_0_9_13: t0_9_13 - x0_9 <= 0
tri2_0_9_13: t0_9_13 - x0_13 <= 0
tri3_0_9_13: t0_9_13 - x9_13 <= 0
tri4_0_9_13: t0_9_13 - x0_9 - x0_13 - x9_13 >= -2
tri1_0_9_14: t0_9_14 - x0_9 <= 0
tri2_0_9_14: t0_9_14 - x0_14 <= 0
tri3_0_9_14: t0_9_14 - x9_14 <= 0
tri4_0_9_14: t0_9_14 - x0_9 - x0_14 - x9_14 >= -2
tri1_0_9_15: t0_9_15 - x0_9 <= 0
tri2_0_9_15: t0_9_15 - x0_15 <= 0
tri3_0_9_15: t0_9_15 - x9_15 <= 0
tri4_0_9_15: t0_9_15 - x0_9 - x0_15 - x9_15 >= -2
tri1_0_9_16: t0_9_16 - x0_9 <= 0
tri2_0_9_16: t0_9_16 - x0_16 <= 0
tri3_0_9_16: t0_9_16 - x9_16 <= 0
tri4_0_9_16: t0_9_16 - x0_9 - x0_16 - x9_16 >= -2
tri1_0_9_17: t0_9_17 - x0_9 <= 0
tri2_0_9_17: t0_9_17 - x0_17 <= 0
tri3_0_9_17: t0_9_17 - x9_17 <= 0
tri4_0_9_17: t0_9_17 - x0_9 - x0_17 - x9_17 >= -2
tri1_0_9_18: t0_9_18 - x0_9 <= 0
tri2_0_9_18: t0_9_18 - x0_18 <= 0
tri3_0_9_18: t0_9_18 - x9_18 <= 0
tri4_0_9_18: t0_9_18 - x0_9 - x0_18 - x9_18 >= -2
tri1_0_9_19: t0_9_19 - x0_9 <= 0
tri2_0_9_19: t0_9_19 - x0_19 <= 0
tri3_0_9_19: t0_9_19 - x9_19 <= 0
tri4_0_9_19: t0_9_19 - x0_9 - x0_19 - x9_19 >= -2
tri1_0_9_20: t0_9_20 - x0_9 <= 0
tri2_0_9_20: t0_9_20 - x0_20 <= 0
tri3_0_9_20: t0_9_20 - x9_20 <= 0
tri4_0_9_20: t0_9_20 - x0_9 - x0_20 - x9_20 >= -2
tri1_0_9_21: t0_9_21 - x0_9 <= 0
tri2_0_9_21: t0_9_21 - x0_21 <= 0
tri3_0_9_21: t0_9_21 - x9_21 <= 0
tri4_0_9_21: t0_9_21 - x0_9 - x0_21 - x9_21 >= -2
tri1_0_10_11: t0_10_11 - x0_10 <= 0
tri2_0_10_11: t0_10_11 - x0_11 <= 0
tri3_0_10_11: t0_10_11 - x10_11 <= 0
tri4_0_10_11: t0_10_11 - x0_10 - x0_11 - x10_11 >= -2
tri1_0_10_12: t0_10_12 - x0_10 <= 0
tri2_0_10_12: t0_10_12 - x0_12 <= 0
tri3_0_10_12: t0_10_12 - x10_12 <= 0
tri4_0_10_12: t0_10_12 - x0_10 - x0_12 - x10_12 >= -2
tri1_0_10_13: t0_10_13 - x0_10 <= 0
tri2_0_10_13: t0_10_13 - x0_13 <= 0
tri3_0_10_13: t0_10_13 - x10_13 <= 0
tri4_0_10_13: t0_10_13 - x0_10 - x0_13 - x10_13 >= -2
tri1_0_10_14: t0_10_14 - x0_10 <= 0
tri2_0_10_14: t0_10_14 - x0_14 <= 0
tri3_0_10_14: t0_10_14 - x10_14 <= 0
tri4_0_10_14: t0_10_14 - x0_10 - x0_14 - x10_14 >= -2
tri1_0_10_15: t0_10_15 - x0_10 <= 0
tri2_0_10_15: t0_10_15 - x0_15 <= 0
tri3_0_10_15: t0_10_15 - x10_15 <= 0
tri4_0_10_15: t0_10_15 - x0_10 - x0_15 - x10_15 >= -2
tri1_0_10_16: t0_10_16 - x0_10 <= 0
tri2_0_10_16: t0_10_16 - x0_16 <= 0
tri3_0_10_16: t0_10_16 - x10_16 <= 0
tri4_0_10_16: t0_10_16 - x0_10 - x0_16 - x10_16 >= -2
tri1_0_10_17: t0_10_17 - x0_10 <= 0
tri2_0_10_17: t0_10_17 - x0_17 <= 0
tri3_0_10_17: t0_10_17 - x10_17 <= 0
tri4_0_10_17: t0_10_17 - x0_10 - x0_17 - x10_17 >= -2
tri1_0_10_18: t0_10_18 - x0_10 <= 0
tri2_0_10_18: t0_10_18 - x0_18 <= 0
tri3_0_10_18: t0_10_18 - x10_18 <= 0
tri4_0_10_18: t0_10_18 - x0_10 - x0_18 - x10_18 >= -2
tri1_0_10_19: t0_10_19 - x0_10 <= 0
tri2_0_10_19: t0_10_19 - x0_19 <= 0
tri3_0_10_19: t0_10_19 - x10_19 <= 0
tri4_0_10_19: t0_10_19 - x0_10 - x0_19 - x10_19 >= -2
tri1_0_10_20: t0_10_20 - x0_10 <= 0
tri2_0_10_20: t0_10_20 - x0_20 <= 0
tri3_0_10_20: t0_10_20 - x10_20 <= 0
tri4_0_10_20: t0_10_20 - x0_10 - x0_20 - x10_20 >= -2
tri1_0_10_21: t0_10_21 - x0_10 <= 0
tri2_0_10_21: t0_10_21 - x0_21 <= 0
tri3_0_10_21: t0_10_21 - x10_21 <= 0
tri4_0_10_21: t0_10_21 - x0_10 - x0_21 - x10_21 >= -2
tri1_0_11_12: t0_11_12 - x0_11 <= 0
tri2_0_11_12: t0_11_12 - x0_12 <= 0
tri3_0_11_12: t0_11_12 - x11_12 <= 0
tri4_0_11_12: t0_11_12 - x0_11 - x0_12 - x11_12 >= -2
tri1_0_11_13: t0_11_13 - x0_11 <= 0
tri2_0_11_13: t0_11_13 - x0_13 <= 0
tri3_0_11_13: t0_11_13 - x11_13 <= 0
tri4_0_11_13: t0_11_13 - x0_11 - x0_13 - x11_13 >= -2
tri1_0_11_14: t0_11_14 - x0_11 <= 0
tri2_0_11_14: t0_11_14 - x0_14 <= 0
tri3_0_11_14: t0_11_14 - x11_14 <= 0
tri4_0_11_14: t0_11_14 - x0_11 - x0_14 - x11_14 >= -2
tri1_0_11_15: t0_11_15 - x0_11 <= 0
tri2_0_11_15: t0_11_15 - x0_15 <= 0
tri3_0_11_15: t0_11_15 - x11_15 <= 0
tri4_0_11_15: t0_11_15 - x0_11 - x0_15 - x11_15 >= -2
tri1_0_11_16: t0_11_16 - x0_11 <= 0
tri2_0_11_16: t0_11_16 - x0_16 <= 0
tri3_0_11_16: t0_11_16 - x11_16 <= 0
tri4_0_11_16: t0_11_16 - x0_11 - x0_16 - x11_16 >= -2
tri1_0_11_17: t0_11_17 - x0_11 <= 0
tri2_0_11_17: t0_11_17 - x0_17 <= 0
tri3_0_11_17: t0_11_17 - x11_17 <= 0
tri4_0_11_17: t0_11_17 - x0_11 - x0_17 - x11_17 >= -2
tri1_0_11_18: t0_11_18 - x0_11 <= 0
tri2_0_11_18: t0_11_18 - x0_18 <= 0
tri3_0_11_18: t0_11_18 - x11_18 <= 0
tri4_0_11_18: t0_11_18 - x0_11 - x0_18 - x11_18 >= -2
tri1_0_11_19: t0_11_19 - x0_11 <= 0
tri2_0_11_19: t0_11_19 - x0_19 <= 0
tri3_0_11_19: t0_11_19 - x11_19 <= 0
tri4_0_11_19: t0_11_19 - x0_11 - x0_19 - x11_19 >= -2
tri1_0_11_20: t0_11_20 - x0_11 <= 0
tri2_0_11_20: t0_11_20 - x0_20 <= 0
tri3_0_11_20: t0_11_20 - x11_20 <= 0
tri4_0_11_20: t0_11_20 - x0_11 - x0_20 - x11_20 >= -2
tri1_0_11_21: t0_11_21 - x0_11 <= 0
tri2_0_11_21: t0_11_21 - x0_21 <= 0
tri3_0_11_21: t0_11_21 - x11_21 <= 0
tri4_0_11_21: t0_11_21 - x0_11 - x0_21 - x11_21 >= -2
tri1_0_12_13: t0_12_13 - x0_12 <= 0
tri2_0_12_13: t0_12_13 - x0_13 <= 0
tri3_0_12_13: t0_12_13 - x12_13 <= 0
tri4_0_12_13: t0_12_13 - x0_12 - x0_13 - x12_13 >= -2
tri1_0_12_14: t0_12_14 - x0_12 <= 0
tri2_0_12_14: t0_12_14 - x0_14 <= 0
tri3_0_12_14: t0_12_14 - x12_14 <= 0
tri4_0_12_14: t0_12_14 - x0_12 - x0_14 - x12_14 >= -2
tri1_0_12_15: t0_12_15 - x0_12 <= 0
tri2_0_12_15: t0_12_15 - x0_15 <= 0
tri3_0_12_15: t0_12_15 - x12_15 <= 0
tri4_0_12_15: t0_12_15 - x0_12 - x0_15 - x12_15 >= -2
tri1_0_12_16: t0_12_16 - x0_12 <= 0
tri2_0_12_16: t0_12_16 - x0_16 <= 0
tri3_0_12_16: t0_12_16 - x12_16 <= 0
tri4_0_12_16: t0_12_16 - x0_12 - x0_16 - x12_16 >= -2
tri1_0_12_17: t0_12_17 - x0_12 <= 0
tri2_0_12_17: t0_12_17 - x0_17 <= 0
tri3_0_12_17: t0_12_17 - x12_17 <= 0
tri4_0_12_17: t0_12_17 - x0_12 - x0_17 - x12_17 >= -2
tri1_0_12_18: t0_12_18 - x0_12 <= 0
tri2_0_12_18: t0_12_18 - x0_18 <= 0
tri3_0_12_18: t0_12_18 - x12_18 <= 0
tri4_0_12_18: t0_12_18 - x0_12 - x0_18 - x12_18 >= -2
tri1_0_12_19: t0_12_19 - x0_12 <= 0
tri2_0_12_19: t0_12_19 - x0_19 <= 0
tri3_0_12_19: t0_12_19 - x12_19 <= 0
tri4_0_12_19: t0_12_19 - x0_12 - x0_19 - x12_19 >= -2
tri1_0_12_20: t0_12_20 - x0_12 <= 0
tri2_0_12_20: t0_12_20 - x0_20 <= 0
tri3_0_12_20: t0_12_20 - x12_20 <= 0
tri4_0_12_20: t0_12_20 - x0_12 - x0_20 - x12_20 >= -2
tri1_0_12_21: t0_12_21 - x0_12 <= 0
tri2_0_12_21: t0_12_21 - x0_21 <= 0
tri3_0_12_21: t0_12_21 - x12_21 <= 0
tri4_0_12_21: t0_12_21 - x0_12 - x0_21 - x12_21 >= -2
tri1_0_13_14: t0_13_14 - x0_13 <= 0
tri2_0_13_14: t0_13_14 - x0_14 <= 0
tri3_0_13_14: t0_13_14 - x13_14 <= 0
tri4_0_13_14: t0_13_14 - x0_13 - x0_14 - x13_14 >= -2
tri1_0_13_15: t0_13_15 - x0_13 <= 0
tri2_0_13_15: t0_13_15 - x0_15 <= 0
tri3_0_13_15: t0_13_15 - x13_15 <= 0
tri4_0_13_15: t0_13_15 - x0_13 - x0_15 - x13_15 >= -2
tri1_0_13_16: t0_13_16 - x0_13 <= 0
tri2_0_13_16: t0_13_16 - x0_16 <= 0
tri3_0_13_16: t0_13_16 - x13_16 <= 0
tri4_0_13_16: t0_13_16 - x0_13 - x0_16 - x13_16 >= -2
tri1_0_13_17: t0_13_17 - x0_13 <= 0
tri2_0_13_17: t0_13_17 - x0_17 <= 0
tri3_0_13_17: t0_13_17 - x13_17 <= 0
tri4_0_13_17: t0_13_17 - x0_13 - x0_17 - x13_17 >= -2
tri1_0_13_18: t0_13_18 - x0_13 <= 0
tri2_0_13_18: t0_13_18 - x0_18 <= 0
tri3_0_13_18: t0_13_18 - x13_18 <= 0
tri4_0_13_18: t0_13_18 - x0_13 - x0_18 - x13_18 >= -2
tri1_0_13_19: t0_13_19 - x0_13 <= 0
tri2_0_13_19: t0_13_19 - x0_19 <= 0
tri3_0_13_19: t0_13_19 - x13_19 <= 0
tri4_0_13_19: t0_13_19 - x0_13 - x0_19 - x13_19 >= -2
tri1_0_13_20: t0_13_20 - x0_13 <= 0
tri2_0_13_20: t0_13_20 - x0_20 <= 0
tri3_0_13_20: t0_13_20 - x13_20 <= 0
tri4_0_13_20: t0_13_20 - x0_13 - x0_20 - x13_20 >= -2
tri1_0_13_21: t0_13_21 - x0_13 <= 0
tri2_0_13_21: t0_13_21 - x0_21 <= 0
tri3_0_13_21: t0_13_21 - x13_21 <= 0
tri4_0_13_21: t0_13_21 - x0_13 - x0_21 - x13_21 >= -2
tri1_0_14_15: t0_14_15 - x0_14 <= 0
tri2_0_14_15: t0_14_15 - x0_15 <= 0
tri3_0_14_15: t0_14_15 - x14_15 <= 0
tri4_0_14_15: t0_14_15 - x0_14 - x0_15 - x14_15 >= -2
tri1_0_14_16: t0_14_16 - x0_14 <= 0
tri2_0_14_16: t0_14_16 - x0_16 <= 0
tri3_0_14_16: t0_14_16 - x14_16 <= 0
tri4_0_14_16: t0_14_16 - x0_14 - x0_16 - x14_16 >= -2
tri1_0_14_17: t0_14_17 - x0_14 <= 0
tri2_0_14_17: t0_14_17 - x0_17 <= 0
tri3_0_14_17: t0_14_17 - x14_17 <= 0
tri4_0_14_17: t0_14_17 - x0_14 - x0_17 - x14_17 >= -2
tri1_0_14_18: t0_14_18 - x0_14 <= 0
tri2_0_14_18: t0_14_18 - x0_18 <= 0
tri3_0_14_18: t0_14_18 - x14_18 <= 0
tri4_0_14_18: t0_14_18 - x0_14 - x0_18 - x14_18 >= -2
tri1_0_14_19: t0_14_19 - x0_14 <= 0
tri2_0_14_19: t0_14_19 - x0_19 <= 0
tri3_0_14_19: t0_14_19 - x14_19 <= 0
tri4_0_14_19: t0_14_19 - x0_14 - x0_19 - x14_19 >= -2
tri1_0_14_20: t0_14_20 - x0_14 <= 0
tri2_0_14_20: t0_14_20 - x0_20 <= 0
tri3_0_14_20: t0_14_20 - x14_20 <= 0
tri4_0_14_20: t0_14_20 - x0_14 - x0_20 - x14_20 >= -2
tri1_0_14_21: t0_14_21 - x0_14 <= 0
tri2_0_14_21: t0_14_21 - x0_21 <= 0
tri3_0_14_21: t0_14_21 - x14_21 <= 0
tri4_0_14_21: t0_14_21 - x0_14 - x0_21 - x14_21 >= -2
tri1_0_15_16: t0_15_16 - x0_15 <= 0
tri2_0_15_16: t0_15_16 - x0_16 <= 0
tri3_0_15_16: t0_15_16 - x15_16 <= 0
tri4_0_15_16: t0_15_16 - x0_15 - x0_16 - x15_16 >= -2
tri1_0_15_17: t0_15_17 - x0_15 <= 0
tri2_0_15_17: t0_15_17 - x0_17 <= 0
tri3_0_15_17: t0_15_17 - x15_17 <= 0
tri4_0_15_17: t0_15_17 - x0_15 - x0_17 - x15_17 >= -2
tri1_0_15_18: t0_15_18 - x0_15 <= 0
tri2_0_15_18: t0_15_18 - x0_18 <= 0
tri3_0_15_18: t0_15_18 - x15_18 <= 0
tri4_0_15_18: t0_15_18 - x0_15 - x0_18 - x15_18 >= -2
tri1_0_15_19: t0_15_19 - x0_15 <= 0
tri2_0_15_19: t0_15_19 - x0_19 <= 0
tri3_0_15_19: t0_15_19 - x15_19 <= 0
tri4_0_15_19: t0_15_19 - x0_15 - x0_19 - x15_19 >= -2
tri1_0_15_20: t0_15_20 - x0_15 <= 0
tri2_0_15_20: t0_15_20 - x0_20 <= 0
tri3_0_15_20: t0_15_20 - x15_20 <= 0
tri4_0_15_20: t0_15_20 - x0_15 - x0_20 - x15_20 >= -2
tri1_0_15_21: t0_15_21 - x0_15 <= 0
tri2_0_15_21: t0_15_21 - x0_21 <= 0
tri3_0_15_21: t0_15_21 - x15_21 <= 0
tri4_0_15_21: t0_15_21 - x0_15 - x0_21 - x15_21 >= -2
tri1_0_16_17: t0_16_17 - x0_16 <= 0
tri2_0_16_17: t0_16_17 - x0_17 <= 0
tri3_0_16_17: t0_16_17 - x16_17 <= 0
tri4_0_16_17: t0_16_17 - x0_16 - x0_17 - x16_17 >= -2
tri1_0_16_18: t0_16_18 - x0_16 <= 0
tri2_0_16_18: t0_16_18 - x0_18 <= 0
tri3_0_16_18: t0_16_18 - x16_18 <= 0
tri4_0_16_18: t0_16_18 - x0_16 - x0_18 - x16_18 >= -2
tri1_0_16_19: t0_16_19 - x0_16 <= 0
tri2_0_16_19: t0_16_19 - x0_19 <= 0
tri3_0_16_19: t0_16_19 - x16_19 <= 0
tri4_0_16_19: t0_16_19 - x0_16 - x0_19 - x16_19 >= -2
tri1_0_16_20: t0_16_20 - x0_16 <= 0
tri2_0_16_20: t0_16_20 - x0_20 <= 0
tri3_0_16_20: t0_16_20 - x16_20 <= 0
tri4_0_16_20: t0_16_20 - x0_16 - x0_20 - x16_20 >= -2
tri1_0_16_21: t0_16_21 - x0_16 <= 0
tri2_0_16_21: t0_16_21 - x0_21 <= 0
tri3_0_16_21: t0_16_21 - x16_21 <= 0
tri4_0_16_21: t0_16_21 - x0_16 - x0_21 - x16_21 >= -2
tri1_0_17_18: t0_17_18 - x0_17 <= 0
tri2_0_17_18: t0_17_18 - x0_18 <= 0
tri3_0_17_18: t0_17_18 - x17_18 <= 0
tri4_0_17_18: t0_17_18 - x0_17 - x0_18 - x17_18 >= -2
tri1_0_17_19: t0_17_19 - x0_17 <= 0
tri2_0_17_19: t0_17_19 - x0_19 <= 0
tri3_0_17_19: t0_17_19 - x17_19 <= 0
tri4_0_17_19: t0_17_19 - x0_17 - x0_19 - x17_19 >= -2
tri1_0_17_20: t0_17_20 - x0_17 <= 0
tri2_0_17_20: t0_17_20 - x0_20 <= 0
tri3_0_17_20: t0_17_20 - x17_20 <= 0
tri4_0_17_20: t0_17_20 - x0_17 - x0_20 - x17_20 >= -2
tri1_0_17_21: t0_17_21 - x0_17 <= 0
tri2_0_17_21: t0_17_21 - x0_21 <= 0
tri3_0_17_21: t0_17_21 - x17_21 <= 0
tri4_0_17_21: t0_17_21 - x0_17 - x0_21 - x17_21 >= -2
tri1_0_18_19: t0_18_19 - x0_18 <= 0
tri2_0_18_19: t0_18_19 - x0_19 <= 0
tri3_0_18_19: t0_18_19 - x18_19 <= 0
tri4_0_18_19: t0_18_19 - x0_18 - x0_19 - x18_19 >= -2
tri1_0_18_20: t0_18_20 - x0_18 <= 0
tri2_0_18_20: t0_18_20 - x0_20 <= 0
tri3_0_18_20: t0_18_20 - x18_20 <= 0
tri4_0_18_20: t0_18_20 - x0_18 - x0_20 - x18_20 >= -2
tri1_0_18_21: t0_18_21 - x0_18 <= 0
tri2_0_18_21: t0_18_21 - x0_21 <= 0
tri3_0_18_21: t0_18_21 - x18_21 <= 0
tri4_0_18_21: t0_18_21 - x0_18 - x0_21 - x18_21 >= -2
tri1_0_19_20: t0_19_20 - x0_19 <= 0
tri2_0_19_20: t0_19_20 - x0_20 <= 0
tri3_0_19_20: t0_19_20 - x19_20 <= 0
tri4_0_19_20: t0_19_20 - x0_19 - x0_20 - x19_20 >= -2
tri1_0_19_21: t0_19_21 - x0_19 <= 0
tri2_0_19_21: t0_19_21 - x0_21 <= 0
tri3_0_19_21: t0_19_21 - x19_21 <= 0
tri4_0_19_21: t0_19_21 - x0_19 - x0_21 - x19_21 >= -2
tri1_0_20_21: t0_20_21 - x0_20 <= 0
tri2_0_20_21: t0_20_21 - x0_21 <= 0
tri3_0_20_21: t0_20_21 - x20_21 <= 0
tri4_0_20_21: t0_20_21 - x0_20 - x0_21 - x20_21 >= -2
tri1_1_2_3: t1_2_3 - x1_2 <= 0
tri2_1_2_3: t1_2_3 - x1_3 <= 0
tri3_1_2_3: t1_2_3 - x2_3 <= 0
tri4_1_2_3: t1_2_3 - x1_2 - x1_3 - x2_3 >= -2
tri1_1_2_4: t1_2_4 - x1_2 <= 0
tri2_1_2_4: t1_2_4 - x1_4 <= 0
tri3_1_2_4: t1_2_4 - x2_4 <= 0
tri4_1_2_4: t1_2_4 - x1_2 - x1_4 - x2_4 >= -2
tri1_1_2_5: t1_2_5 - x1_2 <= 0
tri2_1_2_5: t1_2_5 - x1_5 <= 0
tri3_1_2_5: t1_2_5 - x2_5 <= 0
tri4_1_2_5: t1_2_5 - x1_2 - x1_5 - x2_5 >= -2
tri1_1_2_6: t1_2_6 - x1_2 <= 0
tri2_1_2_6: t1_2_6 - x1_6 <= 0
tri3_1_2_6: t1_2_6 - x2_6 <= 0
tri4_1_2_6: t1_2_6 - x1_2 - x1_6 - x2_6 >= -2
tri1_1_2_7: t1_2_7 - x1_2 <= 0
tri2_1_2_7: t1_2_7 - x1_7 <= 0
tri3_1_2_7: t1_2_7 - x2_7 <= 0
tri4_1_2_7: t1_2_7 - x1_2 - x1_7 - x2_7 >= -2
tri1_1_2_8: t1_2_8 - x1_2 <= 0
tri2_1_2_8: t1_2_8 - x1_8 <= 0
tri3_1_2_8: t1_2_8 - x2_8 <= 0
tri4_1_2_8: t1_2_8 - x1_2 - x1_8 - x2_8 >= -2
tri1_1_2_9: t1_2_9 - x1_2 <= 0
tri2_1_2_9: t1_2_9 - x1_9 <= 0
tri3_1_2_9: t1_2_9 - x2_9 <= 0
tri4_1_2_9: t1_2_9 - x1_2 - x1_9 - x2_9 >= -2
tri1_1_2_10: t1_2_10 - x1_2 <= 0
tri2_1_2_10: t1_2_10 - x1_10 <= 0
tri3_1_2_10: t1_2_10 - x2_10 <= 0
tri4_1_2_10: t1_2_10 - x1_2 - x1_10 - x2_10 >= -2
tri1_1_2_11: t1_2_11 - x1_2 <= 0
tri2_1_2_11: t1_2_11 - x1_11 <= 0
tri3_1_2_11: t1_2_11 - x2_11 <= 0
tri4_1_2_11: t1_2_11 - x1_2 - x1_11 - x2_11 >= -2
tri1_1_2_12: t1_2_12 - x1_2 <= 0
tri2_1_2_12: t1_2_12 - x1_12 <= 0
tri3_1_2_12: t1_2_12 - x2_12 <= 0
tri4_1_2_12: t1_2_12 - x1_2 - x1_12 - x2_12 >= -2
tri1_1_2_13: t1_2_13 - x1_2 <= 0
tri2_1_2_13: t1_2_13 - x1_13 <= 0
tri3_1_2_13: t1_2_13 - x2_13 <= 0
tri4_1_2_13: t1_2_13 - x1_2 - x1_13 - x2_13 >= -2
tri1_1_2_14: t1_2_14 - x1_2 <= 0
tri2_1_2_14: t1_2_14 - x1_14 <= 0
tri3_1_2_14: t1_2_14 - x2_14 <= 0
tri4_1_2_14: t1_2_14 - x1_2 - x1_14 - x2_14 >= -2
tri1_1_2_15: t1_2_15 - x1_2 <= 0
tri2_1_2_15: t1_2_15 - x1_15 <= 0
tri3_1_2_15: t1_2_15 - x2_15 <= 0
tri4_1_2_15: t1_2_15 - x1_2 - x1_15 - x2_15 >= -2
tri1_1_2_16: t1_2_16 - x1_2 <= 0
tri2_1_2_16: t1_2_16 - x1_16 <= 0
tri3_1_2_16: t1_2_16 - x2_16 <= 0
tri4_1_2_16: t1_2_16 - x1_2 - x1_16 - x2_16 >= -2
tri1_1_2_17: t1_2_17 - x1_2 <= 0
tri2_1_2_17: t1_2_17 - x1_17 <= 0
tri3_1_2_17: t1_2_17 - x2_17 <= 0
tri4_1_2_17: t1_2_17 - x1_2 - x1_17 - x2_17 >= -2
tri1_1_2_18: t1_2_18 - x1_2 <= 0
tri2_1_2_18: t1_2_18 - x1_18 <= 0
tri3_1_2_18: t1_2_18 - x2_18 <= 0
tri4_1_2_18: t1_2_18 - x1_2 - x1_18 - x2_18 >= -2
tri1_1_2_19: t1_2_19 - x1_2 <= 0
tri2_1_2_19: t1_2_19 - x1_19 <= 0
tri3_1_2_19: t1_2_19 - x2_19 <= 0
tri4_1_2_19: t1_2_19 - x1_2 - x1_19 - x2_19 >= -2
tri1_1_2_20: t1_2_20 - x1_2 <= 0
tri2_1_2_20: t1_2_20 - x1_20 <= 0
tri3_1_2_20: t1_2_20 - x2_20 <= 0
tri4_1_2_20: t1_2_20 - x1_2 - x1_20 - x2_20 >= -2
tri1_1_2_21: t1_2_21 - x1_2 <= 0
tri2_1_2_21: t1_2_21 - x1_21 <= 0
tri3_1_2_21: t1_2_21 - x2_21 <= 0
tri4_1_2_21: t1_2_21 - x1_2 - x1_21 - x2_21 >= -2
tri1_1_3_4: t1_3_4 - x1_3 <= 0
tri2_1_3_4: t1_3_4 - x1_4 <= 0
tri3_1_3_4: t1_3_4 - x3_4 <= 0
tri4_1_3_4: t1_3_4 - x1_3 - x1_4 - x3_4 >= -2
tri1_1_3_5: t1_3_5 - x1_3 <= 0
tri2_1_3_5: t1_3_5 - x1_5 <= 0
tri3_1_3_5: t1_3_5 - x3_5 <= 0
tri4_1_3_5: t1_3_5 - x1_3 - x1_5 - x3_5 >= -2
tri1_1_3_6: t1_3_6 - x1_3 <= 0
tri2_1_3_6: t1_3_6 - x1_6 <= 0
tri3_1_3_6: t1_3_6 - x3_6 <= 0
tri4_1_3_6: t1_3_6 - x1_3 - x1_6 - x3_6 >= -2
tri1_1_3_7: t1_3_7 - x1_3 <= 0
tri2_1_3_7: t1_3_7 - x1_7 <= 0
tri3_1_3_7: t1_3_7 - x3_7 <= 0
tri4_1_3_7: t1_3_7 - x1_3 - x1_7 - x3_7 >= -2
tri1_1_3_8: t1_3_8 - x1_3 <= 0
tri2_1_3_8: t1_3_8 - x1_8 <= 0
tri3_1_3_8: t1_3_8 - x3_8 <= 0
tri4_1_3_8: t1_3_8 - x1_3 - x1_8 - x3_8 >= -2
tri1_1_3_9: t1_3_9 - x1_3 <= 0
tri2_1_3_9: t1_3_9 - x1_9 <= 0
tri3_1_3_9: t1_3_9 - x3_9 <= 0
tri4_1_3_9: t1_3_9 - x1_3 - x1_9 - x3_9 >= -2
tri1_1_3_10: t1_3_10 - x1_3 <= 0
tri2_1_3_10: t1_3_10 - x1_10 <= 0
tri3_1_3_10: t1_3_10 - x3_10 <= 0
tri4_1_3_10: t1_3_10 - x1_3 - x1_10 - x3_10 >= -2
tri1_1_3_11: t1_3_11 - x1_3 <= 0
tri2_1_3_11: t1_3_11 - x1_11 <= 0
tri3_1_3_11: t1_3_11 - x3_11 <= 0
tri4_1_3_11: t1_3_11 - x1_3 - x1_11 - x3_11 >= -2
tri1_1_3_12: t1_3_12 - x1_3 <= 0
tri2_1_3_12: t1_3_12 - x1_12 <= 0
tri3_1_3_12: t1_3_12 - x3_12 <= 0
tri4_1_3_12: t1_3_12 - x1_3 - x1_12 - x3_12 >= -2
tri1_1_3_13: t1_3_13 - x1_3 <= 0
tri2_1_3_13: t1_3_13 - x1_13 <= 0
tri3_1_3_13: t1_3_13 - x3_13 <= 0
tri4_1_3_13: t1_3_13 - x1_3 - x1_13 - x3_13 >= -2
tri1_1_3_14: t1_3_14 - x1_3 <= 0
tri2_1_3_14: t1_3_14 - x1_14 <= 0
tri3_1_3_14: t1_3_14 - x3_14 <= 0
tri4_1_3_14: t1_3_14 - x1_3 - x1_14 - x3_14 >= -2
tri1_1_3_15: t1_3_15 - x1_3 <= 0
tri2_1_3_15: t1_3_15 - x1_15 <= 0
tri3_1_3_15: t1_3_15 - x3_15 <= 0
tri4_1_3_15: t1_3_15 - x1_3 - x1_15 - x3_15 >= -2
tri1_1_3_16: t1_3_16 - x1_3 <= 0
tri2_1_3_16: t1_3_16 - x1_16 <= 0
tri3_1_3_16: t1_3_16 - x3_16 <= 0
tri4_1_3_16: t1_3_16 - x1_3 - x1_16 - x3_16 >= -2
tri1_1_3_17: t1_3_17 - x1_3 <= 0
tri2_1_3_17: t1_3_17 - x1_17 <= 0
tri3_1_3_17: t1_3_17 - x3_17 <= 0
tri4_1_3_17: t1_3_17 - x1_3 - x1_17 - x3_17 >= -2
tri1_1_3_18: t1_3_18 - x1_3 <= 0
tri2_1_3_18: t1_3_18 - x1_18 <= 0
tri3_1_3_18: t1_3_18 - x3_18 <= 0
tri4_1_3_18: t1_3_18 - x1_3 - x1_18 - x3_18 >= -2
tri1_1_3_19: t1_3_19 - x1_3 <= 0
tri2_1_3_19: t1_3_19 - x1_19 <= 0
tri3_1_3_19: t1_3_19 - x3_19 <= 0
tri4_1_3_19: t1_3_19 - x1_3 - x1_19 - x3_19 >= -2
tri1_1_3_20: t1_3_20 - x1_3 <= 0
tri2_1_3_20: t1_3_20 - x1_20 <= 0
tri3_1_3_20: t1_3_20 - x3_20 <= 0
tri4_1_3_20: t1_3_20 - x1_3 - x1_20 - x3_20 >= -2
tri1_1_3_21: t1_3_21 - x1_3 <= 0
tri2_1_3_21: t1_3_21 - x1_21 <= 0
tri3_1_3_21: t1_3_21 - x3_21 <= 0
tri4_1_3_21: t1_3_21 - x1_3 - x1_21 - x3_21 >= -2
tri1_1_4_5: t1_4_5 - x1_4 <= 0
tri2_1_4_5: t1_4_5 - x1_5 <= 0
tri3_1_4_5: t1_4_5 - x4_5 <= 0
tri4_1_4_5: t1_4_5 - x1_4 - x1_5 - x4_5 >= -2
tri1_1_4_6: t1_4_6 - x1_4 <= 0
tri2_1_4_6: t1_4_6 - x1_6 <= 0
tri3_1_4_6: t1_4_6 - x4_6 <= 0
tri4_1_4_6: t1_4_6 - x1_4 - x1_6 - x4_6 >= -2
tri1_1_4_7: t1_4_7 - x1_4 <= 0
tri2_1_4_7: t1_4_7 - x1_7 <= 0
tri3_1_4_7: t1_4_7 - x4_7 <= 0
tri4_1_4_7: t1_4_7 - x1_4 - x1_7 - x4_7 >= -2
tri1_1_4_8: t1_4_8 - x1_4 <= 0
tri2_1_4_8: t1_4_8 - x1_8 <= 0
tri3_1_4_8: t1_4_8 - x4_8 <= 0
tri4_1_4_8: t1_4_8 - x1_4 - x1_8 - x4_8 >= -2
tri1_1_4_9: t1_4_9 - x1_4 <= 0
tri2_1_4_9: t1_4_9 - x1_9 <= 0
tri3_1_4_9: t1_4_9 - x4_9 <= 0
tri4_1_4_9: t1_4_9 - x1_4 - x1_9 - x4_9 >= -2
tri1_1_4_10: t1_4_10 - x1_4 <= 0
tri2_1_4_10: t1_4_10 - x1_10 <= 0
tri3_1_4_10: t1_4_10 - x4_10 <= 0
tri4_1_4_10: t1_4_10 - x1_4 - x1_10 - x4_10 >= -2
tri1_1_4_11: t1_4_11 - x1_4 <= 0
tri2_1_4_11: t1_4_11 - x1_11 <= 0
tri3_1_4_11: t1_4_11 - x4_11 <= 0
tri4_1_4_11: t1_4_11 - x1_4 - x1_11 - x4_11 >= -2
tri1_1_4_12: t1_4_12 - x1_4 <= 0
tri2_1_4_12: t1_4_12 - x1_12 <= 0
tri3_1_4_12: t1_4_12 - x4_12 <= 0
tri4_1_4_12: t1_4_12 - x1_4 - x1_12 - x4_12 >= -2
tri1_1_4_13: t1_4_13 - x1_4 <= 0
tri2_1_4_13: t1_4_13 - x1_13 <= 0
tri3_1_4_13: t1_4_13 - x4_13 <= 0
tri4_1_4_13: t1_4_13 - x1_4 - x1_13 - x4_13 >= -2
tri1_1_4_14: t1_4_14 - x1_4 <= 0
tri2_1_4_14: t1_4_14 - x1_14 <= 0
tri3_1_4_14: t1_4_14 - x4_14 <= 0
tri4_1_4_14: t1_4_14 - x1_4 - x1_14 - x4_14 >= -2
tri1_1_4_15: t1_4_15 - x1_4 <= 0
tri2_1_4_15: t1_4_15 - x1_15 <= 0
tri3_1_4_15: t1_4_15 - x4_15 <= 0
tri4_1_4_15: t1_4_15 - x1_4 - x1_15 - x4_15 >= -2
tri1_1_4_16: t1_4_16 - x1_4 <= 0
tri2_1_4_16: t1_4_16 - x1_16 <= 0
tri3_1_4_16: t1_4_16 - x4_16 <= 0
tri4_1_4_16: t1_4_16 - x1_4 - x1_16 - x4_16 >= -2
tri1_1_4_17: t1_4_17 - x1_4 <= 0
tri2_1_4_17: t1_4_17 - x1_17 <= 0
tri3_1_4_17: t1_4_17 - x4_17 <= 0
tri4_1_4_17: t1_4_17 - x1_4 - x1_17 - x4_17 >= -2
tri1_1_4_18: t1_4_18 - x1_4 <= 0
tri2_1_4_18: t1_4_18 - x1_18 <= 0
tri3_1_4_18: t1_4_18 - x4_18 <= 0
tri4_1_4_18: t1_4_18 - x1_4 - x1_18 - x4_18 >= -2
tri1_1_4_19: t1_4_19 - x1_4 <= 0
tri2_1_4_19: t1_4_19 - x1_19 <= 0
tri3_1_4_19: t1_4_19 - x4_19 <= 0
tri4_1_4_19: t1_4_19 - x1_4 - x1_19 - x4_19 >= -2
tri1_1_4_20: t1_4_20 - x1_4 <= 0
tri2_1_4_20: t1_4_20 - x1_20 <= 0
tri3_1_4_20: t1_4_20 - x4_20 <= 0
tri4_1_4_20: t1_4_20 - x1_4 - x1_20 - x4_20 >= -2
tri1_1_4_21: t1_4_21 - x1_4 <= 0
tri2_1_4_21: t1_4_21 - x1_21 <= 0
tri3_1_4_21: t1_4_21 - x4_21 <= 0
tri4_1_4_21: t1_4_21 - x1_4 - x1_21 - x4_21 >= -2
tri1_1_5_6: t1_5_6 - x1_5 <= 0
tri2_1_5_6: t1_5_6 - x1_6 <= 0
tri3_1_5_6: t1_5_6 - x5_6 <= 0
tri4_1_5_6: t1_5_6 - x1_5 - x1_6 - x5_6 >= -2
tri1_1_5_7: t1_5_7 - x1_5 <= 0
tri2_1_5_7: t1_5_7 - x1_7 <= 0
tri3_1_5_7: t1_5_7 - x5_7 <= 0
tri4_1_5_7: t1_5_7 - x1_5 - x1_7 - x5_7 >= -2
tri1_1_5_8: t1_5_8 - x1_5 <= 0
tri2_1_5_8: t1_5_8 - x1_8 <= 0
tri3_1_5_8: t1_5_8 - x5_8 <= 0
tri4_1_5_8: t1_5_8 - x1_5 - x1_8 - x5_8 >= -2
tri1_1_5_9: t1_5_9 - x1_5 <= 0
tri2_1_5_9: t1_5_9 - x1_9 <= 0
tri3_1_5_9: t1_5_9 - x5_9 <= 0
tri4_1_5_9: t1_5_9 - x1_5 - x1_9 - x5_9 >= -2
tri1_1_5_10: t1_5_10 - x1_5 <= 0
tri2_1_5_10: t1_5_10 - x1_10 <= 0
tri3_1_5_10: t1_5_10 - x5_10 <= 0
tri4_1_5_10: t1_5_10 - x1_5 - x1_10 - x5_10 >= -2
tri1_1_5_11: t1_5_11 - x1_5 <= 0
tri2_1_5_11: t1_5_11 - x1_11 <= 0
tri3_1_5_11: t1_5_11 - x5_11 <= 0
tri4_1_5_11: t1_5_11 - x1_5 - x1_11 - x5_11 >= -2
tri1_1_5_12: t1_5_12 - x1_5 <= 0
tri2_1_5_12: t1_5_12 - x1_12 <= 0
tri3_1_5_12: t1_5_12 - x5_12 <= 0
tri4_1_5_12: t1_5_12 - x1_5 - x1_12 - x5_12 >= -2
tri1_1_5_13: t1_5_13 - x1_5 <= 0
tri2_1_5_13: t1_5_13 - x1_13 <= 0
tri3_1_5_13: t1_5_13 - x5_13 <= 0
tri4_1_5_13: t1_5_13 - x1_5 - x1_13 - x5_13 >= -2
tri1_1_5_14: t1_5_14 - x1_5 <= 0
tri2_1_5_14: t1_5_14 - x1_14 <= 0
tri3_1_5_14: t1_5_14 - x5_14 <= 0
tri4_1_5_14: t1_5_14 - x1_5 - x1_14 - x5_14 >= -2
tri1_1_5_15: t1_5_15 - x1_5 <= 0
tri2_1_5_15: t1_5_15 - x1_15 <= 0
tri3_1_5_15: t1_5_15 - x5_15 <= 0
tri4_1_5_15: t1_5_15 - x1_5 - x1_15 - x5_15 >= -2
tri1_1_5_16: t1_5_16 - x1_5 <= 0
tri2_1_5_16: t1_5_16 - x1_16 <= 0
tri3_1_5_16: t1_5_16 - x5_16 <= 0
tri4_1_5_16: t1_5_16 - x1_5 - x1_16 - x5_16 >= -2
tri1_1_5_17: t1_5_17 - x1_5 <= 0
tri2_1_5_17: t1_5_17 - x1_17 <= 0
tri3_1_5_17: t1_5_17 - x5_17 <= 0
tri4_1_5_17: t1_5_17 - x1_5 - x1_17 - x5_17 >= -2
tri1_1_5_18: t1_5_18 - x1_5 <= 0
tri2_1_5_18: t1_5_18 - x1_18 <= 0
tri3_1_5_18: t1_5_18 - x5_18 <= 0
tri4_1_5_18: t1_5_18 - x1_5 - x1_18 - x5_18 >= -2
tri1_1_5_19: t1_5_19 - x1_5 <= 0
tri2_1_5_19: t1_5_19 - x1_19 <= 0
tri3_1_5_19: t1_5_19 - x5_19 <= 0
tri4_1_5_19: t1_5_19 - x1_5 - x1_19 - x5_19 >= -2
tri1_1_5_20: t1_5_20 - x1_5 <= 0
tri2_1_5_20: t1_5_20 - x1_20 <= 0
tri3_1_5_20: t1_5_20 - x5_20 <= 0
tri4_1_5_20: t1_5_20 - x1_5 - x1_20 - x5_20 >= -2
tri1_1_5_21: t1_5_21 - x1_5 <= 0
tri2_1_5_21: t1_5_21 - x1_21 <= 0
tri3_1_5_21: t1_5_21 - x5_21 <= 0
tri4_1_5_21: t1_5_21 - x1_5 - x1_21 - x5_21 >= -2
tri1_1_6_7: t1_6_7 - x1_6 <= 0
tri2_1_6_7: t1_6_7 - x1_7 <= 0
tri3_1_6_7: t1_6_7 - x6_7 <= 0
tri4_1_6_7: t1_6_7 - x1_6 - x1_7 - x6_7 >= -2
tri1_1_6_8: t1_6_8 - x1_6 <= 0
tri2_1_6_8: t1_6_8 - x1_8 <= 0
tri3_1_6_8: t1_6_8 - x6_8 <= 0
tri4_1_6_8: t1_6_8 - x1_6 - x1_8 - x6_8 >= -2
tri1_1_6_9: t1_6_9 - x1_6 <= 0
tri2_1_6_9: t1_6_9 - x1_9 <= 0
tri3_1_6_9: t1_6_9 - x6_9 <= 0
tri4_1_6_9: t1_6_9 - x1_6 - x1_9 - x6_9 >= -2
tri1_1_6_10: t1_6_10 - x1_6 <= 0
tri2_1_6_10: t1_6_10 - x1_10 <= 0
tri3_1_6_10: t1_6_10 - x6_10 <= 0
tri4_1_6_10: t1_6_10 - x1_6 - x1_10 - x6_10 >= -2
tri1_1_6_11: t1_6_11 - x1_6 <= 0
tri2_1_6_11: t1_6_11 - x1_11 <= 0
tri3_1_6_11: t1_6_11 - x6_11 <= 0
tri4_1_6_11: t1_6_11 - x1_6 - x1_11 - x6_11 >= -2
tri1_1_6_12: t1_6_12 - x1_6 <= 0
tri2_1_6_12: t1_6_12 - x1_12 <= 0
tri3_1_6_12: t1_6_12 - x6_12 <= 0
tri4_1_6_12: t1_6_12 - x1_6 - x1_12 - x6_12 >= -2
tri1_1_6_13: t1_6_13 - x1_6 <= 0
tri2_1_6_13: t1_6_13 - x1_13 <= 0
tri3_1_6_13: t1_6_13 - x6_13 <= 0
tri4_1_6_13: t1_6_13 - x1_6 - x1_13 - x6_13 >= -2
tri1_1_6_14: t1_6_14 - x1_6 <= 0
tri2_1_6_14: t1_6_14 - x1_14 <= 0
tri3_1_6_14: t1_6_14 - x6_14 <= 0
tri4_1_6_14: t1_6_14 - x1_6 - x1_14 - x6_14 >= -2
tri1_1_6_15: t1_6_15 - x1_6 <= 0
tri2_1_6_15: t1_6_15 - x1_15 <= 0
tri3_1_6_15: t1_6_15 - x6_15 <= 0
tri4_1_6_15: t1_6_15 - x1_6 - x1_15 - x6_15 >= -2
tri1_1_6_16: t1_6_16 - x1_6 <= 0
tri2_1_6_16: t1_6_16 - x1_16 <= 0
tri3_1_6_16: t1_6_16 - x6_16 <= 0
tri4_1_6_16: t1_6_16 - x1_6 - x1_16 - x6_16 >= -2
tri1_1_6_17: t1_6_17 - x1_6 <= 0
tri2_1_6_17: t1_6_17 - x1_17 <= 0
tri3_1_6_17: t1_6_17 - x6_17 <= 0
tri4_1_6_17: t1_6_17 - x1_6 - x1_17 - x6_17 >= -2
tri1_1_6_18: t1_6_18 - x1_6 <= 0
tri2_1_6_18: t1_6_18 - x1_18 <= 0
tri3_1_6_18: t1_6_18 - x6_18 <= 0
tri4_1_6_18: t1_6_18 - x1_6 - x1_18 - x6_18 >= -2
tri1_1_6_19: t1_6_19 - x1_6 <= 0
tri2_1_6_19: t1_6_19 - x1_19 <= 0
tri3_1_6_19: t1_6_19 - x6_19 <= 0
tri4_1_6_19: t1_6_19 - x1_6 - x1_19 - x6_19 >= -2
tri1_1_6_20: t1_6_20 - x1_6 <= 0
tri2_1_6_20: t1_6_20 - x1_20 <= 0
tri3_1_6_20: t1_6_20 - x6_20 <= 0
tri4_1_6_20: t1_6_20 - x1_6 - x1_20 - x6_20 >= -2
tri1_1_6_21: t1_6_21 - x1_6 <= 0
tri2_1_6_21: t1_6_21 - x1_21 <= 0
tri3_1_6_21: t1_6_21 - x6_21 <= 0
tri4_1_6_21: t1_6_21 - x1_6 - x1_21 - x6_21 >= -2
tri1_1_7_8: t1_7_8 - x1_7 <= 0
tri2_1_7_8: t1_7_8 - x1_8 <= 0
tri3_1_7_8: t1_7_8 - x7_8 <= 0
tri4_1_7_8: t1_7_8 - x1_7 - x1_8 - x7_8 >= -2
tri1_1_7_9: t1_7_9 - x1_7 <= 0
tri2_1_7_9: t1_7_9 - x1_9 <= 0
tri3_1_7_9: t1_7_9 - x7_9 <= 0
tri4_1_7_9: t1_7_9 - x1_7 - x1_9 - x7_9 >= -2
tri1_1_7_10: t1_7_10 - x1_7 <= 0
tri2_1_7_10: t1_7_10 - x1_10 <= 0
tri3_1_7_10: t1_7_10 - x7_10 <= 0
tri4_1_7_10: t1_7_10 - x1_7 - x1_10 - x7_10 >= -2
tri1_1_7_11: t1_7_11 - x1_7 <= 0
tri2_1_7_11: t1_7_11 - x1_11 <= 0
tri3_1_7_11: t1_7_11 - x7_11 <= 0
tri4_1_7_11: t1_7_11 - x1_7 - x1_11 - x7_11 >= -2
tri1_1_7_12: t1_7_12 - x1_7 <= 0
tri2_1_7_12: t1_7_12 - x1_12 <= 0
tri3_1_7_12: t1_7_12 - x7_12 <= 0
tri4_1_7_12: t1_7_12 - x1_7 - x1_12 - x7_12 >= -2
tri1_1_7_13: t1_7_13 - x1_7 <= 0
tri2_1_7_13: t1_7_13 - x1_13 <= 0
tri3_1_7_13: t1_7_13 - x7_13 <= 0
tri4_1_7_13: t1_7_13 - x1_7 - x1_13 - x7_13 >= -2
tri1_1_7_14: t1_7_14 - x1_7 <= 0
tri2_1_7_14: t1_7_14 - x1_14 <= 0
tri3_1_7_14: t1_7_14 - x7_14 <= 0
tri4_1_7_14: t1_7_14 - x1_7 - x1_14 - x7_14 >= -2
tri1_1_7_15: t1_7_15 - x1_7 <= 0
tri2_1_7_15: t1_7_15 - x1_15 <= 0
tri3_1_7_15: t1_7_15 - x7_15 <= 0
tri4_1_7_15: t1_7_15 - x1_7 - x1_15 - x7_15 >= -2
tri1_1_7_16: t1_7_16 - x1_7 <= 0
tri2_1_7_16: t1_7_16 - x1_16 <= 0
tri3_1_7_16: t1_7_16 - x7_16 <= 0
tri4_1_7_16: t1_7_16 - x1_7 - x1_16 - x7_16 >= -2
tri1_1_7_17: t1_7_17 - x1_7 <= 0
tri2_1_7_17: t1_7_17 - x1_17 <= 0
tri3_1_7_17: t1_7_17 - x7_17 <= 0
tri4_1_7_17: t1_7_17 - x1_7 - x1_17 - x7_17 >= -2
tri1_1_7_18: t1_7_18 - x1_7 <= 0
tri2_1_7_18: t1_7_18 - x1_18 <= 0
tri3_1_7_18: t1_7_18 - x7_18 <= 0
tri4_1_7_18: t1_7_18 - x1_7 - x1_18 - x7_18 >= -2
tri1_1_7_19: t1_7_19 - x1_7 <= 0
tri2_1_7_19: t1_7_19 - x1_19 <= 0
tri3_1_7_19: t1_7_19 - x7_19 <= 0
tri4_1_7_19: t1_7_19 - x1_7 - x1_19 - x7_19 >= -2
tri1_1_7_20: t1_7_20 - x1_7 <= 0
tri2_1_7_20: t1_7_20 - x1_20 <= 0
tri3_1_7_20: t1_7_20 - x7_20 <= 0
tri4_1_7_20: t1_7_20 - x1_7 - x1_20 - x7_20 >= -2
tri1_1_7_21: t1_7_21 - x1_7 <= 0
tri2_1_7_21: t1_7_21 - x1_21 <= 0
tri3_1_7_21: t1_7_21 - x7_21 <= 0
tri4_1_7_21: t1_7_21 - x1_7 - x1_21 - x7_21 >= -2
tri1_1_8_9: t1_8_9 - x1_8 <= 0
tri2_1_8_9: t1_8_9 - x1_9 <= 0
tri3_1_8_9: t1_8_9 - x8_9 <= 0
tri4_1_8_9: t1_8_9 - x1_8 - x1_9 - x8_9 >= -2
tri1_1_8_10: t1_8_10 - x1_8 <= 0
tri2_1_8_10: t1_8_10 - x1_10 <= 0
tri3_1_8_10: t1_8_10 - x8_10 <= 0
tri4_1_8_10: t1_8_10 - x1_8 - x1_10 - x8_10 >= -2
tri1_1_8_11: t1_8_11 - x1_8 <= 0
tri2_1_8_11: t1_8_11 - x1_11 <= 0
tri3_1_8_11: t1_8_11 - x8_11 <= 0
tri4_1_8_11: t1_8_11 - x1_8 - x1_11 - x8_11 >= -2
tri1_1_8_12: t1_8_12 - x1_8 <= 0
tri2_1_8_12: t1_8_12 - x1_12 <= 0
tri3_1_8_12: t1_8_12 - x8_12 <= 0
tri4_1_8_12: t1_8_12 - x1_8 - x1_12 - x8_12 >= -2
tri1_1_8_13: t1_8_13 - x1_8 <= 0
tri2_1_8_13: t1_8_13 - x1_13 <= 0
tri3_1_8_13: t1_8_13 - x8_13 <= 0
tri4_1_8_13: t1_8_13 - x1_8 - x1_13 - x8_13 >= -2
tri1_1_8_14: t1_8_14 - x1_8 <= 0
tri2_1_8_14: t1_8_14 - x1_14 <= 0
tri3_1_8_14: t1_8_14 - x8_14 <= 0
tri4_1_8_14: t1_8_14 - x1_8 - x1_14 - x8_14 >= -2
tri1_1_8_15: t1_8_15 - x1_8 <= 0
tri2_1_8_15: t1_8_15 - x1_15 <= 0
tri3_1_8_15: t1_8_15 - x8_15 <= 0
tri4_1_8_15: t1_8_15 - x1_8 - x1_15 - x8_15 >= -2
tri1_1_8_16: t1_8_16 - x1_8 <= 0
tri2_1_8_16: t1_8_16 - x1_16 <= 0
tri3_1_8_16: t1_8_16 - x8_16 <= 0
tri4_1_8_16: t1_8_16 - x1_8 - x1_16 - x8_16 >= -2
tri1_1_8_17: t1_8_17 - x1_8 <= 0
tri2_1_8_17: t1_8_17 - x1_17 <= 0
tri3_1_8_17: t1_8_17 - x8_17 <= 0
tri4_1_8_17: t1_8_17 - x1_8 - x1_17 - x8_17 >= -2
tri1_1_8_18: t1_8_18 - x1_8 <= 0
tri2_1_8_18: t1_8_18 - x1_18 <= 0
tri3_1_8_18: t1_8_18 - x8_18 <= 0
tri4_1_8_18: t1_8_18 - x1_8 - x1_18 - x8_18 >= -2
tri1_1_8_19: t1_8_19 - x1_8 <= 0
tri2_1_8_19: t1_8_19 - x1_19 <= 0
tri3_1_8_19: t1_8_19 - x8_19 <= 0
tri4_1_8_19: t1_8_19 - x1_8 - x1_19 - x8_19 >= -2
tri1_1_8_20: t1_8_20 - x1_8 <= 0
tri2_1_8_20: t1_8_20 - x1_20 <= 0
tri3_1_8_20: t1_8_20 - x8_20 <= 0
tri4_1_8_20: t1_8_20 - x1_8 - x1_20 - x8_20 >= -2
tri1_1_8_21: t1_8_21 - x1_8 <= 0
tri2_1_8_21: t1_8_21 - x1_21 <= 0
tri3_1_8_21: t1_8_21 - x8_21 <= 0
tri4_1_8_21: t1_8_21 - x1_8 - x1_21 - x8_21 >= -2
tri1_1_9_10: t1_9_10 - x1_9 <= 0
tri2_1_9_10: t1_9_10 - x1_10 <= 0
tri3_1_9_10: t1_9_10 - x9_10 <= 0
tri4_1_9_10: t1_9_10 - x1_9 - x1_10 - x9_10 >= -2
tri1_1_9_11: t1_9_11 - x1_9 <= 0
tri2_1_9_11: t1_9_11 - x1_11 <= 0
tri3_1_9_11: t1_9_11 - x9_11 <= 0
tri4_1_9_11: t1_9_11 - x1_9 - x1_11 - x9_11 >= -2
tri1_1_9_12: t1_9_12 - x1_9 <= 0
tri2_1_9_12: t1_9_12 - x1_12 <= 0
tri3_1_9_12: t1_9_12 - x9_12 <= 0
tri4_1_9_12: t1_9_12 - x1_9 - x1_12 - x9_12 >= -2
tri1_1_9_13: t1_9_13 - x1_9 <= 0
tri2_1_9_13: t1_9_13 - x1_13 <= 0
tri3_1_9_13: t1_9_13 - x9_13 <= 0
tri4_1_9_13: t1_9_13 - x1_9 - x1_13 - x9_13 >= -2
tri1_1_9_14: t1_9_14 - x1_9 <= 0
tri2_1_9_14: t1_9_14 - x1_14 <= 0
tri3_1_9_14: t1_9_14 - x9_14 <= 0
tri4_1_9_14: t1_9_14 - x1_9 - x1_14 - x9_14 >= -2
tri1_1_9_15: t1_9_15 - x1_9 <= 0
tri2_1_9_15: t1_9_15 - x1_15 <= 0
tri3_1_9_15: t1_9_15 - x9_15 <= 0
tri4_1_9_15: t1_9_15 - x1_9 - x1_15 - x9_15 >= -2
tri1_1_9_16: t1_9_16 - x1_9 <= 0
tri2_1_9_16: t1_9_16 - x1_16 <= 0
tri3_1_9_16: t1_9_16 - x9_16 <= 0
tri4_1_9_16: t1_9_16 - x1_9 - x1_16 - x9_16 >= -2
tri1_1_9_17: t1_9_17 - x1_9 <= 0
tri2_1_9_17: t1_9_17 - x1_17 <= 0
tri3_1_9_17: t1_9_17 - x9_17 <= 0
tri4_1_9_17: t1_9_17 - x1_9 - x1_17 - x9_17 >= -2
tri1_1_9_18: t1_9_18 - x1_9 <= 0
tri2_1_9_18: t1_9_18 - x1_18 <= 0
tri3_1_9_18: t1_9_18 - x9_18 <= 0
tri4_1_9_18: t1_9_18 - x1_9 - x1_18 - x9_18 >= -2
tri1_1_9_19: t1_9_19 - x1_9 <= 0
tri2_1_9_19: t1_9_19 - x1_19 <= 0
tri3_1_9_19: t1_9_19 - x9_19 <= 0
tri4_1_9_19: t1_9_19 - x1_9 - x1_19 - x9_19 >= -2
tri1_1_9_20: t1_9_20 - x1_9 <= 0
tri2_1_9_20: t1_9_20 - x1_20 <= 0
tri3_1_9_20: t1_9_20 - x9_20 <= 0
tri4_1_9_20: t1_9_20 - x1_9 - x1_20 - x9_20 >= -2
tri1_1_9_21: t1_9_21 - x1_9 <= 0
tri2_1_9_21: t1_9_21 - x1_21 <= 0
tri3_1_9_21: t1_9_21 - x9_21 <= 0
tri4_1_9_21: t1_9_21 - x1_9 - x1_21 - x9_21 >= -2
tri1_1_10_11: t1_10_11 - x1_10 <= 0
tri2_1_10_11: t1_10_11 - x1_11 <= 0
tri3_1_10_11: t1_10_11 - x10_11 <= 0
tri4_1_10_11: t1_10_11 - x1_10 - x1_11 - x10_11 >= -2
tri1_1_10_12: t1_10_12 - x1_10 <= 0
tri2_1_10_12: t1_10_12 - x1_12 <= 0
tri3_1_10_12: t1_10_12 - x10_12 <= 0
tri4_1_10_12: t1_10_12 - x1_10 - x1_12 - x10_12 >= -2
tri1_1_10_13: t1_10_13 - x1_10 <= 0
tri2_1_10_13: t1_10_13 - x1_13 <= 0
tri3_1_10_13: t1_10_13 - x10_13 <= 0
tri4_1_10_13: t1_10_13 - x1_10 - x1_13 - x10_13 >= -2
tri1_1_10_14: t1_10_14 - x1_10 <= 0
tri2_1_10_14: t1_10_14 - x1_14 <= 0
tri3_1_10_14: t1_10_14 - x10_14 <= 0
tri4_1_10_14: t1_10_14 - x1_10 - x1_14 - x10_14 >= -2
tri1_1_10_15: t1_10_15 - x1_10 <= 0
tri2_1_10_15: t1_10_15 - x1_15 <= 0
tri3_1_10_15: t1_10_15 - x10_15 <= 0
tri4_1_10_15: t1_10_15 - x1_10 - x1_15 - x10_15 >= -2
tri1_1_10_16: t1_10_16 - x1_10 <= 0
tri2_1_10_16: t1_10_16 - x1_16 <= 0
tri3_1_10_16: t1_10_16 - x10_16 <= 0
tri4_1_10_16: t1_10_16 - x1_10 - x1_16 - x10_16 >= -2
tri1_1_10_17: t1_10_17 - x1_10 <= 0
tri2_1_10_17: t1_10_17 - x1_17 <= 0
tri3_1_10_17: t1_10_17 - x10_17 <= 0
tri4_1_10_17: t1_10_17 - x1_10 - x1_17 - x10_17 >= -2
tri1_1_10_18: t1_10_18 - x1_10 <= 0
tri2_1_10_18: t1_10_18 - x1_18 <= 0
tri3_1_10_18: t1_10_18 - x10_18 <= 0
tri4_1_10_18: t1_10_18 - x1_10 - x1_18 - x10_18 >= -2
tri1_1_10_19: t1_10_19 - x1_10 <= 0
tri2_1_10_19: t1_10_19 - x1_19 <= 0
tri3_1_10_19: t1_10_19 - x10_19 <= 0
tri4_1_10_19: t1_10_19 - x1_10 - x1_19 - x10_19 >= -2
tri1_1_10_20: t1_10_20 - x1_10 <= 0
tri2_1_10_20: t1_10_20 - x1_20 <= 0
tri3_1_10_20: t1_10_20 - x10_20 <= 0
tri4_1_10_20: t1_10_20 - x1_10 - x1_20 - x10_20 >= -2
tri1_1_10_21: t1_10_21 - x1_10 <= 0
tri2_1_10_21: t1_10_21 - x1_21 <= 0
tri3_1_10_21: t1_10_21 - x10_21 <= 0
tri4_1_10_21: t1_10_21 - x1_10 - x1_21 - x10_21 >= -2
tri1_1_11_12: t1_11_12 - x1_11 <= 0
tri2_1_11_12: t1_11_12 - x1_12 <= 0
tri3_1_11_12: t1_11_12 - x11_12 <= 0
tri4_1_11_12: t1_11_12 - x1_11 - x1_12 - x11_12 >= -2
tri1_1_11_13: t1_11_13 - x1_11 <= 0
tri2_1_11_13: t1_11_13 - x1_13 <= 0
tri3_1_11_13: t1_11_13 - x11_13 <= 0
tri4_1_11_13: t1_11_13 - x1_11 - x1_13 - x11_13 >= -2
tri1_1_11_14: t1_11_14 - x1_11 <= 0
tri2_1_11_14: t1_11_14 - x1_14 <= 0
tri3_1_11_14: t1_11_14 - x11_14 <= 0
tri4_1_11_14: t1_11_14 - x1_11 - x1_14 - x11_14 >= -2
tri1_1_11_15: t1_11_15 - x1_11 <= 0
tri2_1_11_15: t1_11_15 - x1_15 <= 0
tri3_1_11_15: t1_11_15 - x11_15 <= 0
tri4_1_11_15: t1_11_15 - x1_11 - x1_15 - x11_15 >= -2
tri1_1_11_16: t1_11_16 - x1_11 <= 0
tri2_1_11_16: t1_11_16 - x1_16 <= 0
tri3_1_11_16: t1_11_16 - x11_16 <= 0
tri4_1_11_16: t1_11_16 - x1_11 - x1_16 - x11_16 >= -2
tri1_1_11_17: t1_11_17 - x1_11 <= 0
tri2_1_11_17: t1_11_17 - x1_17 <= 0
tri3_1_11_17: t1_11_17 - x11_17 <= 0
tri4_1_11_17: t1_11_17 - x1_11 - x1_17 - x11_17 >= -2
tri1_1_11_18: t1_11_18 - x1_11 <= 0
tri2_1_11_18: t1_11_18 - x1_18 <= 0
tri3_1_11_18: t1_11_18 - x11_18 <= 0
tri4_1_11_18: t1_11_18 - x1_11 - x1_18 - x11_18 >= -2
tri1_1_11_19: t1_11_19 - x1_11 <= 0
tri2_1_11_19: t1_11_19 - x1_19 <= 0
tri3_1_11_19: t1_11_19 - x11_19 <= 0
tri4_1_11_19: t1_11_19 - x1_11 - x1_19 - x11_19 >= -2
tri1_1_11_20: t1_11_20 - x1_11 <= 0
tri2_1_11_20: t1_11_20 - x1_20 <= 0
tri3_1_11_20: t1_11_20 - x11_20 <= 0
tri4_1_11_20: t1_11_20 - x1_11 - x1_20 - x11_20 >= -2
tri1_1_11_21: t1_11_21 - x1_11 <= 0
tri2_1_11_21: t1_11_21 - x1_21 <= 0
tri3_1_11_21: t1_11_21 - x11_21 <= 0
tri4_1_11_21: t1_11_21 - x1_11 - x1_21 - x11_21 >= -2
tri1_1_12_13: t1_12_13 - x1_12 <= 0
tri2_1_12_13: t1_12_13 - x1_13 <= 0
tri3_1_12_13: t1_12_13 - x12_13 <= 0
tri4_1_12_13: t1_12_13 - x1_12 - x1_13 - x12_13 >= -2
tri1_1_12_14: t1_12_14 - x1_12 <= 0
tri2_1_12_14: t1_12_14 - x1_14 <= 0
tri3_1_12_14: t1_12_14 - x12_14 <= 0
tri4_1_12_14: t1_12_14 - x1_12 - x1_14 - x12_14 >= -2
tri1_1_12_15: t1_12_15 - x1_12 <= 0
tri2_1_12_15: t1_12_15 - x1_15 <= 0
tri3_1_12_15: t1_12_15 - x12_15 <= 0
tri4_1_12_15: t1_12_15 - x1_12 - x1_15 - x12_15 >= -2
tri1_1_12_16: t1_12_16 - x1_12 <= 0
tri2_1_12_16: t1_12_16 - x1_16 <= 0
tri3_1_12_16: t1_12_16 - x12_16 <= 0
tri4_1_12_16: t1_12_16 - x1_12 - x1_16 - x12_16 >= -2
tri1_1_12_17: t1_12_17 - x1_12 <= 0
tri2_1_12_17: t1_12_17 - x1_17 <= 0
tri3_1_12_17: t1_12_17 - x12_17 <= 0
tri4_1_12_17: t1_12_17 - x1_12 - x1_17 - x12_17 >= -2
tri1_1_12_18: t1_12_18 - x1_12 <= 0
tri2_1_12_18: t1_12_18 - x1_18 <= 0
tri3_1_12_18: t1_12_18 - x12_18 <= 0
tri4_1_12_18: t1_12_18 - x1_12 - x1_18 - x12_18 >= -2
tri1_1_12_19: t1_12_19 - x1_12 <= 0
tri2_1_12_19: t1_12_19 - x1_19 <= 0
tri3_1_12_19: t1_12_19 - x12_19 <= 0
tri4_1_12_19: t1_12_19 - x1_12 - x1_19 - x12_19 >= -2
tri1_1_12_20: t1_12_20 - x1_12 <= 0
tri2_1_12_20: t1_12_20 - x1_20 <= 0
tri3_1_12_20: t1_12_20 - x12_20 <= 0
tri4_1_12_20: t1_12_20 - x1_12 - x1_20 - x12_20 >= -2
tri1_1_12_21: t1_12_21 - x1_12 <= 0
tri2_1_12_21: t1_12_21 - x1_21 <= 0
tri3_1_12_21: t1_12_21 - x12_21 <= 0
tri4_1_12_21: t1_12_21 - x1_12 - x1_21 - x12_21 >= -2
tri1_1_13_14: t1_13_14 - x1_13 <= 0
tri2_1_13_14: t1_13_14 - x1_14 <= 0
tri3_1_13_14: t1_13_14 - x13_14 <= 0
tri4_1_13_14: t1_13_14 - x1_13 - x1_14 - x13_14 >= -2
tri1_1_13_15: t1_13_15 - x1_13 <= 0
tri2_1_13_15: t1_13_15 - x1_15 <= 0
tri3_1_13_15: t1_13_15 - x13_15 <= 0
tri4_1_13_15: t1_13_15 - x1_13 - x1_15 - x13_15 >= -2
tri1_1_13_16: t1_13_16 - x1_13 <= 0
tri2_1_13_16: t1_13_16 - x1_16 <= 0
tri3_1_13_16: t1_13_16 - x13_16 <= 0
tri4_1_13_16: t1_13_16 - x1_13 - x1_16 - x13_16 >= -2
tri1_1_13_17: t1_13_17 - x1_13 <= 0
tri2_1_13_17: t1_13_17 - x1_17 <= 0
tri3_1_13_17: t1_13_17 - x13_17 <= 0
tri4_1_13_17: t1_13_17 - x1_13 - x1_17 - x13_17 >= -2
tri1_1_13_18: t1_13_18 - x1_13 <= 0
tri2_1_13_18: t1_13_18 - x1_18 <= 0
tri3_1_13_18: t1_13_18 - x13_18 <= 0
tri4_1_13_18: t1_13_18 - x1_13 - x1_18 - x13_18 >= -2
tri1_1_13_19: t1_13_19 - x1_13 <= 0
tri2_1_13_19: t1_13_19 - x1_19 <= 0
tri3_1_13_19: t1_13_19 - x13_19 <= 0
tri4_1_13_19: t1_13_19 - x1_13 - x1_19 - x13_19 >= -2
tri1_1_13_20: t1_13_20 - x1_13 <= 0
tri2_1_13_20: t1_13_20 - x1_20 <= 0
tri3_1_13_20: t1_13_20 - x13_20 <= 0
tri4_1_13_20: t1_13_20 - x1_13 - x1_20 - x13_20 >= -2
tri1_1_13_21: t1_13_21 - x1_13 <= 0
tri2_1_13_21: t1_13_21 - x1_21 <= 0
tri3_1_13_21: t1_13_21 - x13_21 <= 0
tri4_1_13_21: t1_13_21 - x1_13 - x1_21 - x13_21 >= -2
tri1_1_14_15: t1_14_15 - x1_14 <= 0
tri2_1_14_15: t1_14_15 - x1_15 <= 0
tri3_1_14_15: t1_14_15 - x14_15 <= 0
tri4_1_14_15: t1_14_15 - x1_14 - x1_15 - x14_15 >= -2
tri1_1_14_16: t1_14_16 - x1_14 <= 0
tri2_1_14_16: t1_14_16 - x1_16 <= 0
tri3_1_14_16: t1_14_16 - x14_16 <= 0
tri4_1_14_16: t1_14_16 - x1_14 - x1_16 - x14_16 >= -2
tri1_1_14_17: t1_14_17 - x1_14 <= 0
tri2_1_14_17: t1_14_17 - x1_17 <= 0
tri3_1_14_17: t1_14_17 - x14_17 <= 0
tri4_1_14_17: t1_14_17 - x1_14 - x1_17 - x14_17 >= -2
tri1_1_14_18: t1_14_18 - x1_14 <= 0
tri2_1_14_18: t1_14_18 - x1_18 <= 0
tri3_1_14_18: t1_14_18 - x14_18 <= 0
tri4_1_14_18: t1_14_18 - x1_14 - x1_18 - x14_18 >= -2
tri1_1_14_19: t1_14_19 - x1_14 <= 0
tri2_1_14_19: t1_14_19 - x1_19 <= 0
tri3_1_14_19: t1_14_19 - x14_19 <= 0
tri4_1_14_19: t1_14_19 - x1_14 - x1_19 - x14_19 >= -2
tri1_1_14_20: t1_14_20 - x1_14 <= 0
tri2_1_14_20: t1_14_20 - x1_20 <= 0
tri3_1_14_20: t1_14_20 - x14_20 <= 0
tri4_1_14_20: t1_14_20 - x1_14 - x1_20 - x14_20 >= -2
tri1_1_14_21: t1_14_21 - x1_14 <= 0
tri2_1_14_21: t1_14_21 - x1_21 <= 0
tri3_1_14_21: t1_14_21 - x14_21 <= 0
tri4_1_14_21: t1_14_21 - x1_14 - x1_21 - x14_21 >= -2
tri1_1_15_16: t1_15_16 - x1_15 <= 0
tri2_1_15_16: t1_15_16 - x1_16 <= 0
tri3_1_15_16: t1_15_16 - x15_16 <= 0
tri4_1_15_16: t1_15_16 - x1_15 - x1_16 - x15_16 >= -2
tri1_1_15_17: t1_15_17 - x1_15 <= 0
tri2_1_15_17: t1_15_17 - x1_17 <= 0
tri3_1_15_17: t1_15_17 - x15_17 <= 0
tri4_1_15_17: t1_15_17 - x1_15 - x1_17 - x15_17 >= -2
tri1_1_15_18: t1_15_18 - x1_15 <= 0
tri2_1_15_18: t1_15_18 - x1_18 <= 0
tri3_1_15_18: t1_15_18 - x15_18 <= 0
tri4_1_15_18: t1_15_18 - x1_15 - x1_18 - x15_18 >= -2
tri1_1_15_19: t1_15_19 - x1_15 <= 0
tri2_1_15_19: t1_15_19 - x1_19 <= 0
tri3_1_15_19: t1_15_19 - x15_19 <= 0
tri4_1_15_19: t1_15_19 - x1_15 - x1_19 - x15_19 >= -2
tri1_1_15_20: t1_15_20 - x1_15 <= 0
tri2_1_15_20: t1_15_20 - x1_20 <= 0
tri3_1_15_20: t1_15_20 - x15_20 <= 0
tri4_1_15_20: t1_15_20 - x1_15 - x1_20 - x15_20 >= -2
tri1_1_15_21: t1_15_21 - x1_15 <= 0
tri2_1_15_21: t1_15_21 - x1_21 <= 0
tri3_1_15_21: t1_15_21 - x15_21 <= 0
tri4_1_15_21: t1_15_21 - x1_15 - x1_21 - x15_21 >= -2
tri1_1_16_17: t1_16_17 - x1_16 <= 0
tri2_1_16_17: t1_16_17 - x1_17 <= 0
tri3_1_16_17: t1_16_17 - x16_17 <= 0
tri4_1_16_17: t1_16_17 - x1_16 - x1_17 - x16_17 >= -2
tri1_1_16_18: t1_16_18 - x1_16 <= 0
tri2_1_16_18: t1_16_18 - x1_18 <= 0
tri3_1_16_18: t1_16_18 - x16_18 <= 0
tri4_1_16_18: t1_16_18 - x1_16 - x1_18 - x16_18 >= -2
tri1_1_16_19: t1_16_19 - x1_16 <= 0
tri2_1_16_19: t1_16_19 - x1_19 <= 0
tri3_1_16_19: t1_16_19 - x16_19 <= 0
tri4_1_16_19: t1_16_19 - x1_16 - x1_19 - x16_19 >= -2
tri1_1_16_20: t1_16_20 - x1_16 <= 0
tri2_1_16_20: t1_16_20 - x1_20 <= 0
tri3_1_16_20: t1_16_20 - x16_20 <= 0
tri4_1_16_20: t1_16_20 - x1_16 - x1_20 - x16_20 >= -2
tri1_1_16_21: t1_16_21 - x1_16 <= 0
tri2_1_16_21: t1_16_21 - x1_21 <= 0
tri3_1_16_21: t1_16_21 - x16_21 <= 0
tri4_1_16_21: t1_16_21 - x1_16 - x1_21 - x16_21 >= -2
tri1_1_17_18: t1_17_18 - x1_17 <= 0
tri2_1_17_18: t1_17_18 - x1_18 <= 0
tri3_1_17_18: t1_17_18 - x17_18 <= 0
tri4_1_17_18: t1_17_18 - x1_17 - x1_18 - x17_18 >= -2
tri1_1_17_19: t1_17_19 - x1_17 <= 0
tri2_1_17_19: t1_17_19 - x1_19 <= 0
tri3_1_17_19: t1_17_19 - x17_19 <= 0
tri4_1_17_19: t1_17_19 - x1_17 - x1_19 - x17_19 >= -2
tri1_1_17_20: t1_17_20 - x1_17 <= 0
tri2_1_17_20: t1_17_20 - x1_20 <= 0
tri3_1_17_20: t1_17_20 - x17_20 <= 0
tri4_1_17_20: t1_17_20 - x1_17 - x1_20 - x17_20 >= -2
tri1_1_17_21: t1_17_21 - x1_17 <= 0
tri2_1_17_21: t1_17_21 - x1_21 <= 0
tri3_1_17_21: t1_17_21 - x17_21 <= 0
tri4_1_17_21: t1_17_21 - x1_17 - x1_21 - x17_21 >= -2
tri1_1_18_19: t1_18_19 - x1_18 <= 0
tri2_1_18_19: t1_18_19 - x1_19 <= 0
tri3_1_18_19: t1_18_19 - x18_19 <= 0
tri4_1_18_19: t1_18_19 - x1_18 - x1_19 - x18_19 >= -2
tri1_1_18_20: t1_18_20 - x1_18 <= 0
tri2_1_18_20: t1_18_20 - x1_20 <= 0
tri3_1_18_20: t1_18_20 - x18_20 <= 0
tri4_1_18_20: t1_18_20 - x1_18 - x1_20 - x18_20 >= -2
tri1_1_18_21: t1_18_21 - x1_18 <= 0
tri2_1_18_21: t1_18_21 - x1_21 <= 0
tri3_1_18_21: t1_18_21 - x18_21 <= 0
tri4_1_18_21: t1_18_21 - x1_18 - x1_21 - x18_21 >= -2
tri1_1_19_20: t1_19_20 - x1_19 <= 0
tri2_1_19_20: t1_19_20 - x1_20 <= 0
tri3_1_19_20: t1_19_20 - x19_20 <= 0
tri4_1_19_20: t1_19_20 - x1_19 - x1_20 - x19_20 >= -2
tri1_1_19_21: t1_19_21 - x1_19 <= 0
tri2_1_19_21: t1_19_21 - x1_21 <= 0
tri3_1_19_21: t1_19_21 - x19_21 <= 0
tri4_1_19_21: t1_19_21 - x1_19 - x1_21 - x19_21 >= -2
tri1_1_20_21: t1_20_21 - x1_20 <= 0
tri2_1_20_21: t1_20_21 - x1_21 <= 0
tri3_1_20_21: t1_20_21 - x20_21 <= 0
tri4_1_20_21: t1_20_21 - x1_20 - x1_21 - x20_21 >= -2
tri1_2_3_4: t2_3_4 - x2_3 <= 0
tri2_2_3_4: t2_3_4 - x2_4 <= 0
tri3_2_3_4: t2_3_4 - x3_4 <= 0
tri4_2_3_4: t2_3_4 - x2_3 - x2_4 - x3_4 >= -2
tri1_2_3_5: t2_3_5 - x2_3 <= 0
tri2_2_3_5: t2_3_5 - x2_5 <= 0
tri3_2_3_5: t2_3_5 - x3_5 <= 0
tri4_2_3_5: t2_3_5 - x2_3 - x2_5 - x3_5 >= -2
tri1_2_3_6: t2_3_6 - x2_3 <= 0
tri2_2_3_6: t2_3_6 - x2_6 <= 0
tri3_2_3_6: t2_3_6 - x3_6 <= 0
tri4_2_3_6: t2_3_6 - x2_3 - x2_6 - x3_6 >= -2
tri1_2_3_7: t2_3_7 - x2_3 <= 0
tri2_2_3_7: t2_3_7 - x2_7 <= 0
tri3_2_3_7: t2_3_7 - x3_7 <= 0
tri4_2_3_7: t2_3_7 - x2_3 - x2_7 - x3_7 >= -2
tri1_2_3_8: t2_3_8 - x2_3 <= 0
tri2_2_3_8: t2_3_8 - x2_8 <= 0
tri3_2_3_8: t2_3_8 - x3_8 <= 0
tri4_2_3_8: t2_3_8 - x2_3 - x2_8 - x3_8 >= -2
tri1_2_3_9: t2_3_9 - x2_3 <= 0
tri2_2_3_9: t2_3_9 - x2_9 <= 0
tri3_2_3_9: t2_3_9 - x3_9 <= 0
tri4_2_3_9: t2_3_9 - x2_3 - x2_9 - x3_9 >= -2
tri1_2_3_10: t2_3_10 - x2_3 <= 0
tri2_2_3_10: t2_3_10 - x2_10 <= 0
tri3_2_3_10: t2_3_10 - x3_10 <= 0
tri4_2_3_10: t2_3_10 - x2_3 - x2_10 - x3_10 >= -2
tri1_2_3_11: t2_3_11 - x2_3 <= 0
tri2_2_3_11: t2_3_11 - x2_11 <= 0
tri3_2_3_11: t2_3_11 - x3_11 <= 0
tri4_2_3_11: t2_3_11 - x2_3 - x2_11 - x3_11 >= -2
tri1_2_3_12: t2_3_12 - x2_3 <= 0
tri2_2_3_12: t2_3_12 - x2_12 <= 0
tri3_2_3_12: t2_3_12 - x3_12 <= 0
tri4_2_3_12: t2_3_12 - x2_3 - x2_12 - x3_12 >= -2
tri1_2_3_13: t2_3_13 - x2_3 <= 0
tri2_2_3_13: t2_3_13 - x2_13 <= 0
tri3_2_3_13: t2_3_13 - x3_13 <= 0
tri4_2_3_13: t2_3_13 - x2_3 - x2_13 - x3_13 >= -2
tri1_2_3_14: t2_3_14 - x2_3 <= 0
tri2_2_3_14: t2_3_14 - x2_14 <= 0
tri3_2_3_14: t2_3_14 - x3_14 <= 0
tri4_2_3_14: t2_3_14 - x2_3 - x2_14 - x3_14 >= -2
tri1_2_3_15: t2_3_15 - x2_3 <= 0
tri2_2_3_15: t2_3_15 - x2_15 <= 0
tri3_2_3_15: t2_3_15 - x3_15 <= 0
tri4_2_3_15: t2_3_15 - x2_3 - x2_15 - x3_15 >= -2
tri1_2_3_16: t2_3_16 - x2_3 <= 0
tri2_2_3_16: t2_3_16 - x2_16 <= 0
tri3_2_3_16: t2_3_16 - x3_16 <= 0
tri4_2_3_16: t2_3_16 - x2_3 - x2_16 - x3_16 >= -2
tri1_2_3_17: t2_3_17 - x2_3 <= 0
tri2_2_3_17: t2_3_17 - x2_17 <= 0
tri3_2_3_17: t2_3_17 - x3_17 <= 0
tri4_2_3_17: t2_3_17 - x2_3 - x2_17 - x3_17 >= -2
tri1_2_3_18: t2_3_18 - x2_3 <= 0
tri2_2_3_18: t2_3_18 - x2_18 <= 0
tri3_2_3_18: t2_3_18 - x3_18 <= 0
tri4_2_3_18: t2_3_18 - x2_3 - x2_18 - x3_18 >= -2
tri1_2_3_19: t2_3_19 - x2_3 <= 0
tri2_2_3_19: t2_3_19 - x2_19 <= 0
tri3_2_3_19: t2_3_19 - x3_19 <= 0
tri4_2_3_19: t2_3_19 - x2_3 - x2_19 - x3_19 >= -2
tri1_2_3_20: t2_3_20 - x2_3 <= 0
tri2_2_3_20: t2_3_20 - x2_20 <= 0
tri3_2_3_20: t2_3_20 - x3_20 <= 0
tri4_2_3_20: t2_3_20 - x2_3 - x2_20 - x3_20 >= -2
tri1_2_3_21: t2_3_21 - x2_3 <= 0
tri2_2_3_21: t2_3_21 - x2_21 <= 0
tri3_2_3_21: t2_3_21 - x3_21 <= 0
tri4_2_3_21: t2_3_21 - x2_3 - x2_21 - x3_21 >= -2
tri1_2_4_5: t2_4_5 - x2_4 <= 0
tri2_2_4_5: t2_4_5 - x2_5 <= 0
tri3_2_4_5: t2_4_5 - x4_5 <= 0
tri4_2_4_5: t2_4_5 - x2_4 - x2_5 - x4_5 >= -2
tri1_2_4_6: t2_4_6 - x2_4 <= 0
tri2_2_4_6: t2_4_6 - x2_6 <= 0
tri3_2_4_6: t2_4_6 - x4_6 <= 0
tri4_2_4_6: t2_4_6 - x2_4 - x2_6 - x4_6 >= -2
tri1_2_4_7: t2_4_7 - x2_4 <= 0
tri2_2_4_7: t2_4_7 - x2_7 <= 0
tri3_2_4_7: t2_4_7 - x4_7 <= 0
tri4_2_4_7: t2_4_7 - x2_4 - x2_7 - x4_7 >= -2
tri1_2_4_8: t2_4_8 - x2_4 <= 0
tri2_2_4_8: t2_4_8 - x2_8 <= 0
tri3_2_4_8: t2_4_8 - x4_8 <= 0
tri4_2_4_8: t2_4_8 - x2_4 - x2_8 - x4_8 >= -2
tri1_2_4_9: t2_4_9 - x2_4 <= 0
tri2_2_4_9: t2_4_9 - x2_9 <= 0
tri3_2_4_9: t2_4_9 - x4_9 <= 0
tri4_2_4_9: t2_4_9 - x2_4 - x2_9 - x4_9 >= -2
tri1_2_4_10: t2_4_10 - x2_4 <= 0
tri2_2_4_10: t2_4_10 - x2_10 <= 0
tri3_2_4_10: t2_4_10 - x4_10 <= 0
tri4_2_4_10: t2_4_10 - x2_4 - x2_10 - x4_10 >= -2
tri1_2_4_11: t2_4_11 - x2_4 <= 0
tri2_2_4_11: t2_4_11 - x2_11 <= 0
tri3_2_4_11: t2_4_11 - x4_11 <= 0
tri4_2_4_11: t2_4_11 - x2_4 - x2_11 - x4_11 >= -2
tri1_2_4_12: t2_4_12 - x2_4 <= 0
tri2_2_4_12: t2_4_12 - x2_12 <= 0
tri3_2_4_12: t2_4_12 - x4_12 <= 0
tri4_2_4_12: t2_4_12 - x2_4 - x2_12 - x4_12 >= -2
tri1_2_4_13: t2_4_13 - x2_4 <= 0
tri2_2_4_13: t2_4_13 - x2_13 <= 0
tri3_2_4_13: t2_4_13 - x4_13 <= 0
tri4_2_4_13: t2_4_13 - x2_4 - x2_13 - x4_13 >= -2
tri1_2_4_14: t2_4_14 - x2_4 <= 0
tri2_2_4_14: t2_4_14 - x2_14 <= 0
tri3_2_4_14: t2_4_14 - x4_14 <= 0
tri4_2_4_14: t2_4_14 - x2_4 - x2_14 - x4_14 >= -2
tri1_2_4_15: t2_4_15 - x2_4 <= 0
tri2_2_4_15: t2_4_15 - x2_15 <= 0
tri3_2_4_15: t2_4_15 - x4_15 <= 0
tri4_2_4_15: t2_4_15 - x2_4 - x2_15 - x4_15 >= -2
tri1_2_4_16: t2_4_16 - x2_4 <= 0
tri2_2_4_16: t2_4_16 - x2_16 <= 0
tri3_2_4_16: t2_4_16 - x4_16 <= 0
tri4_2_4_16: t2_4_16 - x2_4 - x2_16 - x4_16 >= -2
tri1_2_4_17: t2_4_17 - x2_4 <= 0
tri2_2_4_17: t2_4_17 - x2_17 <= 0
tri3_2_4_17: t2_4_17 - x4_17 <= 0
tri4_2_4_17: t2_4_17 - x2_4 - x2_17 - x4_17 >= -2
tri1_2_4_18: t2_4_18 - x2_4 <= 0
tri2_2_4_18: t2_4_18 - x2_18 <= 0
tri3_2_4_18: t2_4_18 - x4_18 <= 0
tri4_2_4_18: t2_4_18 - x2_4 - x2_18 - x4_18 >= -2
tri1_2_4_19: t2_4_19 - x2_4 <= 0
tri2_2_4_19: t2_4_19 - x2_19 <= 0
tri3_2_4_19: t2_4_19 - x4_19 <= 0
tri4_2_4_19: t2_4_19 - x2_4 - x2_19 - x4_19 >= -2
tri1_2_4_20: t2_4_20 - x2_4 <= 0
tri2_2_4_20: t2_4_20 - x2_20 <= 0
tri3_2_4_20: t2_4_20 - x4_20 <= 0
tri4_2_4_20: t2_4_20 - x2_4 - x2_20 - x4_20 >= -2
tri1_2_4_21: t2_4_21 - x2_4 <= 0
tri2_2_4_21: t2_4_21 - x2_21 <= 0
tri3_2_4_21: t2_4_21 - x4_21 <= 0
tri4_2_4_21: t2_4_21 - x2_4 - x2_21 - x4_21 >= -2
tri1_2_5_6: t2_5_6 - x2_5 <= 0
tri2_2_5_6: t2_5_6 - x2_6 <= 0
tri3_2_5_6: t2_5_6 - x5_6 <= 0
tri4_2_5_6: t2_5_6 - x2_5 - x2_6 - x5_6 >= -2
tri1_2_5_7: t2_5_7 - x2_5 <= 0
tri2_2_5_7: t2_5_7 - x2_7 <= 0
tri3_2_5_7: t2_5_7 - x5_7 <= 0
tri4_2_5_7: t2_5_7 - x2_5 - x2_7 - x5_7 >= -2
tri1_2_5_8: t2_5_8 - x2_5 <= 0
tri2_2_5_8: t2_5_8 - x2_8 <= 0
tri3_2_5_8: t2_5_8 - x5_8 <= 0
tri4_2_5_8: t2_5_8 - x2_5 - x2_8 - x5_8 >= -2
tri1_2_5_9: t2_5_9 - x2_5 <= 0
tri2_2_5_9: t2_5_9 - x2_9 <= 0
tri3_2_5_9: t2_5_9 - x5_9 <= 0
tri4_2_5_9: t2_5_9 - x2_5 - x2_9 - x5_9 >= -2
tri1_2_5_10: t2_5_10 - x2_5 <= 0
tri2_2_5_10: t2_5_10 - x2_10 <= 0
tri3_2_5_10: t2_5_10 - x5_10 <= 0
tri4_2_5_10: t2_5_10 - x2_5 - x2_10 - x5_10 >= -2
tri1_2_5_11: t2_5_11 - x2_5 <= 0
tri2_2_5_11: t2_5_11 - x2_11 <= 0
tri3_2_5_11: t2_5_11 - x5_11 <= 0
tri4_2_5_11: t2_5_11 - x2_5 - x2_11 - x5_11 >= -2
tri1_2_5_12: t2_5_12 - x2_5 <= 0
tri2_2_5_12: t2_5_12 - x2_12 <= 0
tri3_2_5_12: t2_5_12 - x5_12 <= 0
tri4_2_5_12: t2_5_12 - x2_5 - x2_12 - x5_12 >= -2
tri1_2_5_13: t2_5_13 - x2_5 <= 0
tri2_2_5_13: t2_5_13 - x2_13 <= 0
tri3_2_5_13: t2_5_13 - x5_13 <= 0
tri4_2_5_13: t2_5_13 - x2_5 - x2_13 - x5_13 >= -2
tri1_2_5_14: t2_5_14 - x2_5 <= 0
tri2_2_5_14: t2_5_14 - x2_14 <= 0
tri3_2_5_14: t2_5_14 - x5_14 <= 0
tri4_2_5_14: t2_5_14 - x2_5 - x2_14 - x5_14 >= -2
tri1_2_5_15: t2_5_15 - x2_5 <= 0
tri2_2_5_15: t2_5_15 - x2_15 <= 0
tri3_2_5_15: t2_5_15 - x5_15 <= 0
tri4_2_5_15: t2_5_15 - x2_5 - x2_15 - x5_15 >= -2
tri1_2_5_16: t2_5_16 - x2_5 <= 0
tri2_2_5_16: t2_5_16 - x2_16 <= 0
tri3_2_5_16: t2_5_16 - x5_16 <= 0
tri4_2_5_16: t2_5_16 - x2_5 - x2_16 - x5_16 >= -2
tri1_2_5_17: t2_5_17 - x2_5 <= 0
tri2_2_5_17: t2_5_17 - x2_17 <= 0
tri3_2_5_17: t2_5_17 - x5_17 <= 0
tri4_2_5_17: t2_5_17 - x2_5 - x2_17 - x5_17 >= -2
tri1_2_5_18: t2_5_18 - x2_5 <= 0
tri2_2_5_18: t2_5_18 - x2_18 <= 0
tri3_2_5_18: t2_5_18 - x5_18 <= 0
tri4_2_5_18: t2_5_18 - x2_5 - x2_18 - x5_18 >= -2
tri1_2_5_19: t2_5_19 - x2_5 <= 0
tri2_2_5_19: t2_5_19 - x2_19 <= 0
tri3_2_5_19: t2_5_19 - x5_19 <= 0
tri4_2_5_19: t2_5_19 - x2_5 - x2_19 - x5_19 >= -2
tri1_2_5_20: t2_5_20 - x2_5 <= 0
tri2_2_5_20: t2_5_20 - x2_20 <= 0
tri3_2_5_20: t2_5_20 - x5_20 <= 0
tri4_2_5_20: t2_5_20 - x2_5 - x2_20 - x5_20 >= -2
tri1_2_5_21: t2_5_21 - x2_5 <= 0
tri2_2_5_21: t2_5_21 - x2_21 <= 0
tri3_2_5_21: t2_5_21 - x5_21 <= 0
tri4_2_5_21: t2_5_21 - x2_5 - x2_21 - x5_21 >= -2
tri1_2_6_7: t2_6_7 - x2_6 <= 0
tri2_2_6_7: t2_6_7 - x2_7 <= 0
tri3_2_6_7: t2_6_7 - x6_7 <= 0
tri4_2_6_7: t2_6_7 - x2_6 - x2_7 - x6_7 >= -2
tri1_2_6_8: t2_6_8 - x2_6 <= 0
tri2_2_6_8: t2_6_8 - x2_8 <= 0
tri3_2_6_8: t2_6_8 - x6_8 <= 0
tri4_2_6_8: t2_6_8 - x2_6 - x2_8 - x6_8 >= -2
tri1_2_6_9: t2_6_9 - x2_6 <= 0
tri2_2_6_9: t2_6_9 - x2_9 <= 0
tri3_2_6_9: t2_6_9 - x6_9 <= 0
tri4_2_6_9: t2_6_9 - x2_6 - x2_9 - x6_9 >= -2
tri1_2_6_10: t2_6_10 - x2_6 <= 0
tri2_2_6_10: t2_6_10 - x2_10 <= 0
tri3_2_6_10: t2_6_10 - x6_10 <= 0
tri4_2_6_10: t2_6_10 - x2_6 - x2_10 - x6_10 >= -2
tri1_2_6_11: t2_6_11 - x2_6 <= 0
tri2_2_6_11: t2_6_11 - x2_11 <= 0
tri3_2_6_11: t2_6_11 - x6_11 <= 0
tri4_2_6_11: t2_6_11 - x2_6 - x2_11 - x6_11 >= -2
tri1_2_6_12: t2_6_12 - x2_6 <= 0
tri2_2_6_12: t2_6_12 - x2_12 <= 0
tri3_2_6_12: t2_6_12 - x6_12 <= 0
tri4_2_6_12: t2_6_12 - x2_6 - x2_12 - x6_12 >= -2
tri1_2_6_13: t2_6_13 - x2_6 <= 0
tri2_2_6_13: t2_6_13 - x2_13 <= 0
tri3_2_6_13: t2_6_13 - x6_13 <= 0
tri4_2_6_13: t2_6_13 - x2_6 - x2_13 - x6_13 >= -2
tri1_2_6_14: t2_6_14 - x2_6 <= 0
tri2_2_6_14: t2_6_14 - x2_14 <= 0
tri3_2_6_14: t2_6_14 - x6_14 <= 0
tri4_2_6_14: t2_6_14 - x2_6 - x2_14 - x6_14 >= -2
tri1_2_6_15: t2_6_15 - x2_6 <= 0
tri2_2_6_15: t2_6_15 - x2_15 <= 0
tri3_2_6_15: t2_6_15 - x6_15 <= 0
tri4_2_6_15: t2_6_15 - x2_6 - x2_15 - x6_15 >= -2
tri1_2_6_16: t2_6_16 - x2_6 <= 0
tri2_2_6_16: t2_6_16 - x2_16 <= 0
tri3_2_6_16: t2_6_16 - x6_16 <= 0
tri4_2_6_16: t2_6_16 - x2_6 - x2_16 - x6_16 >= -2
tri1_2_6_17: t2_6_17 - x2_6 <= 0
tri2_2_6_17: t2_6_17 - x2_17 <= 0
tri3_2_6_17: t2_6_17 - x6_17 <= 0
tri4_2_6_17: t2_6_17 - x2_6 - x2_17 - x6_17 >= -2
tri1_2_6_18: t2_6_18 - x2_6 <= 0
tri2_2_6_18: t2_6_18 - x2_18 <= 0
tri3_2_6_18: t2_6_18 - x6_18 <= 0
tri4_2_6_18: t2_6_18 - x2_6 - x2_18 - x6_18 >= -2
tri1_2_6_19: t2_6_19 - x2_6 <= 0
tri2_2_6_19: t2_6_19 - x2_19 <= 0
tri3_2_6_19: t2_6_19 - x6_19 <= 0
tri4_2_6_19: t2_6_19 - x2_6 - x2_19 - x6_19 >= -2
tri1_2_6_20: t2_6_20 - x2_6 <= 0
tri2_2_6_20: t2_6_20 - x2_20 <= 0
tri3_2_6_20: t2_6_20 - x6_20 <= 0
tri4_2_6_20: t2_6_20 - x2_6 - x2_20 - x6_20 >= -2
tri1_2_6_21: t2_6_21 - x2_6 <= 0
tri2_2_6_21: t2_6_21 - x2_21 <= 0
tri3_2_6_21: t2_6_21 - x6_21 <= 0
tri4_2_6_21: t2_6_21 - x2_6 - x2_21 - x6_21 >= -2
tri1_2_7_8: t2_7_8 - x2_7 <= 0
tri2_2_7_8: t2_7_8 - x2_8 <= 0
tri3_2_7_8: t2_7_8 - x7_8 <= 0
tri4_2_7_8: t2_7_8 - x2_7 - x2_8 - x7_8 >= -2
tri1_2_7_9: t2_7_9 - x2_7 <= 0
tri2_2_7_9: t2_7_9 - x2_9 <= 0
tri3_2_7_9: t2_7_9 - x7_9 <= 0
tri4_2_7_9: t2_7_9 - x2_7 - x2_9 - x7_9 >= -2
tri1_2_7_10: t2_7_10 - x2_7 <= 0
tri2_2_7_10: t2_7_10 - x2_10 <= 0
tri3_2_7_10: t2_7_10 - x7_10 <= 0
tri4_2_7_10: t2_7_10 - x2_7 - x2_10 - x7_10 >= -2
tri1_2_7_11: t2_7_11 - x2_7 <= 0
tri2_2_7_11: t2_7_11 - x2_11 <= 0
tri3_2_7_11: t2_7_11 - x7_11 <= 0
tri4_2_7_11: t2_7_11 - x2_7 - x2_11 - x7_11 >= -2
tri1_2_7_12: t2_7_12 - x2_7 <= 0
tri2_2_7_12: t2_7_12 - x2_12 <= 0
tri3_2_7_12: t2_7_12 - x7_12 <= 0
tri4_2_7_12: t2_7_12 - x2_7 - x2_12 - x7_12 >= -2
tri1_2_7_13: t2_7_13 - x2_7 <= 0
tri2_2_7_13: t2_7_13 - x2_13 <= 0
tri3_2_7_13: t2_7_13 - x7_13 <= 0
tri4_2_7_13: t2_7_13 - x2_7 - x2_13 - x7_13 >= -2
tri1_2_7_14: t2_7_14 - x2_7 <= 0
tri2_2_7_14: t2_7_14 - x2_14 <= 0
tri3_2_7_14: t2_7_14 - x7_14 <= 0
tri4_2_7_14: t2_7_14 - x2_7 - x2_14 - x7_14 >= -2
tri1_2_7_15: t2_7_15 - x2_7 <= 0
tri2_2_7_15: t2_7_15 - x2_15 <= 0
tri3_2_7_15: t2_7_15 - x7_15 <= 0
tri4_2_7_15: t2_7_15 - x2_7 - x2_15 - x7_15 >= -2
tri1_2_7_16: t2_7_16 - x2_7 <= 0
tri2_2_7_16: t2_7_16 - x2_16 <= 0
tri3_2_7_16: t2_7_16 - x7_16 <= 0
tri4_2_7_16: t2_7_16 - x2_7 - x2_16 - x7_16 >= -2
tri1_2_7_17: t2_7_17 - x2_7 <= 0
tri2_2_7_17: t2_7_17 - x2_17 <= 0
tri3_2_7_17: t2_7_17 - x7_17 <= 0
tri4_2_7_17: t2_7_17 - x2_7 - x2_17 - x7_17 >= -2
tri1_2_7_18: t2_7_18 - x2_7 <= 0
tri2_2_7_18: t2_7_18 - x2_18 <= 0
tri3_2_7_18: t2_7_18 - x7_18 <= 0
tri4_2_7_18: t2_7_18 - x2_7 - x2_18 - x7_18 >= -2
tri1_2_7_19: t2_7_19 - x2_7 <= 0
tri2_2_7_19: t2_7_19 - x2_19 <= 0
tri3_2_7_19: t2_7_19 - x7_19 <= 0
tri4_2_7_19: t2_7_19 - x2_7 - x2_19 - x7_19 >= -2
tri1_2_7_20: t2_7_20 - x2_7 <= 0
tri2_2_7_20: t2_7_20 - x2_20 <= 0
tri3_2_7_20: t2_7_20 - x7_20 <= 0
tri4_2_7_20: t2_7_20 - x2_7 - x2_20 - x7_20 >= -2
tri1_2_7_21: t2_7_21 - x2_7 <= 0
tri2_2_7_21: t2_7_21 - x2_21 <= 0
tri3_2_7_21: t2_7_21 - x7_21 <= 0
tri4_2_7_21: t2_7_21 - x2_7 - x2_21 - x7_21 >= -2
tri1_2_8_9: t2_8_9 - x2_8 <= 0
tri2_2_8_9: t2_8_9 - x2_9 <= 0
tri3_2_8_9: t2_8_9 - x8_9 <= 0
tri4_2_8_9: t2_8_9 - x2_8 - x2_9 - x8_9 >= -2
tri1_2_8_10: t2_8_10 - x2_8 <= 0
tri2_2_8_10: t2_8_10 - x2_10 <= 0
tri3_2_8_10: t2_8_10 - x8_10 <= 0
tri4_2_8_10: t2_8_10 - x2_8 - x2_10 - x8_10 >= -2
tri1_2_8_11: t2_8_11 - x2_8 <= 0
tri2_2_8_11: t2_8_11 - x2_11 <= 0
tri3_2_8_11: t2_8_11 - x8_11 <= 0
tri4_2_8_11: t2_8_11 - x2_8 - x2_11 - x8_11 >= -2
tri1_2_8_12: t2_8_12 - x2_8 <= 0
tri2_2_8_12: t2_8_12 - x2_12 <= 0
tri3_2_8_12: t2_8_12 - x8_12 <= 0
tri4_2_8_12: t2_8_12 - x2_8 - x2_12 - x8_12 >= -2
tri1_2_8_13: t2_8_13 - x2_8 <= 0
tri2_2_8_13: t2_8_13 - x2_13 <= 0
tri3_2_8_13: t2_8_13 - x8_13 <= 0
tri4_2_8_13: t2_8_13 - x2_8 - x2_13 - x8_13 >= -2
tri1_2_8_14: t2_8_14 - x2_8 <= 0
tri2_2_8_14: t2_8_14 - x2_14 <= 0
tri3_2_8_14: t2_8_14 - x8_14 <= 0
tri4_2_8_14: t2_8_14 - x2_8 - x2_14 - x8_14 >= -2
tri1_2_8_15: t2_8_15 - x2_8 <= 0
tri2_2_8_15: t2_8_15 - x2_15 <= 0
tri3_2_8_15: t2_8_15 - x8_15 <= 0
tri4_2_8_15: t2_8_15 - x2_8 - x2_15 - x8_15 >= -2
tri1_2_8_16: t2_8_16 - x2_8 <= 0
tri2_2_8_16: t2_8_16 - x2_16 <= 0
tri3_2_8_16: t2_8_16 - x8_16 <= 0
tri4_2_8_16: t2_8_16 - x2_8 - x2_16 - x8_16 >= -2
tri1_2_8_17: t2_8_17 - x2_8 <= 0
tri2_2_8_17: t2_8_17 - x2_17 <= 0
tri3_2_8_17: t2_8_17 - x8_17 <= 0
tri4_2_8_17: t2_8_17 - x2_8 - x2_17 - x8_17 >= -2
tri1_2_8_18: t2_8_18 - x2_8 <= 0
tri2_2_8_18: t2_8_18 - x2_18 <= 0
tri3_2_8_18: t2_8_18 - x8_18 <= 0
tri4_2_8_18: t2_8_18 - x2_8 - x2_18 - x8_18 >= -2
tri1_2_8_19: t2_8_19 - x2_8 <= 0
tri2_2_8_19: t2_8_19 - x2_19 <= 0
tri3_2_8_19: t2_8_19 - x8_19 <= 0
tri4_2_8_19: t2_8_19 - x2_8 - x2_19 - x8_19 >= -2
tri1_2_8_20: t2_8_20 - x2_8 <= 0
tri2_2_8_20: t2_8_20 - x2_20 <= 0
tri3_2_8_20: t2_8_20 - x8_20 <= 0
tri4_2_8_20: t2_8_20 - x2_8 - x2_20 - x8_20 >= -2
tri1_2_8_21: t2_8_21 - x2_8 <= 0
tri2_2_8_21: t2_8_21 - x2_21 <= 0
tri3_2_8_21: t2_8_21 - x8_21 <= 0
tri4_2_8_21: t2_8_21 - x2_8 - x2_21 - x8_21 >= -2
tri1_2_9_10: t2_9_10 - x2_9 <= 0
tri2_2_9_10: t2_9_10 - x2_10 <= 0
tri3_2_9_10: t2_9_10 - x9_10 <= 0
tri4_2_9_10: t2_9_10 - x2_9 - x2_10 - x9_10 >= -2
tri1_2_9_11: t2_9_11 - x2_9 <= 0
tri2_2_9_11: t2_9_11 - x2_11 <= 0
tri3_2_9_11: t2_9_11 - x9_11 <= 0
tri4_2_9_11: t2_9_11 - x2_9 - x2_11 - x9_11 >= -2
tri1_2_9_12: t2_9_12 - x2_9 <= 0
tri2_2_9_12: t2_9_12 - x2_12 <= 0
tri3_2_9_12: t2_9_12 - x9_12 <= 0
tri4_2_9_12: t2_9_12 - x2_9 - x2_12 - x9_12 >= -2
tri1_2_9_13: t2_9_13 - x2_9 <= 0
tri2_2_9_13: t2_9_13 - x2_13 <= 0
tri3_2_9_13: t2_9_13 - x9_13 <= 0
tri4_2_9_13: t2_9_13 - x2_9 - x2_13 - x9_13 >= -2
tri1_2_9_14: t2_9_14 - x2_9 <= 0
tri2_2_9_14: t2_9_14 - x2_14 <= 0
tri3_2_9_14: t2_9_14 - x9_14 <= 0
tri4_2_9_14: t2_9_14 - x2_9 - x2_14 - x9_14 >= -2
tri1_2_9_15: t2_9_15 - x2_9 <= 0
tri2_2_9_15: t2_9_15 - x2_15 <= 0
tri3_2_9_15: t2_9_15 - x9_15 <= 0
tri4_2_9_15: t2_9_15 - x2_9 - x2_15 - x9_15 >= -2
tri1_2_9_16: t2_9_16 - x2_9 <= 0
tri2_2_9_16: t2_9_16 - x2_16 <= 0
tri3_2_9_16: t2_9_16 - x9_16 <= 0
tri4_2_9_16: t2_9_16 - x2_9 - x2_16 - x9_16 >= -2
tri1_2_9_17: t2_9_17 - x2_9 <= 0
tri2_2_9_17: t2_9_17 - x2_17 <= 0
tri3_2_9_17: t2_9_17 - x9_17 <= 0
tri4_2_9_17: t2_9_17 - x2_9 - x2_17 - x9_17 >= -2
tri1_2_9_18: t2_9_18 - x2_9 <= 0
tri2_2_9_18: t2_9_18 - x2_18 <= 0
tri3_2_9_18: t2_9_18 - x9_18 <= 0
tri4_2_9_18: t2_9_18 - x2_9 - x2_18 - x9_18 >= -2
tri1_2_9_19: t2_9_19 - x2_9 <= 0
tri2_2_9_19: t2_9_19 - x2_19 <= 0
tri3_2_9_19: t2_9_19 - x9_19 <= 0
tri4_2_9_19: t2_9_19 - x2_9 - x2_19 - x9_19 >= -2
tri1_2_9_20: t2_9_20 - x2_9 <= 0
tri2_2_9_20: t2_9_20 - x2_20 <= 0
tri3_2_9_20: t2_9_20 - x9_20 <= 0
tri4_2_9_20: t2_9_20 - x2_9 - x2_20 - x9_20 >= -2
tri1_2_9_21: t2_9_21 - x2_9 <= 0
tri2_2_9_21: t2_9_21 - x2_21 <= 0
tri3_2_9_21: t2_9_21 - x9_21 <= 0
tri4_2_9_21: t2_9_21 - x2_9 - x2_21 - x9_21 >= -2
tri1_2_10_11: t2_10_11 - x2_10 <= 0
tri2_2_10_11: t2_10_11 - x2_11 <= 0
tri3_2_10_11: t2_10_11 - x10_11 <= 0
tri4_2_10_11: t2_10_11 - x2_10 - x2_11 - x10_11 >= -2
tri1_2_10_12: t2_10_12 - x2_10 <= 0
tri2_2_10_12: t2_10_12 - x2_12 <= 0
tri3_2_10_12: t2_10_12 - x10_12 <= 0
tri4_2_10_12: t2_10_12 - x2_10 - x2_12 - x10_12 >= -2
tri1_2_10_13: t2_10_13 - x2_10 <= 0
tri2_2_10_13: t2_10_13 - x2_13 <= 0
tri3_2_10_13: t2_10_13 - x10_13 <= 0
tri4_2_10_13: t2_10_13 - x2_10 - x2_13 - x10_13 >= -2
tri1_2_10_14: t2_10_14 - x2_10 <= 0
tri2_2_10_14: t2_10_14 - x2_14 <= 0
tri3_2_10_14: t2_10_14 - x10_14 <= 0
tri4_2_10_14: t2_10_14 - x2_10 - x2_14 - x10_14 >= -2
tri1_2_10_15: t2_10_15 - x2_10 <= 0
tri2_2_10_15: t2_10_15 - x2_15 <= 0
tri3_2_10_15: t2_10_15 - x10_15 <= 0
tri4_2_10_15: t2_10_15 - x2_10 - x2_15 - x10_15 >= -2
tri1_2_10_16: t2_10_16 - x2_10 <= 0
tri2_2_10_16: t2_10_16 - x2_16 <= 0
tri3_2_10_16: t2_10_16 - x10_16 <= 0
tri4_2_10_16: t2_10_16 - x2_10 - x2_16 - x10_16 >= -2
tri1_2_10_17: t2_10_17 - x2_10 <= 0
tri2_2_10_17: t2_10_17 - x2_17 <= 0
tri3_2_10_17: t2_10_17 - x10_17 <= 0
tri4_2_10_17: t2_10_17 - x2_10 - x2_17 - x10_17 >= -2
tri1_2_10_18: t2_10_18 - x2_10 <= 0
tri2_2_10_18: t2_10_18 - x2_18 <= 0
tri3_2_10_18: t2_10_18 - x10_18 <= 0
tri4_2_10_18: t2_10_18 - x2_10 - x2_18 - x10_18 >= -2
tri1_2_10_19: t2_10_19 - x2_10 <= 0
tri2_2_10_19: t2_10_19 - x2_19 <= 0
tri3_2_10_19: t2_10_19 - x10_19 <= 0
tri4_2_10_19: t2_10_19 - x2_10 - x2_19 - x10_19 >= -2
tri1_2_10_20: t2_10_20 - x2_10 <= 0
tri2_2_10_20: t2_10_20 - x2_20 <= 0
tri3_2_10_20: t2_10_20 - x10_20 <= 0
tri4_2_10_20: t2_10_20 - x2_10 - x2_20 - x10_20 >= -2
tri1_2_10_21: t2_10_21 - x2_10 <= 0
tri2_2_10_21: t2_10_21 - x2_21 <= 0
tri3_2_10_21: t2_10_21 - x10_21 <= 0
tri4_2_10_21: t2_10_21 - x2_10 - x2_21 - x10_21 >= -2
tri1_2_11_12: t2_11_12 - x2_11 <= 0
tri2_2_11_12: t2_11_12 - x2_12 <= 0
tri3_2_11_12: t2_11_12 - x11_12 <= 0
tri4_2_11_12: t2_11_12 - x2_11 - x2_12 - x11_12 >= -2
tri1_2_11_13: t2_11_13 - x2_11 <= 0
tri2_2_11_13: t2_11_13 - x2_13 <= 0
tri3_2_11_13: t2_11_13 - x11_13 <= 0
tri4_2_11_13: t2_11_13 - x2_11 - x2_13 - x11_13 >= -2
tri1_2_11_14: t2_11_14 - x2_11 <= 0
tri2_2_11_14: t2_11_14 - x2_14 <= 0
tri3_2_11_14: t2_11_14 - x11_14 <= 0
tri4_2_11_14: t2_11_14 - x2_11 - x2_14 - x11_14 >= -2
tri1_2_11_15: t2_11_15 - x2_11 <= 0
tri2_2_11_15: t2_11_15 - x2_15 <= 0
tri3_2_11_15: t2_11_15 - x11_15 <= 0
tri4_2_11_15: t2_11_15 - x2_11 - x2_15 - x11_15 >= -2
tri1_2_11_16: t2_11_16 - x2_11 <= 0
tri2_2_11_16: t2_11_16 - x2_16 <= 0
tri3_2_11_16: t2_11_16 - x11_16 <= 0
tri4_2_11_16: t2_11_16 - x2_11 - x2_16 - x11_16 >= -2
tri1_2_11_17: t2_11_17 - x2_11 <= 0
tri2_2_11_17: t2_11_17 - x2_17 <= 0
tri3_2_11_17: t2_11_17 - x11_17 <= 0
tri4_2_11_17: t2_11_17 - x2_11 - x2_17 - x11_17 >= -2
tri1_2_11_18: t2_11_18 - x2_11 <= 0
tri2_2_11_18: t2_11_18 - x2_18 <= 0
tri3_2_11_18: t2_11_18 - x11_18 <= 0
tri4_2_11_18: t2_11_18 - x2_11 - x2_18 - x11_18 >= -2
tri1_2_11_19: t2_11_19 - x2_11 <= 0
tri2_2_11_19: t2_11_19 - x2_19 <= 0
tri3_2_11_19: t2_11_19 - x11_19 <= 0
tri4_2_11_19: t2_11_19 - x2_11 - x2_19 - x11_19 >= -2
tri1_2_11_20: t2_11_20 - x2_11 <= 0
tri2_2_11_20: t2_11_20 - x2_20 <= 0
tri3_2_11_20: t2_11_20 - x11_20 <= 0
tri4_2_11_20: t2_11_20 - x2_11 - x2_20 - x11_20 >= -2
tri1_2_11_21: t2_11_21 - x2_11 <= 0
tri2_2_11_21: t2_11_21 - x2_21 <= 0
tri3_2_11_21: t2_11_21 - x11_21 <= 0
tri4_2_11_21: t2_11_21 - x2_11 - x2_21 - x11_21 >= -2
tri1_2_12_13: t2_12_13 - x2_12 <= 0
tri2_2_12_13: t2_12_13 - x2_13 <= 0
tri3_2_12_13: t2_12_13 - x12_13 <= 0
tri4_2_12_13: t2_12_13 - x2_12 - x2_13 - x12_13 >= -2
tri1_2_12_14: t2_12_14 - x2_12 <= 0
tri2_2_12_14: t2_12_14 - x2_14 <= 0
tri3_2_12_14: t2_12_14 - x12_14 <= 0
tri4_2_12_14: t2_12_14 - x2_12 - x2_14 - x12_14 >= -2
tri1_2_12_15: t2_12_15 - x2_12 <= 0
tri2_2_12_15: t2_12_15 - x2_15 <= 0
tri3_2_12_15: t2_12_15 - x12_15 <= 0
tri4_2_12_15: t2_12_15 - x2_12 - x2_15 - x12_15 >= -2
tri1_2_12_16: t2_12_16 - x2_12 <= 0
tri2_2_12_16: t2_12_16 - x2_16 <= 0
tri3_2_12_16: t2_12_16 - x12_16 <= 0
tri4_2_12_16: t2_12_16 - x2_12 - x2_16 - x12_16 >= -2
tri1_2_12_17: t2_12_17 - x2_12 <= 0
tri2_2_12_17: t2_12_17 - x2_17 <= 0
tri3_2_12_17: t2_12_17 - x12_17 <= 0
tri4_2_12_17: t2_12_17 - x2_12 - x2_17 - x12_17 >= -2
tri1_2_12_18: t2_12_18 - x2_12 <= 0
tri2_2_12_18: t2_12_18 - x2_18 <= 0
tri3_2_12_18: t2_12_18 - x12_18 <= 0
tri4_2_12_18: t2_12_18 - x2_12 - x2_18 - x12_18 >= -2
tri1_2_12_19: t2_12_19 - x2_12 <= 0
tri2_2_12_19: t2_12_19 - x2_19 <= 0
tri3_2_12_19: t2_12_19 - x12_19 <= 0
tri4_2_12_19: t2_12_19 - x2_12 - x2_19 - x12_19 >= -2
tri1_2_12_20: t2_12_20 - x2_12 <= 0
tri2_2_12_20: t2_12_20 - x2_20 <= 0
tri3_2_12_20: t2_12_20 - x12_20 <= 0
tri4_2_12_20: t2_12_20 - x2_12 - x2_20 - x12_20 >= -2
tri1_2_12_21: t2_12_21 - x2_12 <= 0
tri2_2_12_21: t2_12_21 - x2_21 <= 0
tri3_2_12_21: t2_12_21 - x12_21 <= 0
tri4_2_12_21: t2_12_21 - x2_12 - x2_21 - x12_21 >= -2
tri1_2_13_14: t2_13_14 - x2_13 <= 0
tri2_2_13_14: t2_13_14 - x2_14 <= 0
tri3_2_13_14: t2_13_14 - x13_14 <= 0
tri4_2_13_14: t2_13_14 - x2_13 - x2_14 - x13_14 >= -2
tri1_2_13_15: t2_13_15 - x2_13 <= 0
tri2_2_13_15: t2_13_15 - x2_15 <= 0
tri3_2_13_15: t2_13_15 - x13_15 <= 0
tri4_2_13_15: t2_13_15 - x2_13 - x2_15 - x13_15 >= -2
tri1_2_13_16: t2_13_16 - x2_13 <= 0
tri2_2_13_16: t2_13_16 - x2_16 <= 0
tri3_2_13_16: t2_13_16 - x13_16 <= 0
tri4_2_13_16: t2_13_16 - x2_13 - x2_16 - x13_16 >= -2
tri1_2_13_17: t2_13_17 - x2_13 <= 0
tri2_2_13_17: t2_13_17 - x2_17 <= 0
tri3_2_13_17: t2_13_17 - x13_17 <= 0
tri4_2_13_17: t2_13_17 - x2_13 - x2_17 - x13_17 >= -2
tri1_2_13_18: t2_13_18 - x2_13 <= 0
tri2_2_13_18: t2_13_18 - x2_18 <= 0
tri3_2_13_18: t2_13_18 - x13_18 <= 0
tri4_2_13_18: t2_13_18 - x2_13 - x2_18 - x13_18 >= -2
tri1_2_13_19: t2_13_19 - x2_13 <= 0
tri2_2_13_19: t2_13_19 - x2_19 <= 0
tri3_2_13_19: t2_13_19 - x13_19 <= 0
tri4_2_13_19: t2_13_19 - x2_13 - x2_19 - x13_19 >= -2
tri1_2_13_20: t2_13_20 - x2_13 <= 0
tri2_2_13_20: t2_13_20 - x2_20 <= 0
tri3_2_13_20: t2_13_20 - x13_20 <= 0
tri4_2_13_20: t2_13_20 - x2_13 - x2_20 - x13_20 >= -2
tri1_2_13_21: t2_13_21 - x2_13 <= 0
tri2_2_13_21: t2_13_21 - x2_21 <= 0
tri3_2_13_21: t2_13_21 - x13_21 <= 0
tri4_2_13_21: t2_13_21 - x2_13 - x2_21 - x13_21 >= -2
tri1_2_14_15: t2_14_15 - x2_14 <= 0
tri2_2_14_15: t2_14_15 - x2_15 <= 0
tri3_2_14_15: t2_14_15 - x14_15 <= 0
tri4_2_14_15: t2_14_15 - x2_14 - x2_15 - x14_15 >= -2
tri1_2_14_16: t2_14_16 - x2_14 <= 0
tri2_2_14_16: t2_14_16 - x2_16 <= 0
tri3_2_14_16: t2_14_16 - x14_16 <= 0
tri4_2_14_16: t2_14_16 - x2_14 - x2_16 - x14_16 >= -2
tri1_2_14_17: t2_14_17 - x2_14 <= 0
tri2_2_14_17: t2_14_17 - x2_17 <= 0
tri3_2_14_17: t2_14_17 - x14_17 <= 0
tri4_2_14_17: t2_14_17 - x2_14 - x2_17 - x14_17 >= -2
tri1_2_14_18: t2_14_18 - x2_14 <= 0
tri2_2_14_18: t2_14_18 - x2_18 <= 0
tri3_2_14_18: t2_14_18 - x14_18 <= 0
tri4_2_14_18: t2_14_18 - x2_14 - x2_18 - x14_18 >= -2
tri1_2_14_19: t2_14_19 - x2_14 <= 0
tri2_2_14_19: t2_14_19 - x2_19 <= 0
tri3_2_14_19: t2_14_19 - x14_19 <= 0
tri4_2_14_19: t2_14_19 - x2_14 - x2_19 - x14_19 >= -2
tri1_2_14_20: t2_14_20 - x2_14 <= 0
tri2_2_14_20: t2_14_20 - x2_20 <= 0
tri3_2_14_20: t2_14_20 - x14_20 <= 0
tri4_2_14_20: t2_14_20 - x2_14 - x2_20 - x14_20 >= -2
tri1_2_14_21: t2_14_21 - x2_14 <= 0
tri2_2_14_21: t2_14_21 - x2_21 <= 0
tri3_2_14_21: t2_14_21 - x14_21 <= 0
tri4_2_14_21: t2_14_21 - x2_14 - x2_21 - x14_21 >= -2
tri1_2_15_16: t2_15_16 - x2_15 <= 0
tri2_2_15_16: t2_15_16 - x2_16 <= 0
tri3_2_15_16: t2_15_16 - x15_16 <= 0
tri4_2_15_16: t2_15_16 - x2_15 - x2_16 - x15_16 >= -2
tri1_2_15_17: t2_15_17 - x2_15 <= 0
tri2_2_15_17: t2_15_17 - x2_17 <= 0
tri3_2_15_17: t2_15_17 - x15_17 <= 0
tri4_2_15_17: t2_15_17 - x2_15 - x2_17 - x15_17 >= -2
tri1_2_15_18: t2_15_18 - x2_15 <= 0
tri2_2_15_18: t2_15_18 - x2_18 <= 0
tri3_2_15_18: t2_15_18 - x15_18 <= 0
tri4_2_15_18: t2_15_18 - x2_15 - x2_18 - x15_18 >= -2
tri1_2_15_19: t2_15_19 - x2_15 <= 0
tri2_2_15_19: t2_15_19 - x2_19 <= 0
tri3_2_15_19: t2_15_19 - x15_19 <= 0
tri4_2_15_19: t2_15_19 - x2_15 - x2_19 - x15_19 >= -2
tri1_2_15_20: t2_15_20 - x2_15 <= 0
tri2_2_15_20: t2_15_20 - x2_20 <= 0
tri3_2_15_20: t2_15_20 - x15_20 <= 0
tri4_2_15_20: t2_15_20 - x2_15 - x2_20 - x15_20 >= -2
tri1_2_15_21: t2_15_21 - x2_15 <= 0
tri2_2_15_21: t2_15_21 - x2_21 <= 0
tri3_2_15_21: t2_15_21 - x15_21 <= 0
tri4_2_15_21: t2_15_21 - x2_15 - x2_21 - x15_21 >= -2
tri1_2_16_17: t2_16_17 - x2_16 <= 0
tri2_2_16_17: t2_16_17 - x2_17 <= 0
tri3_2_16_17: t2_16_17 - x16_17 <= 0
tri4_2_16_17: t2_16_17 - x2_16 - x2_17 - x16_17 >= -2
tri1_2_16_18: t2_16_18 - x2_16 <= 0
tri2_2_16_18: t2_16_18 - x2_18 <= 0
tri3_2_16_18: t2_16_18 - x16_18 <= 0
tri4_2_16_18: t2_16_18 - x2_16 - x2_18 - x16_18 >= -2
tri1_2_16_19: t2_16_19 - x2_16 <= 0
tri2_2_16_19: t2_16_19 - x2_19 <= 0
tri3_2_16_19: t2_16_19 - x16_19 <= 0
tri4_2_16_19: t2_16_19 - x2_16 - x2_19 - x16_19 >= -2
tri1_2_16_20: t2_16_20 - x2_16 <= 0
tri2_2_16_20: t2_16_20 - x2_20 <= 0
tri3_2_16_20: t2_16_20 - x16_20 <= 0
tri4_2_16_20: t2_16_20 - x2_16 - x2_20 - x16_20 >= -2
tri1_2_16_21: t2_16_21 - x2_16 <= 0
tri2_2_16_21: t2_16_21 - x2_21 <= 0
tri3_2_16_21: t2_16_21 - x16_21 <= 0
tri4_2_16_21: t2_16_21 - x2_16 - x2_21 - x16_21 >= -2
tri1_2_17_18: t2_17_18 - x2_17 <= 0
tri2_2_17_18: t2_17_18 - x2_18 <= 0
tri3_2_17_18: t2_17_18 - x17_18 <= 0
tri4_2_17_18: t2_17_18 - x2_17 - x2_18 - x17_18 >= -2
tri1_2_17_19: t2_17_19 - x2_17 <= 0
tri2_2_17_19: t2_17_19 - x2_19 <= 0
tri3_2_17_19: t2_17_19 - x17_19 <= 0
tri4_2_17_19: t2_17_19 - x2_17 - x2_19 - x17_19 >= -2
tri1_2_17_20: t2_17_20 - x2_17 <= 0
tri2_2_17_20: t2_17_20 - x2_20 <= 0
tri3_2_17_20: t2_17_20 - x17_20 <= 0
tri4_2_17_20: t2_17_20 - x2_17 - x2_20 - x17_20 >= -2
tri1_2_17_21: t2_17_21 - x2_17 <= 0
tri2_2_17_21: t2_17_21 - x2_21 <= 0
tri3_2_17_21: t2_17_21 - x17_21 <= 0
tri4_2_17_21: t2_17_21 - x2_17 - x2_21 - x17_21 >= -2
tri1_2_18_19: t2_18_19 - x2_18 <= 0
tri2_2_18_19: t2_18_19 - x2_19 <= 0
tri3_2_18_19: t2_18_19 - x18_19 <= 0
tri4_2_18_19: t2_18_19 - x2_18 - x2_19 - x18_19 >= -2
tri1_2_18_20: t2_18_20 - x2_18 <= 0
tri2_2_18_20: t2_18_20 - x2_20 <= 0
tri3_2_18_20: t2_18_20 - x18_20 <= 0
tri4_2_18_20: t2_18_20 - x2_18 - x2_20 - x18_20 >= -2
tri1_2_18_21: t2_18_21 - x2_18 <= 0
tri2_2_18_21: t2_18_21 - x2_21 <= 0
tri3_2_18_21: t2_18_21 - x18_21 <= 0
tri4_2_18_21: t2_18_21 - x2_18 - x2_21 - x18_21 >= -2
tri1_2_19_20: t2_19_20 - x2_19 <= 0
tri2_2_19_20: t2_19_20 - x2_20 <= 0
tri3_2_19_20: t2_19_20 - x19_20 <= 0
tri4_2_19_20: t2_19_20 - x2_19 - x2_20 - x19_20 >= -2
tri1_2_19_21: t2_19_21 - x2_19 <= 0
tri2_2_19_21: t2_19_21 - x2_21 <= 0
tri3_2_19_21: t2_19_21 - x19_21 <= 0
tri4_2_19_21: t2_19_21 - x2_19 - x2_21 - x19_21 >= -2
tri1_2_20_21: t2_20_21 - x2_20 <= 0
tri2_2_20_21: t2_20_21 - x2_21 <= 0
tri3_2_20_21: t2_20_21 - x20_21 <= 0
tri4_2_20_21: t2_20_21 - x2_20 - x2_21 - x20_21 >= -2
tri1_3_4_5: t3_4_5 - x3_4 <= 0
tri2_3_4_5: t3_4_5 - x3_5 <= 0
tri3_3_4_5: t3_4_5 - x4_5 <= 0
tri4_3_4_5: t3_4_5 - x3_4 - x3_5 - x4_5 >= -2
tri1_3_4_6: t3_4_6 - x3_4 <= 0
tri2_3_4_6: t3_4_6 - x3_6 <= 0
tri3_3_4_6: t3_4_6 - x4_6 <= 0
tri4_3_4_6: t3_4_6 - x3_4 - x3_6 - x4_6 >= -2
tri1_3_4_7: t3_4_7 - x3_4 <= 0
tri2_3_4_7: t3_4_7 - x3_7 <= 0
tri3_3_4_7: t3_4_7 - x4_7 <= 0
tri4_3_4_7: t3_4_7 - x3_4 - x3_7 - x4_7 >= -2
tri1_3_4_8: t3_4_8 - x3_4 <= 0
tri2_3_4_8: t3_4_8 - x3_8 <= 0
tri3_3_4_8: t3_4_8 - x4_8 <= 0
tri4_3_4_8: t3_4_8 - x3_4 - x3_8 - x4_8 >= -2
tri1_3_4_9: t3_4_9 - x3_4 <= 0
tri2_3_4_9: t3_4_9 - x3_9 <= 0
tri3_3_4_9: t3_4_9 - x4_9 <= 0
tri4_3_4_9: t3_4_9 - x3_4 - x3_9 - x4_9 >= -2
tri1_3_4_10: t3_4_10 - x3_4 <= 0
tri2_3_4_10: t3_4_10 - x3_10 <= 0
tri3_3_4_10: t3_4_10 - x4_10 <= 0
tri4_3_4_10: t3_4_10 - x3_4 - x3_10 - x4_10 >= -2
tri1_3_4_11: t3_4_11 - x3_4 <= 0
tri2_3_4_11: t3_4_11 - x3_11 <= 0
tri3_3_4_11: t3_4_11 - x4_11 <= 0
tri4_3_4_11: t3_4_11 - x3_4 - x3_11 - x4_11 >= -2
tri1_3_4_12: t3_4_12 - x3_4 <= 0
tri2_3_4_12: t3_4_12 - x3_12 <= 0
tri3_3_4_12: t3_4_12 - x4_12 <= 0
tri4_3_4_12: t3_4_12 - x3_4 - x3_12 - x4_12 >= -2
tri1_3_4_13: t3_4_13 - x3_4 <= 0
tri2_3_4_13: t3_4_13 - x3_13 <= 0
tri3_3_4_13: t3_4_13 - x4_13 <= 0
tri4_3_4_13: t3_4_13 - x3_4 - x3_13 - x4_13 >= -2
tri1_3_4_14: t3_4_14 - x3_4 <= 0
tri2_3_4_14: t3_4_14 - x3_14 <= 0
tri3_3_4_14: t3_4_14 - x4_14 <= 0
tri4_3_4_14: t3_4_14 - x3_4 - x3_14 - x4_14 >= -2
tri1_3_4_15: t3_4_15 - x3_4 <= 0
tri2_3_4_15: t3_4_15 - x3_15 <= 0
tri3_3_4_15: t3_4_15 - x4_15 <= 0
tri4_3_4_15: t3_4_15 - x3_4 - x3_15 - x4_15 >= -2
tri1_3_4_16: t3_4_16 - x3_4 <= 0
tri2_3_4_16: t3_4_16 - x3_16 <= 0
tri3_3_4_16: t3_4_16 - x4_16 <= 0
tri4_3_4_16: t3_4_16 - x3_4 - x3_16 - x4_16 >= -2
tri1_3_4_17: t3_4_17 - x3_4 <= 0
tri2_3_4_17: t3_4_17 - x3_17 <= 0
tri3_3_4_17: t3_4_17 - x4_17 <= 0
tri4_3_4_17: t3_4_17 - x3_4 - x3_17 - x4_17 >= -2
tri1_3_4_18: t3_4_18 - x3_4 <= 0
tri2_3_4_18: t3_4_18 - x3_18 <= 0
tri3_3_4_18: t3_4_18 - x4_18 <= 0
tri4_3_4_18: t3_4_18 - x3_4 - x3_18 - x4_18 >= -2
tri1_3_4_19: t3_4_19 - x3_4 <= 0
tri2_3_4_19: t3_4_19 - x3_19 <= 0
tri3_3_4_19: t3_4_19 - x4_19 <= 0
tri4_3_4_19: t3_4_19 - x3_4 - x3_19 - x4_19 >= -2
tri1_3_4_20: t3_4_20 - x3_4 <= 0
tri2_3_4_20: t3_4_20 - x3_20 <= 0
tri3_3_4_20: t3_4_20 - x4_20 <= 0
tri4_3_4_20: t3_4_20 - x3_4 - x3_20 - x4_20 >= -2
tri1_3_4_21: t3_4_21 - x3_4 <= 0
tri2_3_4_21: t3_4_21 - x3_21 <= 0
tri3_3_4_21: t3_4_21 - x4_21 <= 0
tri4_3_4_21: t3_4_21 - x3_4 - x3_21 - x4_21 >= -2
tri1_3_5_6: t3_5_6 - x3_5 <= 0
tri2_3_5_6: t3_5_6 - x3_6 <= 0
tri3_3_5_6: t3_5_6 - x5_6 <= 0
tri4_3_5_6: t3_5_6 - x3_5 - x3_6 - x5_6 >= -2
tri1_3_5_7: t3_5_7 - x3_5 <= 0
tri2_3_5_7: t3_5_7 - x3_7 <= 0
tri3_3_5_7: t3_5_7 - x5_7 <= 0
tri4_3_5_7: t3_5_7 - x3_5 - x3_7 - x5_7 >= -2
tri1_3_5_8: t3_5_8 - x3_5 <= 0
tri2_3_5_8: t3_5_8 - x3_8 <= 0
tri3_3_5_8: t3_5_8 - x5_8 <= 0
tri4_3_5_8: t3_5_8 - x3_5 - x3_8 - x5_8 >= -2
tri1_3_5_9: t3_5_9 - x3_5 <= 0
tri2_3_5_9: t3_5_9 - x3_9 <= 0
tri3_3_5_9: t3_5_9 - x5_9 <= 0
tri4_3_5_9: t3_5_9 - x3_5 - x3_9 - x5_9 >= -2
tri1_3_5_10: t3_5_10 - x3_5 <= 0
tri2_3_5_10: t3_5_10 - x3_10 <= 0
tri3_3_5_10: t3_5_10 - x5_10 <= 0
tri4_3_5_10: t3_5_10 - x3_5 - x3_10 - x5_10 >= -2
tri1_3_5_11: t3_5_11 - x3_5 <= 0
tri2_3_5_11: t3_5_11 - x3_11 <= 0
tri3_3_5_11: t3_5_11 - x5_11 <= 0
tri4_3_5_11: t3_5_11 - x3_5 - x3_11 - x5_11 >= -2
tri1_3_5_12: t3_5_12 - x3_5 <= 0
tri2_3_5_12: t3_5_12 - x3_12 <= 0
tri3_3_5_12: t3_5_12 - x5_12 <= 0
tri4_3_5_12: t3_5_12 - x3_5 - x3_12 - x5_12 >= -2
tri1_3_5_13: t3_5_13 - x3_5 <= 0
tri2_3_5_13: t3_5_13 - x3_13 <= 0
tri3_3_5_13: t3_5_13 - x5_13 <= 0
tri4_3_5_13: t3_5_13 - x3_5 - x3_13 - x5_13 >= -2
tri1_3_5_14: t3_5_14 - x3_5 <= 0
tri2_3_5_14: t3_5_14 - x3_14 <= 0
tri3_3_5_14: t3_5_14 - x5_14 <= 0
tri4_3_5_14: t3_5_14 - x3_5 - x3_14 - x5_14 >= -2
tri1_3_5_15: t3_5_15 - x3_5 <= 0
tri2_3_5_15: t3_5_15 - x3_15 <= 0
tri3_3_5_15: t3_5_15 - x5_15 <= 0
tri4_3_5_15: t3_5_15 - x3_5 - x3_15 - x5_15 >= -2
tri1_3_5_16: t3_5_16 - x3_5 <= 0
tri2_3_5_16: t3_5_16 - x3_16 <= 0
tri3_3_5_16: t3_5_16 - x5_16 <= 0
tri4_3_5_16: t3_5_16 - x3_5 - x3_16 - x5_16 >= -2
tri1_3_5_17: t3_5_17 - x3_5 <= 0
tri2_3_5_17: t3_5_17 - x3_17 <= 0
tri3_3_5_17: t3_5_17 - x5_17 <= 0
tri4_3_5_17: t3_5_17 - x3_5 - x3_17 - x5_17 >= -2
tri1_3_5_18: t3_5_18 - x3_5 <= 0
tri2_3_5_18: t3_5_18 - x3_18 <= 0
tri3_3_5_18: t3_5_18 - x5_18 <= 0
tri4_3_5_18: t3_5_18 - x3_5 - x3_18 - x5_18 >= -2
tri1_3_5_19: t3_5_19 - x3_5 <= 0
tri2_3_5_19: t3_5_19 - x3_19 <= 0
tri3_3_5_19: t3_5_19 - x5_19 <= 0
tri4_3_5_19: t3_5_19 - x3_5 - x3_19 - x5_19 >= -2
tri1_3_5_20: t3_5_20 - x3_5 <= 0
tri2_3_5_20: t3_5_20 - x3_20 <= 0
tri3_3_5_20: t3_5_20 - x5_20 <= 0
tri4_3_5_20: t3_5_20 - x3_5 - x3_20 - x5_20 >= -2
tri1_3_5_21: t3_5_21 - x3_5 <= 0
tri2_3_5_21: t3_5_21 - x3_21 <= 0
tri3_3_5_21: t3_5_21 - x5_21 <= 0
tri4_3_5_21: t3_5_21 - x3_5 - x3_21 - x5_21 >= -2
tri1_3_6_7: t3_6_7 - x3_6 <= 0
tri2_3_6_7: t3_6_7 - x3_7 <= 0
tri3_3_6_7: t3_6_7 - x6_7 <= 0
tri4_3_6_7: t3_6_7 - x3_6 - x3_7 - x6_7 >= -2
tri1_3_6_8: t3_6_8 - x3_6 <= 0
tri2_3_6_8: t3_6_8 - x3_8 <= 0
tri3_3_6_8: t3_6_8 - x6_8 <= 0
tri4_3_6_8: t3_6_8 - x3_6 - x3_8 - x6_8 >= -2
tri1_3_6_9: t3_6_9 - x3_6 <= 0
tri2_3_6_9: t3_6_9 - x3_9 <= 0
tri3_3_6_9: t3_6_9 - x6_9 <= 0
tri4_3_6_9: t3_6_9 - x3_6 - x3_9 - x6_9 >= -2
tri1_3_6_10: t3_6_10 - x3_6 <= 0
tri2_3_6_10: t3_6_10 - x3_10 <= 0
tri3_3_6_10: t3_6_10 - x6_10 <= 0
tri4_3_6_10: t3_6_10 - x3_6 - x3_10 - x6_10 >= -2
tri1_3_6_11: t3_6_11 - x3_6 <= 0
tri2_3_6_11: t3_6_11 - x3_11 <= 0
tri3_3_6_11: t3_6_11 - x6_11 <= 0
tri4_3_6_11: t3_6_11 - x3_6 - x3_11 - x6_11 >= -2
tri1_3_6_12: t3_6_12 - x3_6 <= 0
tri2_3_6_12: t3_6_12 - x3_12 <= 0
tri3_3_6_12: t3_6_12 - x6_12 <= 0
tri4_3_6_12: t3_6_12 - x3_6 - x3_12 - x6_12 >= -2
tri1_3_6_13: t3_6_13 - x3_6 <= 0
tri2_3_6_13: t3_6_13 - x3_13 <= 0
tri3_3_6_13: t3_6_13 - x6_13 <= 0
tri4_3_6_13: t3_6_13 - x3_6 - x3_13 - x6_13 >= -2
tri1_3_6_14: t3_6_14 - x3_6 <= 0
tri2_3_6_14: t3_6_14 - x3_14 <= 0
tri3_3_6_14: t3_6_14 - x6_14 <= 0
tri4_3_6_14: t3_6_14 - x3_6 - x3_14 - x6_14 >= -2
tri1_3_6_15: t3_6_15 - x3_6 <= 0
tri2_3_6_15: t3_6_15 - x3_15 <= 0
tri3_3_6_15: t3_6_15 - x6_15 <= 0
tri4_3_6_15: t3_6_15 - x3_6 - x3_15 - x6_15 >= -2
tri1_3_6_16: t3_6_16 - x3_6 <= 0
tri2_3_6_16: t3_6_16 - x3_16 <= 0
tri3_3_6_16: t3_6_16 - x6_16 <= 0
tri4_3_6_16: t3_6_16 - x3_6 - x3_16 - x6_16 >= -2
tri1_3_6_17: t3_6_17 - x3_6 <= 0
tri2_3_6_17: t3_6_17 - x3_17 <= 0
tri3_3_6_17: t3_6_17 - x6_17 <= 0
tri4_3_6_17: t3_6_17 - x3_6 - x3_17 - x6_17 >= -2
tri1_3_6_18: t3_6_18 - x3_6 <= 0
tri2_3_6_18: t3_6_18 - x3_18 <= 0
tri3_3_6_18: t3_6_18 - x6_18 <= 0
tri4_3_6_18: t3_6_18 - x3_6 - x3_18 - x6_18 >= -2
tri1_3_6_19: t3_6_19 - x3_6 <= 0
tri2_3_6_19: t3_6_19 - x3_19 <= 0
tri3_3_6_19: t3_6_19 - x6_19 <= 0
tri4_3_6_19: t3_6_19 - x3_6 - x3_19 - x6_19 >= -2
tri1_3_6_20: t3_6_20 - x3_6 <= 0
tri2_3_6_20: t3_6_20 - x3_20 <= 0
tri3_3_6_20: t3_6_20 - x6_20 <= 0
tri4_3_6_20: t3_6_20 - x3_6 - x3_20 - x6_20 >= -2
tri1_3_6_21: t3_6_21 - x3_6 <= 0
tri2_3_6_21: t3_6_21 - x3_21 <= 0
tri3_3_6_21: t3_6_21 - x6_21 <= 0
tri4_3_6_21: t3_6_21 - x3_6 - x3_21 - x6_21 >= -2
tri1_3_7_8: t3_7_8 - x3_7 <= 0
tri2_3_7_8: t3_7_8 - x3_8 <= 0
tri3_3_7_8: t3_7_8 - x7_8 <= 0
tri4_3_7_8: t3_7_8 - x3_7 - x3_8 - x7_8 >= -2
tri1_3_7_9: t3_7_9 - x3_7 <= 0
tri2_3_7_9: t3_7_9 - x3_9 <= 0
tri3_3_7_9: t3_7_9 - x7_9 <= 0
tri4_3_7_9: t3_7_9 - x3_7 - x3_9 - x7_9 >= -2
tri1_3_7_10: t3_7_10 - x3_7 <= 0
tri2_3_7_10: t3_7_10 - x3_10 <= 0
tri3_3_7_10: t3_7_10 - x7_10 <= 0
tri4_3_7_10: t3_7_10 - x3_7 - x3_10 - x7_10 >= -2
tri1_3_7_11: t3_7_11 - x3_7 <= 0
tri2_3_7_11: t3_7_11 - x3_11 <= 0
tri3_3_7_11: t3_7_11 - x7_11 <= 0
tri4_3_7_11: t3_7_11 - x3_7 - x3_11 - x7_11 >= -2
tri1_3_7_12: t3_7_12 - x3_7 <= 0
tri2_3_7_12: t3_7_12 - x3_12 <= 0
tri3_3_7_12: t3_7_12 - x7_12 <= 0
tri4_3_7_12: t3_7_12 - x3_7 - x3_12 - x7_12 >= -2
tri1_3_7_13: t3_7_13 - x3_7 <= 0
tri2_3_7_13: t3_7_13 - x3_13 <= 0
tri3_3_7_13: t3_7_13 - x7_13 <= 0
tri4_3_7_13: t3_7_13 - x3_7 - x3_13 - x7_13 >= -2
tri1_3_7_14: t3_7_14 - x3_7 <= 0
tri2_3_7_14: t3_7_14 - x3_14 <= 0
tri3_3_7_14: t3_7_14 - x7_14 <= 0
tri4_3_7_14: t3_7_14 - x3_7 - x3_14 - x7_14 >= -2
tri1_3_7_15: t3_7_15 - x3_7 <= 0
tri2_3_7_15: t3_7_15 - x3_15 <= 0
tri3_3_7_15: t3_7_15 - x7_15 <= 0
tri4_3_7_15: t3_7_15 - x3_7 - x3_15 - x7_15 >= -2
tri1_3_7_16: t3_7_16 - x3_7 <= 0
tri2_3_7_16: t3_7_16 - x3_16 <= 0
tri3_3_7_16: t3_7_16 - x7_16 <= 0
tri4_3_7_16: t3_7_16 - x3_7 - x3_16 - x7_16 >= -2
tri1_3_7_17: t3_7_17 - x3_7 <= 0
tri2_3_7_17: t3_7_17 - x3_17 <= 0
tri3_3_7_17: t3_7_17 - x7_17 <= 0
tri4_3_7_17: t3_7_17 - x3_7 - x3_17 - x7_17 >= -2
tri1_3_7_18: t3_7_18 - x3_7 <= 0
tri2_3_7_18: t3_7_18 - x3_18 <= 0
tri3_3_7_18: t3_7_18 - x7_18 <= 0
tri4_3_7_18: t3_7_18 - x3_7 - x3_18 - x7_18 >= -2
tri1_3_7_19: t3_7_19 - x3_7 <= 0
tri2_3_7_19: t3_7_19 - x3_19 <= 0
tri3_3_7_19: t3_7_19 - x7_19 <= 0
tri4_3_7_19: t3_7_19 - x3_7 - x3_19 - x7_19 >= -2
tri1_3_7_20: t3_7_20 - x3_7 <= 0
tri2_3_7_20: t3_7_20 - x3_20 <= 0
tri3_3_7_20: t3_7_20 - x7_20 <= 0
tri4_3_7_20: t3_7_20 - x3_7 - x3_20 - x7_20 >= -2
tri1_3_7_21: t3_7_21 - x3_7 <= 0
tri2_3_7_21: t3_7_21 - x3_21 <= 0
tri3_3_7_21: t3_7_21 - x7_21 <= 0
tri4_3_7_21: t3_7_21 - x3_7 - x3_21 - x7_21 >= -2
tri1_3_8_9: t3_8_9 - x3_8 <= 0
tri2_3_8_9: t3_8_9 - x3_9 <= 0
tri3_3_8_9: t3_8_9 - x8_9 <= 0
tri4_3_8_9: t3_8_9 - x3_8 - x3_9 - x8_9 >= -2
tri1_3_8_10: t3_8_10 - x3_8 <= 0
tri2_3_8_10: t3_8_10 - x3_10 <= 0
tri3_3_8_10: t3_8_10 - x8_10 <= 0
tri4_3_8_10: t3_8_10 - x3_8 - x3_10 - x8_10 >= -2
tri1_3_8_11: t3_8_11 - x3_8 <= 0
tri2_3_8_11: t3_8_11 - x3_11 <= 0
tri3_3_8_11: t3_8_11 - x8_11 <= 0
tri4_3_8_11: t3_8_11 - x3_8 - x3_11 - x8_11 >= -2
tri1_3_8_12: t3_8_12 - x3_8 <= 0
tri2_3_8_12: t3_8_12 - x3_12 <= 0
tri3_3_8_12: t3_8_12 - x8_12 <= 0
tri4_3_8_12: t3_8_12 - x3_8 - x3_12 - x8_12 >= -2
tri1_3_8_13: t3_8_13 - x3_8 <= 0
tri2_3_8_13: t3_8_13 - x3_13 <= 0
tri3_3_8_13: t3_8_13 - x8_13 <= 0
tri4_3_8_13: t3_8_13 - x3_8 - x3_13 - x8_13 >= -2
tri1_3_8_14: t3_8_14 - x3_8 <= 0
tri2_3_8_14: t3_8_14 - x3_14 <= 0
tri3_3_8_14: t3_8_14 - x8_14 <= 0
tri4_3_8_14: t3_8_14 - x3_8 - x3_14 - x8_14 >= -2
tri1_3_8_15: t3_8_15 - x3_8 <= 0
tri2_3_8_15: t3_8_15 - x3_15 <= 0
tri3_3_8_15: t3_8_15 - x8_15 <= 0
tri4_3_8_15: t3_8_15 - x3_8 - x3_15 - x8_15 >= -2
tri1_3_8_16: t3_8_16 - x3_8 <= 0
tri2_3_8_16: t3_8_16 - x3_16 <= 0
tri3_3_8_16: t3_8_16 - x8_16 <= 0
tri4_3_8_16: t3_8_16 - x3_8 - x3_16 - x8_16 >= -2
tri1_3_8_17: t3_8_17 - x3_8 <= 0
tri2_3_8_17: t3_8_17 - x3_17 <= 0
tri3_3_8_17: t3_8_17 - x8_17 <= 0
tri4_3_8_17: t3_8_17 - x3_8 - x3_17 - x8_17 >= -2
tri1_3_8_18: t3_8_18 - x3_8 <= 0
tri2_3_8_18: t3_8_18 - x3_18 <= 0
tri3_3_8_18: t3_8_18 - x8_18 <= 0
tri4_3_8_18: t3_8_18 - x3_8 - x3_18 - x8_18 >= -2
tri1_3_8_19: t3_8_19 - x3_8 <= 0
tri2_3_8_19: t3_8_19 - x3_19 <= 0
tri3_3_8_19: t3_8_19 - x8_19 <= 0
tri4_3_8_19: t3_8_19 - x3_8 - x3_19 - x8_19 >= -2
tri1_3_8_20: t3_8_20 - x3_8 <= 0
tri2_3_8_20: t3_8_20 - x3_20 <= 0
tri3_3_8_20: t3_8_20 - x8_20 <= 0
tri4_3_8_20: t3_8_20 - x3_8 - x3_20 - x8_20 >= -2
tri1_3_8_21: t3_8_21 - x3_8 <= 0
tri2_3_8_21: t3_8_21 - x3_21 <= 0
tri3_3_8_21: t3_8_21 - x8_21 <= 0
tri4_3_8_21: t3_8_21 - x3_8 - x3_21 - x8_21 >= -2
tri1_3_9_10: t3_9_10 - x3_9 <= 0
tri2_3_9_10: t3_9_10 - x3_10 <= 0
tri3_3_9_10: t3_9_10 - x9_10 <= 0
tri4_3_9_10: t3_9_10 - x3_9 - x3_10 - x9_10 >= -2
tri1_3_9_11: t3_9_11 - x3_9 <= 0
tri2_3_9_11: t3_9_11 - x3_11 <= 0
tri3_3_9_11: t3_9_11 - x9_11 <= 0
tri4_3_9_11: t3_9_11 - x3_9 - x3_11 - x9_11 >= -2
tri1_3_9_12: t3_9_12 - x3_9 <= 0
tri2_3_9_12: t3_9_12 - x3_12 <= 0
tri3_3_9_12: t3_9_12 - x9_12 <= 0
tri4_3_9_12: t3_9_12 - x3_9 - x3_12 - x9_12 >= -2
tri1_3_9_13: t3_9_13 - x3_9 <= 0
tri2_3_9_13: t3_9_13 - x3_13 <= 0
tri3_3_9_13: t3_9_13 - x9_13 <= 0
tri4_3_9_13: t3_9_13 - x3_9 - x3_13 - x9_13 >= -2
tri1_3_9_14: t3_9_14 - x3_9 <= 0
tri2_3_9_14: t3_9_14 - x3_14 <= 0
tri3_3_9_14: t3_9_14 - x9_14 <= 0
tri4_3_9_14: t3_9_14 - x3_9 - x3_14 - x9_14 >= -2
tri1_3_9_15: t3_9_15 - x3_9 <= 0
tri2_3_9_15: t3_9_15 - x3_15 <= 0
tri3_3_9_15: t3_9_15 - x9_15 <= 0
tri4_3_9_15: t3_9_15 - x3_9 - x3_15 - x9_15 >= -2
tri1_3_9_16: t3_9_16 - x3_9 <= 0
tri2_3_9_16: t3_9_16 - x3_16 <= 0
tri3_3_9_16: t3_9_16 - x9_16 <= 0
tri4_3_9_16: t3_9_16 - x3_9 - x3_16 - x9_16 >= -2
tri1_3_9_17: t3_9_17 - x3_9 <= 0
tri2_3_9_17: t3_9_17 - x3_17 <= 0
tri3_3_9_17: t3_9_17 - x9_17 <= 0
tri4_3_9_17: t3_9_17 - x3_9 - x3_17 - x9_17 >= -2
tri1_3_9_18: t3_9_18 - x3_9 <= 0
tri2_3_9_18: t3_9_18 - x3_18 <= 0
tri3_3_9_18: t3_9_18 - x9_18 <= 0
tri4_3_9_18: t3_9_18 - x3_9 - x3_18 - x9_18 >= -2
tri1_3_9_19: t3_9_19 - x3_9 <= 0
tri2_3_9_19: t3_9_19 - x3_19 <= 0
tri3_3_9_19: t3_9_19 - x9_19 <= 0
tri4_3_9_19: t3_9_19 - x3_9 - x3_19 - x9_19 >= -2
tri1_3_9_20: t3_9_20 - x3_9 <= 0
tri2_3_9_20: t3_9_20 - x3_20 <= 0
tri3_3_9_20: t3_9_20 - x9_20 <= 0
tri4_3_9_20: t3_9_20 - x3_9 - x3_20 - x9_20 >= -2
tri1_3_9_21: t3_9_21 - x3_9 <= 0
tri2_3_9_21: t3_9_21 - x3_21 <= 0
tri3_3_9_21: t3_9_21 - x9_21 <= 0
tri4_3_9_21: t3_9_21 - x3_9 - x3_21 - x9_21 >= -2
tri1_3_10_11: t3_10_11 - x3_10 <= 0
tri2_3_10_11: t3_10_11 - x3_11 <= 0
tri3_3_10_11: t3_10_11 - x10_11 <= 0
tri4_3_10_11: t3_10_11 - x3_10 - x3_11 - x10_11 >= -2
tri1_3_10_12: t3_10_12 - x3_10 <= 0
tri2_3_10_12: t3_10_12 - x3_12 <= 0
tri3_3_10_12: t3_10_12 - x10_12 <= 0
tri4_3_10_12: t3_10_12 - x3_10 - x3_12 - x10_12 >= -2
tri1_3_10_13: t3_10_13 - x3_10 <= 0
tri2_3_10_13: t3_10_13 - x3_13 <= 0
tri3_3_10_13: t3_10_13 - x10_13 <= 0
tri4_3_10_13: t3_10_13 - x3_10 - x3_13 - x10_13 >= -2
tri1_3_10_14: t3_10_14 - x3_10 <= 0
tri2_3_10_14: t3_10_14 - x3_14 <= 0
tri3_3_10_14: t3_10_14 - x10_14 <= 0
tri4_3_10_14: t3_10_14 - x3_10 - x3_14 - x10_14 >= -2
tri1_3_10_15: t3_10_15 - x3_10 <= 0
tri2_3_10_15: t3_10_15 - x3_15 <= 0
tri3_3_10_15: t3_10_15 - x10_15 <= 0
tri4_3_10_15: t3_10_15 - x3_10 - x3_15 - x10_15 >= -2
tri1_3_10_16: t3_10_16 - x3_10 <= 0
tri2_3_10_16: t3_10_16 - x3_16 <= 0
tri3_3_10_16: t3_10_16 - x10_16 <= 0
tri4_3_10_16: t3_10_16 - x3_10 - x3_16 - x10_16 >= -2
tri1_3_10_17: t3_10_17 - x3_10 <= 0
tri2_3_10_17: t3_10_17 - x3_17 <= 0
tri3_3_10_17: t3_10_17 - x10_17 <= 0
tri4_3_10_17: t3_10_17 - x3_10 - x3_17 - x10_17 >= -2
tri1_3_10_18: t3_10_18 - x3_10 <= 0
tri2_3_10_18: t3_10_18 - x3_18 <= 0
tri3_3_10_18: t3_10_18 - x10_18 <= 0
tri4_3_10_18: t3_10_18 - x3_10 - x3_18 - x10_18 >= -2
tri1_3_10_19: t3_10_19 - x3_10 <= 0
tri2_3_10_19: t3_10_19 - x3_19 <= 0
tri3_3_10_19: t3_10_19 - x10_19 <= 0
tri4_3_10_19: t3_10_19 - x3_10 - x3_19 - x10_19 >= -2
tri1_3_10_20: t3_10_20 - x3_10 <= 0
tri2_3_10_20: t3_10_20 - x3_20 <= 0
tri3_3_10_20: t3_10_20 - x10_20 <= 0
tri4_3_10_20: t3_10_20 - x3_10 - x3_20 - x10_20 >= -2
tri1_3_10_21: t3_10_21 - x3_10 <= 0
tri2_3_10_21: t3_10_21 - x3_21 <= 0
tri3_3_10_21: t3_10_21 - x10_21 <= 0
tri4_3_10_21: t3_10_21 - x3_10 - x3_21 - x10_21 >= -2
tri1_3_11_12: t3_11_12 - x3_11 <= 0
tri2_3_11_12: t3_11_12 - x3_12 <= 0
tri3_3_11_12: t3_11_12 - x11_12 <= 0
tri4_3_11_12: t3_11_12 - x3_11 - x3_12 - x11_12 >= -2
tri1_3_11_13: t3_11_13 - x3_11 <= 0
tri2_3_11_13: t3_11_13 - x3_13 <= 0
tri3_3_11_13: t3_11_13 - x11_13 <= 0
tri4_3_11_13: t3_11_13 - x3_11 - x3_13 - x11_13 >= -2
tri1_3_11_14: t3_11_14 - x3_11 <= 0
tri2_3_11_14: t3_11_14 - x3_14 <= 0
tri3_3_11_14: t3_11_14 - x11_14 <= 0
tri4_3_11_14: t3_11_14 - x3_11 - x3_14 - x11_14 >= -2
tri1_3_11_15: t3_11_15 - x3_11 <= 0
tri2_3_11_15: t3_11_15 - x3_15 <= 0
tri3_3_11_15: t3_11_15 - x11_15 <= 0
tri4_3_11_15: t3_11_15 - x3_11 - x3_15 - x11_15 >= -2
tri1_3_11_16: t3_11_16 - x3_11 <= 0
tri2_3_11_16: t3_11_16 - x3_16 <= 0
tri3_3_11_16: t3_11_16 - x11_16 <= 0
tri4_3_11_16: t3_11_16 - x3_11 - x3_16 - x11_16 >= -2
tri1_3_11_17: t3_11_17 - x3_11 <= 0
tri2_3_11_17: t3_11_17 - x3_17 <= 0
tri3_3_11_17: t3_11_17 - x11_17 <= 0
tri4_3_11_17: t3_11_17 - x3_11 - x3_17 - x11_17 >= -2
tri1_3_11_18: t3_11_18 - x3_11 <= 0
tri2_3_11_18: t3_11_18 - x3_18 <= 0
tri3_3_11_18: t3_11_18 - x11_18 <= 0
tri4_3_11_18: t3_11_18 - x3_11 - x3_18 - x11_18 >= -2
tri1_3_11_19: t3_11_19 - x3_11 <= 0
tri2_3_11_19: t3_11_19 - x3_19 <= 0
tri3_3_11_19: t3_11_19 - x11_19 <= 0
tri4_3_11_19: t3_11_19 - x3_11 - x3_19 - x11_19 >= -2
tri1_3_11_20: t3_11_20 - x3_11 <= 0
tri2_3_11_20: t3_11_20 - x3_20 <= 0
tri3_3_11_20: t3_11_20 - x11_20 <= 0
tri4_3_11_20: t3_11_20 - x3_11 - x3_20 - x11_20 >= -2
tri1_3_11_21: t3_11_21 - x3_11 <= 0
tri2_3_11_21: t3_11_21 - x3_21 <= 0
tri3_3_11_21: t3_11_21 - x11_21 <= 0
tri4_3_11_21: t3_11_21 - x3_11 - x3_21 - x11_21 >= -2
tri1_3_12_13: t3_12_13 - x3_12 <= 0
tri2_3_12_13: t3_12_13 - x3_13 <= 0
tri3_3_12_13: t3_12_13 - x12_13 <= 0
tri4_3_12_13: t3_12_13 - x3_12 - x3_13 - x12_13 >= -2
tri1_3_12_14: t3_12_14 - x3_12 <= 0
tri2_3_12_14: t3_12_14 - x3_14 <= 0
tri3_3_12_14: t3_12_14 - x12_14 <= 0
tri4_3_12_14: t3_12_14 - x3_12 - x3_14 - x12_14 >= -2
tri1_3_12_15: t3_12_15 - x3_12 <= 0
tri2_3_12_15: t3_12_15 - x3_15 <= 0
tri3_3_12_15: t3_12_15 - x12_15 <= 0
tri4_3_12_15: t3_12_15 - x3_12 - x3_15 - x12_15 >= -2
tri1_3_12_16: t3_12_16 - x3_12 <= 0
tri2_3_12_16: t3_12_16 - x3_16 <= 0
tri3_3_12_16: t3_12_16 - x12_16 <= 0
tri4_3_12_16: t3_12_16 - x3_12 - x3_16 - x12_16 >= -2
tri1_3_12_17: t3_12_17 - x3_12 <= 0
tri2_3_12_17: t3_12_17 - x3_17 <= 0
tri3_3_12_17: t3_12_17 - x12_17 <= 0
tri4_3_12_17: t3_12_17 - x3_12 - x3_17 - x12_17 >= -2
tri1_3_12_18: t3_12_18 - x3_12 <= 0
tri2_3_12_18: t3_12_18 - x3_18 <= 0
tri3_3_12_18: t3_12_18 - x12_18 <= 0
tri4_3_12_18: t3_12_18 - x3_12 - x3_18 - x12_18 >= -2
tri1_3_12_19: t3_12_19 - x3_12 <= 0
tri2_3_12_19: t3_12_19 - x3_19 <= 0
tri3_3_12_19: t3_12_19 - x12_19 <= 0
tri4_3_12_19: t3_12_19 - x3_12 - x3_19 - x12_19 >= -2
tri1_3_12_20: t3_12_20 - x3_12 <= 0
tri2_3_12_20: t3_12_20 - x3_20 <= 0
tri3_3_12_20: t3_12_20 - x12_20 <= 0
tri4_3_12_20: t3_12_20 - x3_12 - x3_20 - x12_20 >= -2
tri1_3_12_21: t3_12_21 - x3_12 <= 0
tri2_3_12_21: t3_12_21 - x3_21 <= 0
tri3_3_12_21: t3_12_21 - x12_21 <= 0
tri4_3_12_21: t3_12_21 - x3_12 - x3_21 - x12_21 >= -2
tri1_3_13_14: t3_13_14 - x3_13 <= 0
tri2_3_13_14: t3_13_14 - x3_14 <= 0
tri3_3_13_14: t3_13_14 - x13_14 <= 0
tri4_3_13_14: t3_13_14 - x3_13 - x3_14 - x13_14 >= -2
tri1_3_13_15: t3_13_15 - x3_13 <= 0
tri2_3_13_15: t3_13_15 - x3_15 <= 0
tri3_3_13_15: t3_13_15 - x13_15 <= 0
tri4_3_13_15: t3_13_15 - x3_13 - x3_15 - x13_15 >= -2
tri1_3_13_16: t3_13_16 - x3_13 <= 0
tri2_3_13_16: t3_13_16 - x3_16 <= 0
tri3_3_13_16: t3_13_16 - x13_16 <= 0
tri4_3_13_16: t3_13_16 - x3_13 - x3_16 - x13_16 >= -2
tri1_3_13_17: t3_13_17 - x3_13 <= 0
tri2_3_13_17: t3_13_17 - x3_17 <= 0
tri3_3_13_17: t3_13_17 - x13_17 <= 0
tri4_3_13_17: t3_13_17 - x3_13 - x3_17 - x13_17 >= -2
tri1_3_13_18: t3_13_18 - x3_13 <= 0
tri2_3_13_18: t3_13_18 - x3_18 <= 0
tri3_3_13_18: t3_13_18 - x13_18 <= 0
tri4_3_13_18: t3_13_18 - x3_13 - x3_18 - x13_18 >= -2
tri1_3_13_19: t3_13_19 - x3_13 <= 0
tri2_3_13_19: t3_13_19 - x3_19 <= 0
tri3_3_13_19: t3_13_19 - x13_19 <= 0
tri4_3_13_19: t3_13_19 - x3_13 - x3_19 - x13_19 >= -2
tri1_3_13_20: t3_13_20 - x3_13 <= 0
tri2_3_13_20: t3_13_20 - x3_20 <= 0
tri3_3_13_20: t3_13_20 - x13_20 <= 0
tri4_3_13_20: t3_13_20 - x3_13 - x3_20 - x13_20 >= -2
tri1_3_13_21: t3_13_21 - x3_13 <= 0
tri2_3_13_21: t3_13_21 - x3_21 <= 0
tri3_3_13_21: t3_13_21 - x13_21 <= 0
tri4_3_13_21: t3_13_21 - x3_13 - x3_21 - x13_21 >= -2
tri1_3_14_15: t3_14_15 - x3_14 <= 0
tri2_3_14_15: t3_14_15 - x3_15 <= 0
tri3_3_14_15: t3_14_15 - x14_15 <= 0
tri4_3_14_15: t3_14_15 - x3_14 - x3_15 - x14_15 >= -2
tri1_3_14_16: t3_14_16 - x3_14 <= 0
tri2_3_14_16: t3_14_16 - x3_16 <= 0
tri3_3_14_16: t3_14_16 - x14_16 <= 0
tri4_3_14_16: t3_14_16 - x3_14 - x3_16 - x14_16 >= -2
tri1_3_14_17: t3_14_17 - x3_14 <= 0
tri2_3_14_17: t3_14_17 - x3_17 <= 0
tri3_3_14_17: t3_14_17 - x14_17 <= 0
tri4_3_14_17: t3_14_17 - x3_14 - x3_17 - x14_17 >= -2
tri1_3_14_18: t3_14_18 - x3_14 <= 0
tri2_3_14_18: t3_14_18 - x3_18 <= 0
tri3_3_14_18: t3_14_18 - x14_18 <= 0
tri4_3_14_18: t3_14_18 - x3_14 - x3_18 - x14_18 >= -2
tri1_3_14_19: t3_14_19 - x3_14 <= 0
tri2_3_14_19: t3_14_19 - x3_19 <= 0
tri3_3_14_19: t3_14_19 - x14_19 <= 0
tri4_3_14_19: t3_14_19 - x3_14 - x3_19 - x14_19 >= -2
tri1_3_14_20: t3_14_20 - x3_14 <= 0
tri2_3_14_20: t3_14_20 - x3_20 <= 0
tri3_3_14_20: t3_14_20 - x14_20 <= 0
tri4_3_14_20: t3_14_20 - x3_14 - x3_20 - x14_20 >= -2
tri1_3_14_21: t3_14_21 - x3_14 <= 0
tri2_3_14_21: t3_14_21 - x3_21 <= 0
tri3_3_14_21: t3_14_21 - x14_21 <= 0
tri4_3_14_21: t3_14_21 - x3_14 - x3_21 - x14_21 >= -2
tri1_3_15_16: t3_15_16 - x3_15 <= 0
tri2_3_15_16: t3_15_16 - x3_16 <= 0
tri3_3_15_16: t3_15_16 - x15_16 <= 0
tri4_3_15_16: t3_15_16 - x3_15 - x3_16 - x15_16 >= -2
tri1_3_15_17: t3_15_17 - x3_15 <= 0
tri2_3_15_17: t3_15_17 - x3_17 <= 0
tri3_3_15_17: t3_15_17 - x15_17 <= 0
tri4_3_15_17: t3_15_17 - x3_15 - x3_17 - x15_17 >= -2
tri1_3_15_18: t3_15_18 - x3_15 <= 0
tri2_3_15_18: t3_15_18 - x3_18 <= 0
tri3_3_15_18: t3_15_18 - x15_18 <= 0
tri4_3_15_18: t3_15_18 - x3_15 - x3_18 - x15_18 >= -2
tri1_3_15_19: t3_15_19 - x3_15 <= 0
tri2_3_15_19: t3_15_19 - x3_19 <= 0
tri3_3_15_19: t3_15_19 - x15_19 <= 0
tri4_3_15_19: t3_15_19 - x3_15 - x3_19 - x15_19 >= -2
tri1_3_15_20: t3_15_20 - x3_15 <= 0
tri2_3_15_20: t3_15_20 - x3_20 <= 0
tri3_3_15_20: t3_15_20 - x15_20 <= 0
tri4_3_15_20: t3_15_20 - x3_15 - x3_20 - x15_20 >= -2
tri1_3_15_21: t3_15_21 - x3_15 <= 0
tri2_3_15_21: t3_15_21 - x3_21 <= 0
tri3_3_15_21: t3_15_21 - x15_21 <= 0
tri4_3_15_21: t3_15_21 - x3_15 - x3_21 - x15_21 >= -2
tri1_3_16_17: t3_16_17 - x3_16 <= 0
tri2_3_16_17: t3_16_17 - x3_17 <= 0
tri3_3_16_17: t3_16_17 - x16_17 <= 0
tri4_3_16_17: t3_16_17 - x3_16 - x3_17 - x16_17 >= -2
tri1_3_16_18: t3_16_18 - x3_16 <= 0
tri2_3_16_18: t3_16_18 - x3_18 <= 0
tri3_3_16_18: t3_16_18 - x16_18 <= 0
tri4_3_16_18: t3_16_18 - x3_16 - x3_18 - x16_18 >= -2
tri1_3_16_19: t3_16_19 - x3_16 <= 0
tri2_3_16_19: t3_16_19 - x3_19 <= 0
tri3_3_16_19: t3_16_19 - x16_19 <= 0
tri4_3_16_19: t3_16_19 - x3_16 - x3_19 - x16_19 >= -2
tri1_3_16_20: t3_16_20 - x3_16 <= 0
tri2_3_16_20: t3_16_20 - x3_20 <= 0
tri3_3_16_20: t3_16_20 - x16_20 <= 0
tri4_3_16_20: t3_16_20 - x3_16 - x3_20 - x16_20 >= -2
tri1_3_16_21: t3_16_21 - x3_16 <= 0
tri2_3_16_21: t3_16_21 - x3_21 <= 0
tri3_3_16_21: t3_16_21 - x16_21 <= 0
tri4_3_16_21: t3_16_21 - x3_16 - x3_21 - x16_21 >= -2
tri1_3_17_18: t3_17_18 - x3_17 <= 0
tri2_3_17_18: t3_17_18 - x3_18 <= 0
tri3_3_17_18: t3_17_18 - x17_18 <= 0
tri4_3_17_18: t3_17_18 - x3_17 - x3_18 - x17_18 >= -2
tri1_3_17_19: t3_17_19 - x3_17 <= 0
tri2_3_17_19: t3_17_19 - x3_19 <= 0
tri3_3_17_19: t3_17_19 - x17_19 <= 0
tri4_3_17_19: t3_17_19 - x3_17 - x3_19 - x17_19 >= -2
tri1_3_17_20: t3_17_20 - x3_17 <= 0
tri2_3_17_20: t3_17_20 - x3_20 <= 0
tri3_3_17_20: t3_17_20 - x17_20 <= 0
tri4_3_17_20: t3_17_20 - x3_17 - x3_20 - x17_20 >= -2
tri1_3_17_21: t3_17_21 - x3_17 <= 0
tri2_3_17_21: t3_17_21 - x3_21 <= 0
tri3_3_17_21: t3_17_21 - x17_21 <= 0
tri4_3_17_21: t3_17_21 - x3_17 - x3_21 - x17_21 >= -2
tri1_3_18_19: t3_18_19 - x3_18 <= 0
tri2_3_18_19: t3_18_19 - x3_19 <= 0
tri3_3_18_19: t3_18_19 - x18_19 <= 0
tri4_3_18_19: t3_18_19 - x3_18 - x3_19 - x18_19 >= -2
tri1_3_18_20: t3_18_20 - x3_18 <= 0
tri2_3_18_20: t3_18_20 - x3_20 <= 0
tri3_3_18_20: t3_18_20 - x18_20 <= 0
tri4_3_18_20: t3_18_20 - x3_18 - x3_20 - x18_20 >= -2
tri1_3_18_21: t3_18_21 - x3_18 <= 0
tri2_3_18_21: t3_18_21 - x3_21 <= 0
tri3_3_18_21: t3_18_21 - x18_21 <= 0
tri4_3_18_21: t3_18_21 - x3_18 - x3_21 - x18_21 >= -2
tri1_3_19_20: t3_19_20 - x3_19 <= 0
tri2_3_19_20: t3_19_20 - x3_20 <= 0
tri3_3_19_20: t3_19_20 - x19_20 <= 0
tri4_3_19_20: t3_19_20 - x3_19 - x3_20 - x19_20 >= -2
tri1_3_19_21: t3_19_21 - x3_19 <= 0
tri2_3_19_21: t3_19_21 - x3_21 <= 0
tri3_3_19_21: t3_19_21 - x19_21 <= 0
tri4_3_19_21: t3_19_21 - x3_19 - x3_21 - x19_21 >= -2
tri1_3_20_21: t3_20_21 - x3_20 <= 0
tri2_3_20_21: t3_20_21 - x3_21 <= 0
tri3_3_20_21: t3_20_21 - x20_21 <= 0
tri4_3_20_21: t3_20_21 - x3_20 - x3_21 - x20_21 >= -2
tri1_4_5_6: t4_5_6 - x4_5 <= 0
tri2_4_5_6: t4_5_6 - x4_6 <= 0
tri3_4_5_6: t4_5_6 - x5_6 <= 0
tri4_4_5_6: t4_5_6 - x4_5 - x4_6 - x5_6 >= -2
tri1_4_5_7: t4_5_7 - x4_5 <= 0
tri2_4_5_7: t4_5_7 - x4_7 <= 0
tri3_4_5_7: t4_5_7 - x5_7 <= 0
tri4_4_5_7: t4_5_7 - x4_5 - x4_7 - x5_7 >= -2
tri1_4_5_8: t4_5_8 - x4_5 <= 0
tri2_4_5_8: t4_5_8 - x4_8 <= 0
tri3_4_5_8: t4_5_8 - x5_8 <= 0
tri4_4_5_8: t4_5_8 - x4_5 - x4_8 - x5_8 >= -2
tri1_4_5_9: t4_5_9 - x4_5 <= 0
tri2_4_5_9: t4_5_9 - x4_9 <= 0
tri3_4_5_9: t4_5_9 - x5_9 <= 0
tri4_4_5_9: t4_5_9 - x4_5 - x4_9 - x5_9 >= -2
tri1_4_5_10: t4_5_10 - x4_5 <= 0
tri2_4_5_10: t4_5_10 - x4_10 <= 0
tri3_4_5_10: t4_5_10 - x5_10 <= 0
tri4_4_5_10: t4_5_10 - x4_5 - x4_10 - x5_10 >= -2
tri1_4_5_11: t4_5_11 - x4_5 <= 0
tri2_4_5_11: t4_5_11 - x4_11 <= 0
tri3_4_5_11: t4_5_11 - x5_11 <= 0
tri4_4_5_11: t4_5_11 - x4_5 - x4_11 - x5_11 >= -2
tri1_4_5_12: t4_5_12 - x4_5 <= 0
tri2_4_5_12: t4_5_12 - x4_12 <= 0
tri3_4_5_12: t4_5_12 - x5_12 <= 0
tri4_4_5_12: t4_5_12 - x4_5 - x4_12 - x5_12 >= -2
tri1_4_5_13: t4_5_13 - x4_5 <= 0
tri2_4_5_13: t4_5_13 - x4_13 <= 0
tri3_4_5_13: t4_5_13 - x5_13 <= 0
tri4_4_5_13: t4_5_13 - x4_5 - x4_13 - x5_13 >= -2
tri1_4_5_14: t4_5_14 - x4_5 <= 0
tri2_4_5_14: t4_5_14 - x4_14 <= 0
tri3_4_5_14: t4_5_14 - x5_14 <= 0
tri4_4_5_14: t4_5_14 - x4_5 - x4_14 - x5_14 >= -2
tri1_4_5_15: t4_5_15 - x4_5 <= 0
tri2_4_5_15: t4_5_15 - x4_15 <= 0
tri3_4_5_15: t4_5_15 - x5_15 <= 0
tri4_4_5_15: t4_5_15 - x4_5 - x4_15 - x5_15 >= -2
tri1_4_5_16: t4_5_16 - x4_5 <= 0
tri2_4_5_16: t4_5_16 - x4_16 <= 0
tri3_4_5_16: t4_5_16 - x5_16 <= 0
tri4_4_5_16: t4_5_16 - x4_5 - x4_16 - x5_16 >= -2
tri1_4_5_17: t4_5_17 - x4_5 <= 0
tri2_4_5_17: t4_5_17 - x4_17 <= 0
tri3_4_5_17: t4_5_17 - x5_17 <= 0
tri4_4_5_17: t4_5_17 - x4_5 - x4_17 - x5_17 >= -2
tri1_4_5_18: t4_5_18 - x4_5 <= 0
tri2_4_5_18: t4_5_18 - x4_18 <= 0
tri3_4_5_18: t4_5_18 - x5_18 <= 0
tri4_4_5_18: t4_5_18 - x4_5 - x4_18 - x5_18 >= -2
tri1_4_5_19: t4_5_19 - x4_5 <= 0
tri2_4_5_19: t4_5_19 - x4_19 <= 0
tri3_4_5_19: t4_5_19 - x5_19 <= 0
tri4_4_5_19: t4_5_19 - x4_5 - x4_19 - x5_19 >= -2
tri1_4_5_20: t4_5_20 - x4_5 <= 0
tri2_4_5_20: t4_5_20 - x4_20 <= 0
tri3_4_5_20: t4_5_20 - x5_20 <= 0
tri4_4_5_20: t4_5_20 - x4_5 - x4_20 - x5_20 >= -2
tri1_4_5_21: t4_5_21 - x4_5 <= 0
tri2_4_5_21: t4_5_21 - x4_21 <= 0
tri3_4_5_21: t4_5_21 - x5_21 <= 0
tri4_4_5_21: t4_5_21 - x4_5 - x4_21 - x5_21 >= -2
tri1_4_6_7: t4_6_7 - x4_6 <= 0
tri2_4_6_7: t4_6_7 - x4_7 <= 0
tri3_4_6_7: t4_6_7 - x6_7 <= 0
tri4_4_6_7: t4_6_7 - x4_6 - x4_7 - x6_7 >= -2
tri1_4_6_8: t4_6_8 - x4_6 <= 0
tri2_4_6_8: t4_6_8 - x4_8 <= 0
tri3_4_6_8: t4_6_8 - x6_8 <= 0
tri4_4_6_8: t4_6_8 - x4_6 - x4_8 - x6_8 >= -2
tri1_4_6_9: t4_6_9 - x4_6 <= 0
tri2_4_6_9: t4_6_9 - x4_9 <= 0
tri3_4_6_9: t4_6_9 - x6_9 <= 0
tri4_4_6_9: t4_6_9 - x4_6 - x4_9 - x6_9 >= -2
tri1_4_6_10: t4_6_10 - x4_6 <= 0
tri2_4_6_10: t4_6_10 - x4_10 <= 0
tri3_4_6_10: t4_6_10 - x6_10 <= 0
tri4_4_6_10: t4_6_10 - x4_6 - x4_10 - x6_10 >= -2
tri1_4_6_11: t4_6_11 - x4_6 <= 0
tri2_4_6_11: t4_6_11 - x4_11 <= 0
tri3_4_6_11: t4_6_11 - x6_11 <= 0
tri4_4_6_11: t4_6_11 - x4_6 - x4_11 - x6_11 >= -2
tri1_4_6_12: t4_6_12 - x4_6 <= 0
tri2_4_6_12: t4_6_12 - x4_12 <= 0
tri3_4_6_12: t4_6_12 - x6_12 <= 0
tri4_4_6_12: t4_6_12 - x4_6 - x4_12 - x6_12 >= -2
tri1_4_6_13: t4_6_13 - x4_6 <= 0
tri2_4_6_13: t4_6_13 - x4_13 <= 0
tri3_4_6_13: t4_6_13 - x6_13 <= 0
tri4_4_6_13: t4_6_13 - x4_6 - x4_13 - x6_13 >= -2
tri1_4_6_14: t4_6_14 - x4_6 <= 0
tri2_4_6_14: t4_6_14 - x4_14 <= 0
tri3_4_6_14: t4_6_14 - x6_14 <= 0
tri4_4_6_14: t4_6_14 - x4_6 - x4_14 - x6_14 >= -2
tri1_4_6_15: t4_6_15 - x4_6 <= 0
tri2_4_6_15: t4_6_15 - x4_15 <= 0
tri3_4_6_15: t4_6_15 - x6_15 <= 0
tri4_4_6_15: t4_6_15 - x4_6 - x4_15 - x6_15 >= -2
tri1_4_6_16: t4_6_16 - x4_6 <= 0
tri2_4_6_16: t4_6_16 - x4_16 <= 0
tri3_4_6_16: t4_6_16 - x6_16 <= 0
tri4_4_6_16: t4_6_16 - x4_6 - x4_16 - x6_16 >= -2
tri1_4_6_17: t4_6_17 - x4_6 <= 0
tri2_4_6_17: t4_6_17 - x4_17 <= 0
tri3_4_6_17: t4_6_17 - x6_17 <= 0
tri4_4_6_17: t4_6_17 - x4_6 - x4_17 - x6_17 >= -2
tri1_4_6_18: t4_6_18 - x4_6 <= 0
tri2_4_6_18: t4_6_18 - x4_18 <= 0
tri3_4_6_18: t4_6_18 - x6_18 <= 0
tri4_4_6_18: t4_6_18 - x4_6 - x4_18 - x6_18 >= -2
tri1_4_6_19: t4_6_19 - x4_6 <= 0
tri2_4_6_19: t4_6_19 - x4_19 <= 0
tri3_4_6_19: t4_6_19 - x6_19 <= 0
tri4_4_6_19: t4_6_19 - x4_6 - x4_19 - x6_19 >= -2
tri1_4_6_20: t4_6_20 - x4_6 <= 0
tri2_4_6_20: t4_6_20 - x4_20 <= 0
tri3_4_6_20: t4_6_20 - x6_20 <= 0
tri4_4_6_20: t4_6_20 - x4_6 - x4_20 - x6_20 >= -2
tri1_4_6_21: t4_6_21 - x4_6 <= 0
tri2_4_6_21: t4_6_21 - x4_21 <= 0
tri3_4_6_21: t4_6_21 - x6_21 <= 0
tri4_4_6_21: t4_6_21 - x4_6 - x4_21 - x6_21 >= -2
tri1_4_7_8: t4_7_8 - x4_7 <= 0
tri2_4_7_8: t4_7_8 - x4_8 <= 0
tri3_4_7_8: t4_7_8 - x7_8 <= 0
tri4_4_7_8: t4_7_8 - x4_7 - x4_8 - x7_8 >= -2
tri1_4_7_9: t4_7_9 - x4_7 <= 0
tri2_4_7_9: t4_7_9 - x4_9 <= 0
tri3_4_7_9: t4_7_9 - x7_9 <= 0
tri4_4_7_9: t4_7_9 - x4_7 - x4_9 - x7_9 >= -2
tri1_4_7_10: t4_7_10 - x4_7 <= 0
tri2_4_7_10: t4_7_10 - x4_10 <= 0
tri3_4_7_10: t4_7_10 - x7_10 <= 0
tri4_4_7_10: t4_7_10 - x4_7 - x4_10 - x7_10 >= -2
tri1_4_7_11: t4_7_11 - x4_7 <= 0
tri2_4_7_11: t4_7_11 - x4_11 <= 0
tri3_4_7_11: t4_7_11 - x7_11 <= 0
tri4_4_7_11: t4_7_11 - x4_7 - x4_11 - x7_11 >= -2
tri1_4_7_12: t4_7_12 - x4_7 <= 0
tri2_4_7_12: t4_7_12 - x4_12 <= 0
tri3_4_7_12: t4_7_12 - x7_12 <= 0
tri4_4_7_12: t4_7_12 - x4_7 - x4_12 - x7_12 >= -2
tri1_4_7_13: t4_7_13 - x4_7 <= 0
tri2_4_7_13: t4_7_13 - x4_13 <= 0
tri3_4_7_13: t4_7_13 - x7_13 <= 0
tri4_4_7_13: t4_7_13 - x4_7 - x4_13 - x7_13 >= -2
tri1_4_7_14: t4_7_14 - x4_7 <= 0
tri2_4_7_14: t4_7_14 - x4_14 <= 0
tri3_4_7_14: t4_7_14 - x7_14 <= 0
tri4_4_7_14: t4_7_14 - x4_7 - x4_14 - x7_14 >= -2
tri1_4_7_15: t4_7_15 - x4_7 <= 0
tri2_4_7_15: t4_7_15 - x4_15 <= 0
tri3_4_7_15: t4_7_15 - x7_15 <= 0
tri4_4_7_15: t4_7_15 - x4_7 - x4_15 - x7_15 >= -2
tri1_4_7_16: t4_7_16 - x4_7 <= 0
tri2_4_7_16: t4_7_16 - x4_16 <= 0
tri3_4_7_16: t4_7_16 - x7_16 <= 0
tri4_4_7_16: t4_7_16 - x4_7 - x4_16 - x7_16 >= -2
tri1_4_7_17: t4_7_17 - x4_7 <= 0
tri2_4_7_17: t4_7_17 - x4_17 <= 0
tri3_4_7_17: t4_7_17 - x7_17 <= 0
tri4_4_7_17: t4_7_17 - x4_7 - x4_17 - x7_17 >= -2
tri1_4_7_18: t4_7_18 - x4_7 <= 0
tri2_4_7_18: t4_7_18 - x4_18 <= 0
tri3_4_7_18: t4_7_18 - x7_18 <= 0
tri4_4_7_18: t4_7_18 - x4_7 - x4_18 - x7_18 >= -2
tri1_4_7_19: t4_7_19 - x4_7 <= 0
tri2_4_7_19: t4_7_19 - x4_19 <= 0
tri3_4_7_19: t4_7_19 - x7_19 <= 0
tri4_4_7_19: t4_7_19 - x4_7 - x4_19 - x7_19 >= -2
tri1_4_7_20: t4_7_20 - x4_7 <= 0
tri2_4_7_20: t4_7_20 - x4_20 <= 0
tri3_4_7_20: t4_7_20 - x7_20 <= 0
tri4_4_7_20: t4_7_20 - x4_7 - x4_20 - x7_20 >= -2
tri1_4_7_21: t4_7_21 - x4_7 <= 0
tri2_4_7_21: t4_7_21 - x4_21 <= 0
tri3_4_7_21: t4_7_21 - x7_21 <= 0
tri4_4_7_21: t4_7_21 - x4_7 - x4_21 - x7_21 >= -2
tri1_4_8_9: t4_8_9 - x4_8 <= 0
tri2_4_8_9: t4_8_9 - x4_9 <= 0
tri3_4_8_9: t4_8_9 - x8_9 <= 0
tri4_4_8_9: t4_8_9 - x4_8 - x4_9 - x8_9 >= -2
tri1_4_8_10: t4_8_10 - x4_8 <= 0
tri2_4_8_10: t4_8_10 - x4_10 <= 0
tri3_4_8_10: t4_8_10 - x8_10 <= 0
tri4_4_8_10: t4_8_10 - x4_8 - x4_10 - x8_10 >= -2
tri1_4_8_11: t4_8_11 - x4_8 <= 0
tri2_4_8_11: t4_8_11 - x4_11 <= 0
tri3_4_8_11: t4_8_11 - x8_11 <= 0
tri4_4_8_11: t4_8_11 - x4_8 - x4_11 - x8_11 >= -2
tri1_4_8_12: t4_8_12 - x4_8 <= 0
tri2_4_8_12: t4_8_12 - x4_12 <= 0
tri3_4_8_12: t4_8_12 - x8_12 <= 0
tri4_4_8_12: t4_8_12 - x4_8 - x4_12 - x8_12 >= -2
tri1_4_8_13: t4_8_13 - x4_8 <= 0
tri2_4_8_13: t4_8_13 - x4_13 <= 0
tri3_4_8_13: t4_8_13 - x8_13 <= 0
tri4_4_8_13: t4_8_13 - x4_8 - x4_13 - x8_13 >= -2
tri1_4_8_14: t4_8_14 - x4_8 <= 0
tri2_4_8_14: t4_8_14 - x4_14 <= 0
tri3_4_8_14: t4_8_14 - x8_14 <= 0
tri4_4_8_14: t4_8_14 - x4_8 - x4_14 - x8_14 >= -2
tri1_4_8_15: t4_8_15 - x4_8 <= 0
tri2_4_8_15: t4_8_15 - x4_15 <= 0
tri3_4_8_15: t4_8_15 - x8_15 <= 0
tri4_4_8_15: t4_8_15 - x4_8 - x4_15 - x8_15 >= -2
tri1_4_8_16: t4_8_16 - x4_8 <= 0
tri2_4_8_16: t4_8_16 - x4_16 <= 0
tri3_4_8_16: t4_8_16 - x8_16 <= 0
tri4_4_8_16: t4_8_16 - x4_8 - x4_16 - x8_16 >= -2
tri1_4_8_17: t4_8_17 - x4_8 <= 0
tri2_4_8_17: t4_8_17 - x4_17 <= 0
tri3_4_8_17: t4_8_17 - x8_17 <= 0
tri4_4_8_17: t4_8_17 - x4_8 - x4_17 - x8_17 >= -2
tri1_4_8_18: t4_8_18 - x4_8 <= 0
tri2_4_8_18: t4_8_18 - x4_18 <= 0
tri3_4_8_18: t4_8_18 - x8_18 <= 0
tri4_4_8_18: t4_8_18 - x4_8 - x4_18 - x8_18 >= -2
tri1_4_8_19: t4_8_19 - x4_8 <= 0
tri2_4_8_19: t4_8_19 - x4_19 <= 0
tri3_4_8_19: t4_8_19 - x8_19 <= 0
tri4_4_8_19: t4_8_19 - x4_8 - x4_19 - x8_19 >= -2
tri1_4_8_20: t4_8_20 - x4_8 <= 0
tri2_4_8_20: t4_8_20 - x4_20 <= 0
tri3_4_8_20: t4_8_20 - x8_20 <= 0
tri4_4_8_20: t4_8_20 - x4_8 - x4_20 - x8_20 >= -2
tri1_4_8_21: t4_8_21 - x4_8 <= 0
tri2_4_8_21: t4_8_21 - x4_21 <= 0
tri3_4_8_21: t4_8_21 - x8_21 <= 0
tri4_4_8_21: t4_8_21 - x4_8 - x4_21 - x8_21 >= -2
tri1_4_9_10: t4_9_10 - x4_9 <= 0
tri2_4_9_10: t4_9_10 - x4_10 <= 0
tri3_4_9_10: t4_9_10 - x9_10 <= 0
tri4_4_9_10: t4_9_10 - x4_9 - x4_10 - x9_10 >= -2
tri1_4_9_11: t4_9_11 - x4_9 <= 0
tri2_4_9_11: t4_9_11 - x4_11 <= 0
tri3_4_9_11: t4_9_11 - x9_11 <= 0
tri4_4_9_11: t4_9_11 - x4_9 - x4_11 - x9_11 >= -2
tri1_4_9_12: t4_9_12 - x4_9 <= 0
tri2_4_9_12: t4_9_12 - x4_12 <= 0
tri3_4_9_12: t4_9_12 - x9_12 <= 0
tri4_4_9_12: t4_9_12 - x4_9 - x4_12 - x9_12 >= -2
tri1_4_9_13: t4_9_13 - x4_9 <= 0
tri2_4_9_13: t4_9_13 - x4_13 <= 0
tri3_4_9_13: t4_9_13 - x9_13 <= 0
tri4_4_9_13: t4_9_13 - x4_9 - x4_13 - x9_13 >= -2
tri1_4_9_14: t4_9_14 - x4_9 <= 0
tri2_4_9_14: t4_9_14 - x4_14 <= 0
tri3_4_9_14: t4_9_14 - x9_14 <= 0
tri4_4_9_14: t4_9_14 - x4_9 - x4_14 - x9_14 >= -2
tri1_4_9_15: t4_9_15 - x4_9 <= 0
tri2_4_9_15: t4_9_15 - x4_15 <= 0
tri3_4_9_15: t4_9_15 - x9_15 <= 0
tri4_4_9_15: t4_9_15 - x4_9 - x4_15 - x9_15 >= -2
tri1_4_9_16: t4_9_16 - x4_9 <= 0
tri2_4_9_16: t4_9_16 - x4_16 <= 0
tri3_4_9_16: t4_9_16 - x9_16 <= 0
tri4_4_9_16: t4_9_16 - x4_9 - x4_16 - x9_16 >= -2
tri1_4_9_17: t4_9_17 - x4_9 <= 0
tri2_4_9_17: t4_9_17 - x4_17 <= 0
tri3_4_9_17: t4_9_17 - x9_17 <= 0
tri4_4_9_17: t4_9_17 - x4_9 - x4_17 - x9_17 >= -2
tri1_4_9_18: t4_9_18 - x4_9 <= 0
tri2_4_9_18: t4_9_18 - x4_18 <= 0
tri3_4_9_18: t4_9_18 - x9_18 <= 0
tri4_4_9_18: t4_9_18 - x4_9 - x4_18 - x9_18 >= -2
tri1_4_9_19: t4_9_19 - x4_9 <= 0
tri2_4_9_19: t4_9_19 - x4_19 <= 0
tri3_4_9_19: t4_9_19 - x9_19 <= 0
tri4_4_9_19: t4_9_19 - x4_9 - x4_19 - x9_19 >= -2
tri1_4_9_20: t4_9_20 - x4_9 <= 0
tri2_4_9_20: t4_9_20 - x4_20 <= 0
tri3_4_9_20: t4_9_20 - x9_20 <= 0
tri4_4_9_20: t4_9_20 - x4_9 - x4_20 - x9_20 >= -2
tri1_4_9_21: t4_9_21 - x4_9 <= 0
tri2_4_9_21: t4_9_21 - x4_21 <= 0
tri3_4_9_21: t4_9_21 - x9_21 <= 0
tri4_4_9_21: t4_9_21 - x4_9 - x4_21 - x9_21 >= -2
tri1_4_10_11: t4_10_11 - x4_10 <= 0
tri2_4_10_11: t4_10_11 - x4_11 <= 0
tri3_4_10_11: t4_10_11 - x10_11 <= 0
tri4_4_10_11: t4_10_11 - x4_10 - x4_11 - x10_11 >= -2
tri1_4_10_12: t4_10_12 - x4_10 <= 0
tri2_4_10_12: t4_10_12 - x4_12 <= 0
tri3_4_10_12: t4_10_12 - x10_12 <= 0
tri4_4_10_12: t4_10_12 - x4_10 - x4_12 - x10_12 >= -2
tri1_4_10_13: t4_10_13 - x4_10 <= 0
tri2_4_10_13: t4_10_13 - x4_13 <= 0
tri3_4_10_13: t4_10_13 - x10_13 <= 0
tri4_4_10_13: t4_10_13 - x4_10 - x4_13 - x10_13 >= -2
tri1_4_10_14: t4_10_14 - x4_10 <= 0
tri2_4_10_14: t4_10_14 - x4_14 <= 0
tri3_4_10_14: t4_10_14 - x10_14 <= 0
tri4_4_10_14: t4_10_14 - x4_10 - x4_14 - x10_14 >= -2
tri1_4_10_15: t4_10_15 - x4_10 <= 0
tri2_4_10_15: t4_10_15 - x4_15 <= 0
tri3_4_10_15: t4_10_15 - x10_15 <= 0
tri4_4_10_15: t4_10_15 - x4_10 - x4_15 - x10_15 >= -2
tri1_4_10_16: t4_10_16 - x4_10 <= 0
tri2_4_10_16: t4_10_16 - x4_16 <= 0
tri3_4_10_16: t4_10_16 - x10_16 <= 0
tri4_4_10_16: t4_10_16 - x4_10 - x4_16 - x10_16 >= -2
tri1_4_10_17: t4_10_17 - x4_10 <= 0
tri2_4_10_17: t4_10_17 - x4_17 <= 0
tri3_4_10_17: t4_10_17 - x10_17 <= 0
tri4_4_10_17: t4_10_17 - x4_10 - x4_17 - x10_17 >= -2
tri1_4_10_18: t4_10_18 - x4_10 <= 0
tri2_4_10_18: t4_10_18 - x4_18 <= 0
tri3_4_10_18: t4_10_18 - x10_18 <= 0
tri4_4_10_18: t4_10_18 - x4_10 - x4_18 - x10_18 >= -2
tri1_4_10_19: t4_10_19 - x4_10 <= 0
tri2_4_10_19: t4_10_19 - x4_19 <= 0
tri3_4_10_19: t4_10_19 - x10_19 <= 0
tri4_4_10_19: t4_10_19 - x4_10 - x4_19 - x10_19 >= -2
tri1_4_10_20: t4_10_20 - x4_10 <= 0
tri2_4_10_20: t4_10_20 - x4_20 <= 0
tri3_4_10_20: t4_10_20 - x10_20 <= 0
tri4_4_10_20: t4_10_20 - x4_10 - x4_20 - x10_20 >= -2
tri1_4_10_21: t4_10_21 - x4_10 <= 0
tri2_4_10_21: t4_10_21 - x4_21 <= 0
tri3_4_10_21: t4_10_21 - x10_21 <= 0
tri4_4_10_21: t4_10_21 - x4_10 - x4_21 - x10_21 >= -2
tri1_4_11_12: t4_11_12 - x4_11 <= 0
tri2_4_11_12: t4_11_12 - x4_12 <= 0
tri3_4_11_12: t4_11_12 - x11_12 <= 0
tri4_4_11_12: t4_11_12 - x4_11 - x4_12 - x11_12 >= -2
tri1_4_11_13: t4_11_13 - x4_11 <= 0
tri2_4_11_13: t4_11_13 - x4_13 <= 0
tri3_4_11_13: t4_11_13 - x11_13 <= 0
tri4_4_11_13: t4_11_13 - x4_11 - x4_13 - x11_13 >= -2
tri1_4_11_14: t4_11_14 - x4_11 <= 0
tri2_4_11_14: t4_11_14 - x4_14 <= 0
tri3_4_11_14: t4_11_14 - x11_14 <= 0
tri4_4_11_14: t4_11_14 - x4_11 - x4_14 - x11_14 >= -2
tri1_4_11_15: t4_11_15 - x4_11 <= 0
tri2_4_11_15: t4_11_15 - x4_15 <= 0
tri3_4_11_15: t4_11_15 - x11_15 <= 0
tri4_4_11_15: t4_11_15 - x4_11 - x4_15 - x11_15 >= -2
tri1_4_11_16: t4_11_16 - x4_11 <= 0
tri2_4_11_16: t4_11_16 - x4_16 <= 0
tri3_4_11_16: t4_11_16 - x11_16 <= 0
tri4_4_11_16: t4_11_16 - x4_11 - x4_16 - x11_16 >= -2
tri1_4_11_17: t4_11_17 - x4_11 <= 0
tri2_4_11_17: t4_11_17 - x4_17 <= 0
tri3_4_11_17: t4_11_17 - x11_17 <= 0
tri4_4_11_17: t4_11_17 - x4_11 - x4_17 - x11_17 >= -2
tri1_4_11_18: t4_11_18 - x4_11 <= 0
tri2_4_11_18: t4_11_18 - x4_18 <= 0
tri3_4_11_18: t4_11_18 - x11_18 <= 0
tri4_4_11_18: t4_11_18 - x4_11 - x4_18 - x11_18 >= -2
tri1_4_11_19: t4_11_19 - x4_11 <= 0
tri2_4_11_19: t4_11_19 - x4_19 <= 0
tri3_4_11_19: t4_11_19 - x11_19 <= 0
tri4_4_11_19: t4_11_19 - x4_11 - x4_19 - x11_19 >= -2
tri1_4_11_20: t4_11_20 - x4_11 <= 0
tri2_4_11_20: t4_11_20 - x4_20 <= 0
tri3_4_11_20: t4_11_20 - x11_20 <= 0
tri4_4_11_20: t4_11_20 - x4_11 - x4_20 - x11_20 >= -2
tri1_4_11_21: t4_11_21 - x4_11 <= 0
tri2_4_11_21: t4_11_21 - x4_21 <= 0
tri3_4_11_21: t4_11_21 - x11_21 <= 0
tri4_4_11_21: t4_11_21 - x4_11 - x4_21 - x11_21 >= -2
tri1_4_12_13: t4_12_13 - x4_12 <= 0
tri2_4_12_13: t4_12_13 - x4_13 <= 0
tri3_4_12_13: t4_12_13 - x12_13 <= 0
tri4_4_12_13: t4_12_13 - x4_12 - x4_13 - x12_13 >= -2
tri1_4_12_14: t4_12_14 - x4_12 <= 0
tri2_4_12_14: t4_12_14 - x4_14 <= 0
tri3_4_12_14: t4_12_14 - x12_14 <= 0
tri4_4_12_14: t4_12_14 - x4_12 - x4_14 - x12_14 >= -2
tri1_4_12_15: t4_12_15 - x4_12 <= 0
tri2_4_12_15: t4_12_15 - x4_15 <= 0
tri3_4_12_15: t4_12_15 - x12_15 <= 0
tri4_4_12_15: t4_12_15 - x4_12 - x4_15 - x12_15 >= -2
tri1_4_12_16: t4_12_16 - x4_12 <= 0
tri2_4_12_16: t4_12_16 - x4_16 <= 0
tri3_4_12_16: t4_12_16 - x12_16 <= 0
tri4_4_12_16: t4_12_16 - x4_12 - x4_16 - x12_16 >= -2
tri1_4_12_17: t4_12_17 - x4_12 <= 0
tri2_4_12_17: t4_12_17 - x4_17 <= 0
tri3_4_12_17: t4_12_17 - x12_17 <= 0
tri4_4_12_17: t4_12_17 - x4_12 - x4_17 - x12_17 >= -2
tri1_4_12_18: t4_12_18 - x4_12 <= 0
tri2_4_12_18: t4_12_18 - x4_18 <= 0
tri3_4_12_18: t4_12_18 - x12_18 <= 0
tri4_4_12_18: t4_12_18 - x4_12 - x4_18 - x12_18 >= -2
tri1_4_12_19: t4_12_19 - x4_12 <= 0
tri2_4_12_19: t4_12_19 - x4_19 <= 0
tri3_4_12_19: t4_12_19 - x12_19 <= 0
tri4_4_12_19: t4_12_19 - x4_12 - x4_19 - x12_19 >= -2
tri1_4_12_20: t4_12_20 - x4_12 <= 0
tri2_4_12_20: t4_12_20 - x4_20 <= 0
tri3_4_12_20: t4_12_20 - x12_20 <= 0
tri4_4_12_20: t4_12_20 - x4_12 - x4_20 - x12_20 >= -2
tri1_4_12_21: t4_12_21 - x4_12 <= 0
tri2_4_12_21: t4_12_21 - x4_21 <= 0
tri3_4_12_21: t4_12_21 - x12_21 <= 0
tri4_4_12_21: t4_12_21 - x4_12 - x4_21 - x12_21 >= -2
tri1_4_13_14: t4_13_14 - x4_13 <= 0
tri2_4_13_14: t4_13_14 - x4_14 <= 0
tri3_4_13_14: t4_13_14 - x13_14 <= 0
tri4_4_13_14: t4_13_14 - x4_13 - x4_14 - x13_14 >= -2
tri1_4_13_15: t4_13_15 - x4_13 <= 0
tri2_4_13_15: t4_13_15 - x4_15 <= 0
tri3_4_13_15: t4_13_15 - x13_15 <= 0
tri4_4_13_15: t4_13_15 - x4_13 - x4_15 - x13_15 >= -2
tri1_4_13_16: t4_13_16 - x4_13 <= 0
tri2_4_13_16: t4_13_16 - x4_16 <= 0
tri3_4_13_16: t4_13_16 - x13_16 <= 0
tri4_4_13_16: t4_13_16 - x4_13 - x4_16 - x13_16 >= -2
tri1_4_13_17: t4_13_17 - x4_13 <= 0
tri2_4_13_17: t4_13_17 - x4_17 <= 0
tri3_4_13_17: t4_13_17 - x13_17 <= 0
tri4_4_13_17: t4_13_17 - x4_13 - x4_17 - x13_17 >= -2
tri1_4_13_18: t4_13_18 - x4_13 <= 0
tri2_4_13_18: t4_13_18 - x4_18 <= 0
tri3_4_13_18: t4_13_18 - x13_18 <= 0
tri4_4_13_18: t4_13_18 - x4_13 - x4_18 - x13_18 >= -2
tri1_4_13_19: t4_13_19 - x4_13 <= 0
tri2_4_13_19: t4_13_19 - x4_19 <= 0
tri3_4_13_19: t4_13_19 - x13_19 <= 0
tri4_4_13_19: t4_13_19 - x4_13 - x4_19 - x13_19 >= -2
tri1_4_13_20: t4_13_20 - x4_13 <= 0
tri2_4_13_20: t4_13_20 - x4_20 <= 0
tri3_4_13_20: t4_13_20 - x13_20 <= 0
tri4_4_13_20: t4_13_20 - x4_13 - x4_20 - x13_20 >= -2
tri1_4_13_21: t4_13_21 - x4_13 <= 0
tri2_4_13_21: t4_13_21 - x4_21 <= 0
tri3_4_13_21: t4_13_21 - x13_21 <= 0
tri4_4_13_21: t4_13_21 - x4_13 - x4_21 - x13_21 >= -2
tri1_4_14_15: t4_14_15 - x4_14 <= 0
tri2_4_14_15: t4_14_15 - x4_15 <= 0
tri3_4_14_15: t4_14_15 - x14_15 <= 0
tri4_4_14_15: t4_14_15 - x4_14 - x4_15 - x14_15 >= -2
tri1_4_14_16: t4_14_16 - x4_14 <= 0
tri2_4_14_16: t4_14_16 - x4_16 <= 0
tri3_4_14_16: t4_14_16 - x14_16 <= 0
tri4_4_14_16: t4_14_16 - x4_14 - x4_16 - x14_16 >= -2
tri1_4_14_17: t4_14_17 - x4_14 <= 0
tri2_4_14_17: t4_14_17 - x4_17 <= 0
tri3_4_14_17: t4_14_17 - x14_17 <= 0
tri4_4_14_17: t4_14_17 - x4_14 - x4_17 - x14_17 >= -2
tri1_4_14_18: t4_14_18 - x4_14 <= 0
tri2_4_14_18: t4_14_18 - x4_18 <= 0
tri3_4_14_18: t4_14_18 - x14_18 <= 0
tri4_4_14_18: t4_14_18 - x4_14 - x4_18 - x14_18 >= -2
tri1_4_14_19: t4_14_19 - x4_14 <= 0
tri2_4_14_19: t4_14_19 - x4_19 <= 0
tri3_4_14_19: t4_14_19 - x14_19 <= 0
tri4_4_14_19: t4_14_19 - x4_14 - x4_19 - x14_19 >= -2
tri1_4_14_20: t4_14_20 - x4_14 <= 0
tri2_4_14_20: t4_14_20 - x4_20 <= 0
tri3_4_14_20: t4_14_20 - x14_20 <= 0
tri4_4_14_20: t4_14_20 - x4_14 - x4_20 - x14_20 >= -2
tri1_4_14_21: t4_14_21 - x4_14 <= 0
tri2_4_14_21: t4_14_21 - x4_21 <= 0
tri3_4_14_21: t4_14_21 - x14_21 <= 0
tri4_4_14_21: t4_14_21 - x4_14 - x4_21 - x14_21 >= -2
tri1_4_15_16: t4_15_16 - x4_15 <= 0
tri2_4_15_16: t4_15_16 - x4_16 <= 0
tri3_4_15_16: t4_15_16 - x15_16 <= 0
tri4_4_15_16: t4_15_16 - x4_15 - x4_16 - x15_16 >= -2
tri1_4_15_17: t4_15_17 - x4_15 <= 0
tri2_4_15_17: t4_15_17 - x4_17 <= 0
tri3_4_15_17: t4_15_17 - x15_17 <= 0
tri4_4_15_17: t4_15_17 - x4_15 - x4_17 - x15_17 >= -2
tri1_4_15_18: t4_15_18 - x4_15 <= 0
tri2_4_15_18: t4_15_18 - x4_18 <= 0
tri3_4_15_18: t4_15_18 - x15_18 <= 0
tri4_4_15_18: t4_15_18 - x4_15 - x4_18 - x15_18 >= -2
tri1_4_15_19: t4_15_19 - x4_15 <= 0
tri2_4_15_19: t4_15_19 - x4_19 <= 0
tri3_4_15_19: t4_15_19 - x15_19 <= 0
tri4_4_15_19: t4_15_19 - x4_15 - x4_19 - x15_19 >= -2
tri1_4_15_20: t4_15_20 - x4_15 <= 0
tri2_4_15_20: t4_15_20 - x4_20 <= 0
tri3_4_15_20: t4_15_20 - x15_20 <= 0
tri4_4_15_20: t4_15_20 - x4_15 - x4_20 - x15_20 >= -2
tri1_4_15_21: t4_15_21 - x4_15 <= 0
tri2_4_15_21: t4_15_21 - x4_21 <= 0
tri3_4_15_21: t4_15_21 - x15_21 <= 0
tri4_4_15_21: t4_15_21 - x4_15 - x4_21 - x15_21 >= -2
tri1_4_16_17: t4_16_17 - x4_16 <= 0
tri2_4_16_17: t4_16_17 - x4_17 <= 0
tri3_4_16_17: t4_16_17 - x16_17 <= 0
tri4_4_16_17: t4_16_17 - x4_16 - x4_17 - x16_17 >= -2
tri1_4_16_18: t4_16_18 - x4_16 <= 0
tri2_4_16_18: t4_16_18 - x4_18 <= 0
tri3_4_16_18: t4_16_18 - x16_18 <= 0
tri4_4_16_18: t4_16_18 - x4_16 - x4_18 - x16_18 >= -2
tri1_4_16_19: t4_16_19 - x4_16 <= 0
tri2_4_16_19: t4_16_19 - x4_19 <= 0
tri3_4_16_19: t4_16_19 - x16_19 <= 0
tri4_4_16_19: t4_16_19 - x4_16 - x4_19 - x16_19 >= -2
tri1_4_16_20: t4_16_20 - x4_16 <= 0
tri2_4_16_20: t4_16_20 - x4_20 <= 0
tri3_4_16_20: t4_16_20 - x16_20 <= 0
tri4_4_16_20: t4_16_20 - x4_16 - x4_20 - x16_20 >= -2
tri1_4_16_21: t4_16_21 - x4_16 <= 0
tri2_4_16_21: t4_16_21 - x4_21 <= 0
tri3_4_16_21: t4_16_21 - x16_21 <= 0
tri4_4_16_21: t4_16_21 - x4_16 - x4_21 - x16_21 >= -2
tri1_4_17_18: t4_17_18 - x4_17 <= 0
tri2_4_17_18: t4_17_18 - x4_18 <= 0
tri3_4_17_18: t4_17_18 - x17_18 <= 0
tri4_4_17_18: t4_17_18 - x4_17 - x4_18 - x17_18 >= -2
tri1_4_17_19: t4_17_19 - x4_17 <= 0
tri2_4_17_19: t4_17_19 - x4_19 <= 0
tri3_4_17_19: t4_17_19 - x17_19 <= 0
tri4_4_17_19: t4_17_19 - x4_17 - x4_19 - x17_19 >= -2
tri1_4_17_20: t4_17_20 - x4_17 <= 0
tri2_4_17_20: t4_17_20 - x4_20 <= 0
tri3_4_17_20: t4_17_20 - x17_20 <= 0
tri4_4_17_20: t4_17_20 - x4_17 - x4_20 - x17_20 >= -2
tri1_4_17_21: t4_17_21 - x4_17 <= 0
tri2_4_17_21: t4_17_21 - x4_21 <= 0
tri3_4_17_21: t4_17_21 - x17_21 <= 0
tri4_4_17_21: t4_17_21 - x4_17 - x4_21 - x17_21 >= -2
tri1_4_18_19: t4_18_19 - x4_18 <= 0
tri2_4_18_19: t4_18_19 - x4_19 <= 0
tri3_4_18_19: t4_18_19 - x18_19 <= 0
tri4_4_18_19: t4_18_19 - x4_18 - x4_19 - x18_19 >= -2
tri1_4_18_20: t4_18_20 - x4_18 <= 0
tri2_4_18_20: t4_18_20 - x4_20 <= 0
tri3_4_18_20: t4_18_20 - x18_20 <= 0
tri4_4_18_20: t4_18_20 - x4_18 - x4_20 - x18_20 >= -2
tri1_4_18_21: t4_18_21 - x4_18 <= 0
tri2_4_18_21: t4_18_21 - x4_21 <= 0
tri3_4_18_21: t4_18_21 - x18_21 <= 0
tri4_4_18_21: t4_18_21 - x4_18 - x4_21 - x18_21 >= -2
tri1_4_19_20: t4_19_20 - x4_19 <= 0
tri2_4_19_20: t4_19_20 - x4_20 <= 0
tri3_4_19_20: t4_19_20 - x19_20 <= 0
tri4_4_19_20: t4_19_20 - x4_19 - x4_20 - x19_20 >= -2
tri1_4_19_21: t4_19_21 - x4_19 <= 0
tri2_4_19_21: t4_19_21 - x4_21 <= 0
tri3_4_19_21: t4_19_21 - x19_21 <= 0
tri4_4_19_21: t4_19_21 - x4_19 - x4_21 - x19_21 >= -2
tri1_4_20_21: t4_20_21 - x4_20 <= 0
tri2_4_20_21: t4_20_21 - x4_21 <= 0
tri3_4_20_21: t4_20_21 - x20_21 <= 0
tri4_4_20_21: t4_20_21 - x4_20 - x4_21 - x20_21 >= -2
tri1_5_6_7: t5_6_7 - x5_6 <= 0
tri2_5_6_7: t5_6_7 - x5_7 <= 0
tri3_5_6_7: t5_6_7 - x6_7 <= 0
tri4_5_6_7: t5_6_7 - x5_6 - x5_7 - x6_7 >= -2
tri1_5_6_8: t5_6_8 - x5_6 <= 0
tri2_5_6_8: t5_6_8 - x5_8 <= 0
tri3_5_6_8: t5_6_8 - x6_8 <= 0
tri4_5_6_8: t5_6_8 - x5_6 - x5_8 - x6_8 >= -2
tri1_5_6_9: t5_6_9 - x5_6 <= 0
tri2_5_6_9: t5_6_9 - x5_9 <= 0
tri3_5_6_9: t5_6_9 - x6_9 <= 0
tri4_5_6_9: t5_6_9 - x5_6 - x5_9 - x6_9 >= -2
tri1_5_6_10: t5_6_10 - x5_6 <= 0
tri2_5_6_10: t5_6_10 - x5_10 <= 0
tri3_5_6_10: t5_6_10 - x6_10 <= 0
tri4_5_6_10: t5_6_10 - x5_6 - x5_10 - x6_10 >= -2
tri1_5_6_11: t5_6_11 - x5_6 <= 0
tri2_5_6_11: t5_6_11 - x5_11 <= 0
tri3_5_6_11: t5_6_11 - x6_11 <= 0
tri4_5_6_11: t5_6_11 - x5_6 - x5_11 - x6_11 >= -2
tri1_5_6_12: t5_6_12 - x5_6 <= 0
tri2_5_6_12: t5_6_12 - x5_12 <= 0
tri3_5_6_12: t5_6_12 - x6_12 <= 0
tri4_5_6_12: t5_6_12 - x5_6 - x5_12 - x6_12 >= -2
tri1_5_6_13: t5_6_13 - x5_6 <= 0
tri2_5_6_13: t5_6_13 - x5_13 <= 0
tri3_5_6_13: t5_6_13 - x6_13 <= 0
tri4_5_6_13: t5_6_13 - x5_6 - x5_13 - x6_13 >= -2
tri1_5_6_14: t5_6_14 - x5_6 <= 0
tri2_5_6_14: t5_6_14 - x5_14 <= 0
tri3_5_6_14: t5_6_14 - x6_14 <= 0
tri4_5_6_14: t5_6_14 - x5_6 - x5_14 - x6_14 >= -2
tri1_5_6_15: t5_6_15 - x5_6 <= 0
tri2_5_6_15: t5_6_15 - x5_15 <= 0
tri3_5_6_15: t5_6_15 - x6_15 <= 0
tri4_5_6_15: t5_6_15 - x5_6 - x5_15 - x6_15 >= -2
tri1_5_6_16: t5_6_16 - x5_6 <= 0
tri2_5_6_16: t5_6_16 - x5_16 <= 0
tri3_5_6_16: t5_6_16 - x6_16 <= 0
tri4_5_6_16: t5_6_16 - x5_6 - x5_16 - x6_16 >= -2
tri1_5_6_17: t5_6_17 - x5_6 <= 0
tri2_5_6_17: t5_6_17 - x5_17 <= 0
tri3_5_6_17: t5_6_17 - x6_17 <= 0
tri4_5_6_17: t5_6_17 - x5_6 - x5_17 - x6_17 >= -2
tri1_5_6_18: t5_6_18 - x5_6 <= 0
tri2_5_6_18: t5_6_18 - x5_18 <= 0
tri3_5_6_18: t5_6_18 - x6_18 <= 0
tri4_5_6_18: t5_6_18 - x5_6 - x5_18 - x6_18 >= -2
tri1_5_6_19: t5_6_19 - x5_6 <= 0
tri2_5_6_19: t5_6_19 - x5_19 <= 0
tri3_5_6_19: t5_6_19 - x6_19 <= 0
tri4_5_6_19: t5_6_19 - x5_6 - x5_19 - x6_19 >= -2
tri1_5_6_20: t5_6_20 - x5_6 <= 0
tri2_5_6_20: t5_6_20 - x5_20 <= 0
tri3_5_6_20: t5_6_20 - x6_20 <= 0
tri4_5_6_20: t5_6_20 - x5_6 - x5_20 - x6_20 >= -2
tri1_5_6_21: t5_6_21 - x5_6 <= 0
tri2_5_6_21: t5_6_21 - x5_21 <= 0
tri3_5_6_21: t5_6_21 - x6_21 <= 0
tri4_5_6_21: t5_6_21 - x5_6 - x5_21 - x6_21 >= -2
tri1_5_7_8: t5_7_8 - x5_7 <= 0
tri2_5_7_8: t5_7_8 - x5_8 <= 0
tri3_5_7_8: t5_7_8 - x7_8 <= 0
tri4_5_7_8: t5_7_8 - x5_7 - x5_8 - x7_8 >= -2
tri1_5_7_9: t5_7_9 - x5_7 <= 0
tri2_5_7_9: t5_7_9 - x5_9 <= 0
tri3_5_7_9: t5_7_9 - x7_9 <= 0
tri4_5_7_9: t5_7_9 - x5_7 - x5_9 - x7_9 >= -2
tri1_5_7_10: t5_7_10 - x5_7 <= 0
tri2_5_7_10: t5_7_10 - x5_10 <= 0
tri3_5_7_10: t5_7_10 - x7_10 <= 0
tri4_5_7_10: t5_7_10 - x5_7 - x5_10 - x7_10 >= -2
tri1_5_7_11: t5_7_11 - x5_7 <= 0
tri2_5_7_11: t5_7_11 - x5_11 <= 0
tri3_5_7_11: t5_7_11 - x7_11 <= 0
tri4_5_7_11: t5_7_11 - x5_7 - x5_11 - x7_11 >= -2
tri1_5_7_12: t5_7_12 - x5_7 <= 0
tri2_5_7_12: t5_7_12 - x5_12 <= 0
tri3_5_7_12: t5_7_12 - x7_12 <= 0
tri4_5_7_12: t5_7_12 - x5_7 - x5_12 - x7_12 >= -2
tri1_5_7_13: t5_7_13 - x5_7 <= 0
tri2_5_7_13: t5_7_13 - x5_13 <= 0
tri3_5_7_13: t5_7_13 - x7_13 <= 0
tri4_5_7_13: t5_7_13 - x5_7 - x5_13 - x7_13 >= -2
tri1_5_7_14: t5_7_14 - x5_7 <= 0
tri2_5_7_14: t5_7_14 - x5_14 <= 0
tri3_5_7_14: t5_7_14 - x7_14 <= 0
tri4_5_7_14: t5_7_14 - x5_7 - x5_14 - x7_14 >= -2
tri1_5_7_15: t5_7_15 - x5_7 <= 0
tri2_5_7_15: t5_7_15 - x5_15 <= 0
tri3_5_7_15: t5_7_15 - x7_15 <= 0
tri4_5_7_15: t5_7_15 - x5_7 - x5_15 - x7_15 >= -2
tri1_5_7_16: t5_7_16 - x5_7 <= 0
tri2_5_7_16: t5_7_16 - x5_16 <= 0
tri3_5_7_16: t5_7_16 - x7_16 <= 0
tri4_5_7_16: t5_7_16 - x5_7 - x5_16 - x7_16 >= -2
tri1_5_7_17: t5_7_17 - x5_7 <= 0
tri2_5_7_17: t5_7_17 - x5_17 <= 0
tri3_5_7_17: t5_7_17 - x7_17 <= 0
tri4_5_7_17: t5_7_17 - x5_7 - x5_17 - x7_17 >= -2
tri1_5_7_18: t5_7_18 - x5_7 <= 0
tri2_5_7_18: t5_7_18 - x5_18 <= 0
tri3_5_7_18: t5_7_18 - x7_18 <= 0
tri4_5_7_18: t5_7_18 - x5_7 - x5_18 - x7_18 >= -2
tri1_5_7_19: t5_7_19 - x5_7 <= 0
tri2_5_7_19: t5_7_19 - x5_19 <= 0
tri3_5_7_19: t5_7_19 - x7_19 <= 0
tri4_5_7_19: t5_7_19 - x5_7 - x5_19 - x7_19 >= -2
tri1_5_7_20: t5_7_20 - x5_7 <= 0
tri2_5_7_20: t5_7_20 - x5_20 <= 0
tri3_5_7_20: t5_7_20 - x7_20 <= 0
tri4_5_7_20: t5_7_20 - x5_7 - x5_20 - x7_20 >= -2
tri1_5_7_21: t5_7_21 - x5_7 <= 0
tri2_5_7_21: t5_7_21 - x5_21 <= 0
tri3_5_7_21: t5_7_21 - x7_21 <= 0
tri4_5_7_21: t5_7_21 - x5_7 - x5_21 - x7_21 >= -2
tri1_5_8_9: t5_8_9 - x5_8 <= 0
tri2_5_8_9: t5_8_9 - x5_9 <= 0
tri3_5_8_9: t5_8_9 - x8_9 <= 0
tri4_5_8_9: t5_8_9 - x5_8 - x5_9 - x8_9 >= -2
tri1_5_8_10: t5_8_10 - x5_8 <= 0
tri2_5_8_10: t5_8_10 - x5_10 <= 0
tri3_5_8_10: t5_8_10 - x8_10 <= 0
tri4_5_8_10: t5_8_10 - x5_8 - x5_10 - x8_10 >= -2
tri1_5_8_11: t5_8_11 - x5_8 <= 0
tri2_5_8_11: t5_8_11 - x5_11 <= 0
tri3_5_8_11: t5_8_11 - x8_11 <= 0
tri4_5_8_11: t5_8_11 - x5_8 - x5_11 - x8_11 >= -2
tri1_5_8_12: t5_8_12 - x5_8 <= 0
tri2_5_8_12: t5_8_12 - x5_12 <= 0
tri3_5_8_12: t5_8_12 - x8_12 <= 0
tri4_5_8_12: t5_8_12 - x5_8 - x5_12 - x8_12 >= -2
tri1_5_8_13: t5_8_13 - x5_8 <= 0
tri2_5_8_13: t5_8_13 - x5_13 <= 0
tri3_5_8_13: t5_8_13 - x8_13 <= 0
tri4_5_8_13: t5_8_13 - x5_8 - x5_13 - x8_13 >= -2
tri1_5_8_14: t5_8_14 - x5_8 <= 0
tri2_5_8_14: t5_8_14 - x5_14 <= 0
tri3_5_8_14: t5_8_14 - x8_14 <= 0
tri4_5_8_14: t5_8_14 - x5_8 - x5_14 - x8_14 >= -2
tri1_5_8_15: t5_8_15 - x5_8 <= 0
tri2_5_8_15: t5_8_15 - x5_15 <= 0
tri3_5_8_15: t5_8_15 - x8_15 <= 0
tri4_5_8_15: t5_8_15 - x5_8 - x5_15 - x8_15 >= -2
tri1_5_8_16: t5_8_16 - x5_8 <= 0
tri2_5_8_16: t5_8_16 - x5_16 <= 0
tri3_5_8_16: t5_8_16 - x8_16 <= 0
tri4_5_8_16: t5_8_16 - x5_8 - x5_16 - x8_16 >= -2
tri1_5_8_17: t5_8_17 - x5_8 <= 0
tri2_5_8_17: t5_8_17 - x5_17 <= 0
tri3_5_8_17: t5_8_17 - x8_17 <= 0
tri4_5_8_17: t5_8_17 - x5_8 - x5_17 - x8_17 >= -2
tri1_5_8_18: t5_8_18 - x5_8 <= 0
tri2_5_8_18: t5_8_18 - x5_18 <= 0
tri3_5_8_18: t5_8_18 - x8_18 <= 0
tri4_5_8_18: t5_8_18 - x5_8 - x5_18 - x8_18 >= -2
tri1_5_8_19: t5_8_19 - x5_8 <= 0
tri2_5_8_19: t5_8_19 - x5_19 <= 0
tri3_5_8_19: t5_8_19 - x8_19 <= 0
tri4_5_8_19: t5_8_19 - x5_8 - x5_19 - x8_19 >= -2
tri1_5_8_20: t5_8_20 - x5_8 <= 0
tri2_5_8_20: t5_8_20 - x5_20 <= 0
tri3_5_8_20: t5_8_20 - x8_20 <= 0
tri4_5_8_20: t5_8_20 - x5_8 - x5_20 - x8_20 >= -2
tri1_5_8_21: t5_8_21 - x5_8 <= 0
tri2_5_8_21: t5_8_21 - x5_21 <= 0
tri3_5_8_21: t5_8_21 - x8_21 <= 0
tri4_5_8_21: t5_8_21 - x5_8 - x5_21 - x8_21 >= -2
tri1_5_9_10: t5_9_10 - x5_9 <= 0
tri2_5_9_10: t5_9_10 - x5_10 <= 0
tri3_5_9_10: t5_9_10 - x9_10 <= 0
tri4_5_9_10: t5_9_10 - x5_9 - x5_10 - x9_10 >= -2
tri1_5_9_11: t5_9_11 - x5_9 <= 0
tri2_5_9_11: t5_9_11 - x5_11 <= 0
tri3_5_9_11: t5_9_11 - x9_11 <= 0
tri4_5_9_11: t5_9_11 - x5_9 - x5_11 - x9_11 >= -2
tri1_5_9_12: t5_9_12 - x5_9 <= 0
tri2_5_9_12: t5_9_12 - x5_12 <= 0
tri3_5_9_12: t5_9_12 - x9_12 <= 0
tri4_5_9_12: t5_9_12 - x5_9 - x5_12 - x9_12 >= -2
tri1_5_9_13: t5_9_13 - x5_9 <= 0
tri2_5_9_13: t5_9_13 - x5_13 <= 0
tri3_5_9_13: t5_9_13 - x9_13 <= 0
tri4_5_9_13: t5_9_13 - x5_9 - x5_13 - x9_13 >= -2
tri1_5_9_14: t5_9_14 - x5_9 <= 0
tri2_5_9_14: t5_9_14 - x5_14 <= 0
tri3_5_9_14: t5_9_14 - x9_14 <= 0
tri4_5_9_14: t5_9_14 - x5_9 - x5_14 - x9_14 >= -2
tri1_5_9_15: t5_9_15 - x5_9 <= 0
tri2_5_9_15: t5_9_15 - x5_15 <= 0
tri3_5_9_15: t5_9_15 - x9_15 <= 0
tri4_5_9_15: t5_9_15 - x5_9 - x5_15 - x9_15 >= -2
tri1_5_9_16: t5_9_16 - x5_9 <= 0
tri2_5_9_16: t5_9_16 - x5_16 <= 0
tri3_5_9_16: t5_9_16 - x9_16 <= 0
tri4_5_9_16: t5_9_16 - x5_9 - x5_16 - x9_16 >= -2
tri1_5_9_17: t5_9_17 - x5_9 <= 0
tri2_5_9_17: t5_9_17 - x5_17 <= 0
tri3_5_9_17: t5_9_17 - x9_17 <= 0
tri4_5_9_17: t5_9_17 - x5_9 - x5_17 - x9_17 >= -2
tri1_5_9_18: t5_9_18 - x5_9 <= 0
tri2_5_9_18: t5_9_18 - x5_18 <= 0
tri3_5_9_18: t5_9_18 - x9_18 <= 0
tri4_5_9_18: t5_9_18 - x5_9 - x5_18 - x9_18 >= -2
tri1_5_9_19: t5_9_19 - x5_9 <= 0
tri2_5_9_19: t5_9_19 - x5_19 <= 0
tri3_5_9_19: t5_9_19 - x9_19 <= 0
tri4_5_9_19: t5_9_19 - x5_9 - x5_19 - x9_19 >= -2
tri1_5_9_20: t5_9_20 - x5_9 <= 0
tri2_5_9_20: t5_9_20 - x5_20 <= 0
tri3_5_9_20: t5_9_20 - x9_20 <= 0
tri4_5_9_20: t5_9_20 - x5_9 - x5_20 - x9_20 >= -2
tri1_5_9_21: t5_9_21 - x5_9 <= 0
tri2_5_9_21: t5_9_21 - x5_21 <= 0
tri3_5_9_21: t5_9_21 - x9_21 <= 0
tri4_5_9_21: t5_9_21 - x5_9 - x5_21 - x9_21 >= -2
tri1_5_10_11: t5_10_11 - x5_10 <= 0
tri2_5_10_11: t5_10_11 - x5_11 <= 0
tri3_5_10_11: t5_10_11 - x10_11 <= 0
tri4_5_10_11: t5_10_11 - x5_10 - x5_11 - x10_11 >= -2
tri1_5_10_12: t5_10_12 - x5_10 <= 0
tri2_5_10_12: t5_10_12 - x5_12 <= 0
tri3_5_10_12: t5_10_12 - x10_12 <= 0
tri4_5_10_12: t5_10_12 - x5_10 - x5_12 - x10_12 >= -2
tri1_5_10_13: t5_10_13 - x5_10 <= 0
tri2_5_10_13: t5_10_13 - x5_13 <= 0
tri3_5_10_13: t5_10_13 - x10_13 <= 0
tri4_5_10_13: t5_10_13 - x5_10 - x5_13 - x10_13 >= -2
tri1_5_10_14: t5_10_14 - x5_10 <= 0
tri2_5_10_14: t5_10_14 - x5_14 <= 0
tri3_5_10_14: t5_10_14 - x10_14 <= 0
tri4_5_10_14: t5_10_14 - x5_10 - x5_14 - x10_14 >= -2
tri1_5_10_15: t5_10_15 - x5_10 <= 0
tri2_5_10_15: t5_10_15 - x5_15 <= 0
tri3_5_10_15: t5_10_15 - x10_15 <= 0
tri4_5_10_15: t5_10_15 - x5_10 - x5_15 - x10_15 >= -2
tri1_5_10_16: t5_10_16 - x5_10 <= 0
tri2_5_10_16: t5_10_16 - x5_16 <= 0
tri3_5_10_16: t5_10_16 - x10_16 <= 0
tri4_5_10_16: t5_10_16 - x5_10 - x5_16 - x10_16 >= -2
tri1_5_10_17: t5_10_17 - x5_10 <= 0
tri2_5_10_17: t5_10_17 - x5_17 <= 0
tri3_5_10_17: t5_10_17 - x10_17 <= 0
tri4_5_10_17: t5_10_17 - x5_10 - x5_17 - x10_17 >= -2
tri1_5_10_18: t5_10_18 - x5_10 <= 0
tri2_5_10_18: t5_10_18 - x5_18 <= 0
tri3_5_10_18: t5_10_18 - x10_18 <= 0
tri4_5_10_18: t5_10_18 - x5_10 - x5_18 - x10_18 >= -2
tri1_5_10_19: t5_10_19 - x5_10 <= 0
tri2_5_10_19: t5_10_19 - x5_19 <= 0
tri3_5_10_19: t5_10_19 - x10_19 <= 0
tri4_5_10_19: t5_10_19 - x5_10 - x5_19 - x10_19 >= -2
tri1_5_10_20: t5_10_20 - x5_10 <= 0
tri2_5_10_20: t5_10_20 - x5_20 <= 0
tri3_5_10_20: t5_10_20 - x10_20 <= 0
tri4_5_10_20: t5_10_20 - x5_10 - x5_20 - x10_20 >= -2
tri1_5_10_21: t5_10_21 - x5_10 <= 0
tri2_5_10_21: t5_10_21 - x5_21 <= 0
tri3_5_10_21: t5_10_21 - x10_21 <= 0
tri4_5_10_21: t5_10_21 - x5_10 - x5_21 - x10_21 >= -2
tri1_5_11_12: t5_11_12 - x5_11 <= 0
tri2_5_11_12: t5_11_12 - x5_12 <= 0
tri3_5_11_12: t5_11_12 - x11_12 <= 0
tri4_5_11_12: t5_11_12 - x5_11 - x5_12 - x11_12 >= -2
tri1_5_11_13: t5_11_13 - x5_11 <= 0
tri2_5_11_13: t5_11_13 - x5_13 <= 0
tri3_5_11_13: t5_11_13 - x11_13 <= 0
tri4_5_11_13: t5_11_13 - x5_11 - x5_13 - x11_13 >= -2
tri1_5_11_14: t5_11_14 - x5_11 <= 0
tri2_5_11_14: t5_11_14 - x5_14 <= 0
tri3_5_11_14: t5_11_14 - x11_14 <= 0
tri4_5_11_14: t5_11_14 - x5_11 - x5_14 - x11_14 >= -2
tri1_5_11_15: t5_11_15 - x5_11 <= 0
tri2_5_11_15: t5_11_15 - x5_15 <= 0
tri3_5_11_15: t5_11_15 - x11_15 <= 0
tri4_5_11_15: t5_11_15 - x5_11 - x5_15 - x11_15 >= -2
tri1_5_11_16: t5_11_16 - x5_11 <= 0
tri2_5_11_16: t5_11_16 - x5_16 <= 0
tri3_5_11_16: t5_11_16 - x11_16 <= 0
tri4_5_11_16: t5_11_16 - x5_11 - x5_16 - x11_16 >= -2
tri1_5_11_17: t5_11_17 - x5_11 <= 0
tri2_5_11_17: t5_11_17 - x5_17 <= 0
tri3_5_11_17: t5_11_17 - x11_17 <= 0
tri4_5_11_17: t5_11_17 - x5_11 - x5_17 - x11_17 >= -2
tri1_5_11_18: t5_11_18 - x5_11 <= 0
tri2_5_11_18: t5_11_18 - x5_18 <= 0
tri3_5_11_18: t5_11_18 - x11_18 <= 0
tri4_5_11_18: t5_11_18 - x5_11 - x5_18 - x11_18 >= -2
tri1_5_11_19: t5_11_19 - x5_11 <= 0
tri2_5_11_19: t5_11_19 - x5_19 <= 0
tri3_5_11_19: t5_11_19 - x11_19 <= 0
tri4_5_11_19: t5_11_19 - x5_11 - x5_19 - x11_19 >= -2
tri1_5_11_20: t5_11_20 - x5_11 <= 0
tri2_5_11_20: t5_11_20 - x5_20 <= 0
tri3_5_11_20: t5_11_20 - x11_20 <= 0
tri4_5_11_20: t5_11_20 - x5_11 - x5_20 - x11_20 >= -2
tri1_5_11_21: t5_11_21 - x5_11 <= 0
tri2_5_11_21: t5_11_21 - x5_21 <= 0
tri3_5_11_21: t5_11_21 - x11_21 <= 0
tri4_5_11_21: t5_11_21 - x5_11 - x5_21 - x11_21 >= -2
tri1_5_12_13: t5_12_13 - x5_12 <= 0
tri2_5_12_13: t5_12_13 - x5_13 <= 0
tri3_5_12_13: t5_12_13 - x12_13 <= 0
tri4_5_12_13: t5_12_13 - x5_12 - x5_13 - x12_13 >= -2
tri1_5_12_14: t5_12_14 - x5_12 <= 0
tri2_5_12_14: t5_12_14 - x5_14 <= 0
tri3_5_12_14: t5_12_14 - x12_14 <= 0
tri4_5_12_14: t5_12_14 - x5_12 - x5_14 - x12_14 >= -2
tri1_5_12_15: t5_12_15 - x5_12 <= 0
tri2_5_12_15: t5_12_15 - x5_15 <= 0
tri3_5_12_15: t5_12_15 - x12_15 <= 0
tri4_5_12_15: t5_12_15 - x5_12 - x5_15 - x12_15 >= -2
tri1_5_12_16: t5_12_16 - x5_12 <= 0
tri2_5_12_16: t5_12_16 - x5_16 <= 0
tri3_5_12_16: t5_12_16 - x12_16 <= 0
tri4_5_12_16: t5_12_16 - x5_12 - x5_16 - x12_16 >= -2
tri1_5_12_17: t5_12_17 - x5_12 <= 0
tri2_5_12_17: t5_12_17 - x5_17 <= 0
tri3_5_12_17: t5_12_17 - x12_17 <= 0
tri4_5_12_17: t5_12_17 - x5_12 - x5_17 - x12_17 >= -2
tri1_5_12_18: t5_12_18 - x5_12 <= 0
tri2_5_12_18: t5_12_18 - x5_18 <= 0
tri3_5_12_18: t5_12_18 - x12_18 <= 0
tri4_5_12_18: t5_12_18 - x5_12 - x5_18 - x12_18 >= -2
tri1_5_12_19: t5_12_19 - x5_12 <= 0
tri2_5_12_19: t5_12_19 - x5_19 <= 0
tri3_5_12_19: t5_12_19 - x12_19 <= 0
tri4_5_12_19: t5_12_19 - x5_12 - x5_19 - x12_19 >= -2
tri1_5_12_20: t5_12_20 - x5_12 <= 0
tri2_5_12_20: t5_12_20 - x5_20 <= 0
tri3_5_12_20: t5_12_20 - x12_20 <= 0
tri4_5_12_20: t5_12_20 - x5_12 - x5_20 - x12_20 >= -2
tri1_5_12_21: t5_12_21 - x5_12 <= 0
tri2_5_12_21: t5_12_21 - x5_21 <= 0
tri3_5_12_21: t5_12_21 - x12_21 <= 0
tri4_5_12_21: t5_12_21 - x5_12 - x5_21 - x12_21 >= -2
tri1_5_13_14: t5_13_14 - x5_13 <= 0
tri2_5_13_14: t5_13_14 - x5_14 <= 0
tri3_5_13_14: t5_13_14 - x13_14 <= 0
tri4_5_13_14: t5_13_14 - x5_13 - x5_14 - x13_14 >= -2
tri1_5_13_15: t5_13_15 - x5_13 <= 0
tri2_5_13_15: t5_13_15 - x5_15 <= 0
tri3_5_13_15: t5_13_15 - x13_15 <= 0
tri4_5_13_15: t5_13_15 - x5_13 - x5_15 - x13_15 >= -2
tri1_5_13_16: t5_13_16 - x5_13 <= 0
tri2_5_13_16: t5_13_16 - x5_16 <= 0
tri3_5_13_16: t5_13_16 - x13_16 <= 0
tri4_5_13_16: t5_13_16 - x5_13 - x5_16 - x13_16 >= -2
tri1_5_13_17: t5_13_17 - x5_13 <= 0
tri2_5_13_17: t5_13_17 - x5_17 <= 0
tri3_5_13_17: t5_13_17 - x13_17 <= 0
tri4_5_13_17: t5_13_17 - x5_13 - x5_17 - x13_17 >= -2
tri1_5_13_18: t5_13_18 - x5_13 <= 0
tri2_5_13_18: t5_13_18 - x5_18 <= 0
tri3_5_13_18: t5_13_18 - x13_18 <= 0
tri4_5_13_18: t5_13_18 - x5_13 - x5_18 - x13_18 >= -2
tri1_5_13_19: t5_13_19 - x5_13 <= 0
tri2_5_13_19: t5_13_19 - x5_19 <= 0
tri3_5_13_19: t5_13_19 - x13_19 <= 0
tri4_5_13_19: t5_13_19 - x5_13 - x5_19 - x13_19 >= -2
tri1_5_13_20: t5_13_20 - x5_13 <= 0
tri2_5_13_20: t5_13_20 - x5_20 <= 0
tri3_5_13_20: t5_13_20 - x13_20 <= 0
tri4_5_13_20: t5_13_20 - x5_13 - x5_20 - x13_20 >= -2
tri1_5_13_21: t5_13_21 - x5_13 <= 0
tri2_5_13_21: t5_13_21 - x5_21 <= 0
tri3_5_13_21: t5_13_21 - x13_21 <= 0
tri4_5_13_21: t5_13_21 - x5_13 - x5_21 - x13_21 >= -2
tri1_5_14_15: t5_14_15 - x5_14 <= 0
tri2_5_14_15: t5_14_15 - x5_15 <= 0
tri3_5_14_15: t5_14_15 - x14_15 <= 0
tri4_5_14_15: t5_14_15 - x5_14 - x5_15 - x14_15 >= -2
tri1_5_14_16: t5_14_16 - x5_14 <= 0
tri2_5_14_16: t5_14_16 - x5_16 <= 0
tri3_5_14_16: t5_14_16 - x14_16 <= 0
tri4_5_14_16: t5_14_16 - x5_14 - x5_16 - x14_16 >= -2
tri1_5_14_17: t5_14_17 - x5_14 <= 0
tri2_5_14_17: t5_14_17 - x5_17 <= 0
tri3_5_14_17: t5_14_17 - x14_17 <= 0
tri4_5_14_17: t5_14_17 - x5_14 - x5_17 - x14_17 >= -2
tri1_5_14_18: t5_14_18 - x5_14 <= 0
tri2_5_14_18: t5_14_18 - x5_18 <= 0
tri3_5_14_18: t5_14_18 - x14_18 <= 0
tri4_5_14_18: t5_14_18 - x5_14 - x5_18 - x14_18 >= -2
tri1_5_14_19: t5_14_19 - x5_14 <= 0
tri2_5_14_19: t5_14_19 - x5_19 <= 0
tri3_5_14_19: t5_14_19 - x14_19 <= 0
tri4_5_14_19: t5_14_19 - x5_14 - x5_19 - x14_19 >= -2
tri1_5_14_20: t5_14_20 - x5_14 <= 0
tri2_5_14_20: t5_14_20 - x5_20 <= 0
tri3_5_14_20: t5_14_20 - x14_20 <= 0
tri4_5_14_20: t5_14_20 - x5_14 - x5_20 - x14_20 >= -2
tri1_5_14_21: t5_14_21 - x5_14 <= 0
tri2_5_14_21: t5_14_21 - x5_21 <= 0
tri3_5_14_21: t5_14_21 - x14_21 <= 0
tri4_5_14_21: t5_14_21 - x5_14 - x5_21 - x14_21 >= -2
tri1_5_15_16: t5_15_16 - x5_15 <= 0
tri2_5_15_16: t5_15_16 - x5_16 <= 0
tri3_5_15_16: t5_15_16 - x15_16 <= 0
tri4_5_15_16: t5_15_16 - x5_15 - x5_16 - x15_16 >= -2
tri1_5_15_17: t5_15_17 - x5_15 <= 0
tri2_5_15_17: t5_15_17 - x5_17 <= 0
tri3_5_15_17: t5_15_17 - x15_17 <= 0
tri4_5_15_17: t5_15_17 - x5_15 - x5_17 - x15_17 >= -2
tri1_5_15_18: t5_15_18 - x5_15 <= 0
tri2_5_15_18: t5_15_18 - x5_18 <= 0
tri3_5_15_18: t5_15_18 - x15_18 <= 0
tri4_5_15_18: t5_15_18 - x5_15 - x5_18 - x15_18 >= -2
tri1_5_15_19: t5_15_19 - x5_15 <= 0
tri2_5_15_19: t5_15_19 - x5_19 <= 0
tri3_5_15_19: t5_15_19 - x15_19 <= 0
tri4_5_15_19: t5_15_19 - x5_15 - x5_19 - x15_19 >= -2
tri1_5_15_20: t5_15_20 - x5_15 <= 0
tri2_5_15_20: t5_15_20 - x5_20 <= 0
tri3_5_15_20: t5_15_20 - x15_20 <= 0
tri4_5_15_20: t5_15_20 - x5_15 - x5_20 - x15_20 >= -2
tri1_5_15_21: t5_15_21 - x5_15 <= 0
tri2_5_15_21: t5_15_21 - x5_21 <= 0
tri3_5_15_21: t5_15_21 - x15_21 <= 0
tri4_5_15_21: t5_15_21 - x5_15 - x5_21 - x15_21 >= -2
tri1_5_16_17: t5_16_17 - x5_16 <= 0
tri2_5_16_17: t5_16_17 - x5_17 <= 0
tri3_5_16_17: t5_16_17 - x16_17 <= 0
tri4_5_16_17: t5_16_17 - x5_16 - x5_17 - x16_17 >= -2
tri1_5_16_18: t5_16_18 - x5_16 <= 0
tri2_5_16_18: t5_16_18 - x5_18 <= 0
tri3_5_16_18: t5_16_18 - x16_18 <= 0
tri4_5_16_18: t5_16_18 - x5_16 - x5_18 - x16_18 >= -2
tri1_5_16_19: t5_16_19 - x5_16 <= 0
tri2_5_16_19: t5_16_19 - x5_19 <= 0
tri3_5_16_19: t5_16_19 - x16_19 <= 0
tri4_5_16_19: t5_16_19 - x5_16 - x5_19 - x16_19 >= -2
tri1_5_16_20: t5_16_20 - x5_16 <= 0
tri2_5_16_20: t5_16_20 - x5_20 <= 0
tri3_5_16_20: t5_16_20 - x16_20 <= 0
tri4_5_16_20: t5_16_20 - x5_16 - x5_20 - x16_20 >= -2
tri1_5_16_21: t5_16_21 - x5_16 <= 0
tri2_5_16_21: t5_16_21 - x5_21 <= 0
tri3_5_16_21: t5_16_21 - x16_21 <= 0
tri4_5_16_21: t5_16_21 - x5_16 - x5_21 - x16_21 >= -2
tri1_5_17_18: t5_17_18 - x5_17 <= 0
tri2_5_17_18: t5_17_18 - x5_18 <= 0
tri3_5_17_18: t5_17_18 - x17_18 <= 0
tri4_5_17_18: t5_17_18 - x5_17 - x5_18 - x17_18 >= -2
tri1_5_17_19: t5_17_19 - x5_17 <= 0
tri2_5_17_19: t5_17_19 - x5_19 <= 0
tri3_5_17_19: t5_17_19 - x17_19 <= 0
tri4_5_17_19: t5_17_19 - x5_17 - x5_19 - x17_19 >= -2
tri1_5_17_20: t5_17_20 - x5_17 <= 0
tri2_5_17_20: t5_17_20 - x5_20 <= 0
tri3_5_17_20: t5_17_20 - x17_20 <= 0
tri4_5_17_20: t5_17_20 - x5_17 - x5_20 - x17_20 >= -2
tri1_5_17_21: t5_17_21 - x5_17 <= 0
tri2_5_17_21: t5_17_21 - x5_21 <= 0
tri3_5_17_21: t5_17_21 - x17_21 <= 0
tri4_5_17_21: t5_17_21 - x5_17 - x5_21 - x17_21 >= -2
tri1_5_18_19: t5_18_19 - x5_18 <= 0
tri2_5_18_19: t5_18_19 - x5_19 <= 0
tri3_5_18_19: t5_18_19 - x18_19 <= 0
tri4_5_18_19: t5_18_19 - x5_18 - x5_19 - x18_19 >= -2
tri1_5_18_20: t5_18_20 - x5_18 <= 0
tri2_5_18_20: t5_18_20 - x5_20 <= 0
tri3_5_18_20: t5_18_20 - x18_20 <= 0
tri4_5_18_20: t5_18_20 - x5_18 - x5_20 - x18_20 >= -2
tri1_5_18_21: t5_18_21 - x5_18 <= 0
tri2_5_18_21: t5_18_21 - x5_21 <= 0
tri3_5_18_21: t5_18_21 - x18_21 <= 0
tri4_5_18_21: t5_18_21 - x5_18 - x5_21 - x18_21 >= -2
tri1_5_19_20: t5_19_20 - x5_19 <= 0
tri2_5_19_20: t5_19_20 - x5_20 <= 0
tri3_5_19_20: t5_19_20 - x19_20 <= 0
tri4_5_19_20: t5_19_20 - x5_19 - x5_20 - x19_20 >= -2
tri1_5_19_21: t5_19_21 - x5_19 <= 0
tri2_5_19_21: t5_19_21 - x5_21 <= 0
tri3_5_19_21: t5_19_21 - x19_21 <= 0
tri4_5_19_21: t5_19_21 - x5_19 - x5_21 - x19_21 >= -2
tri1_5_20_21: t5_20_21 - x5_20 <= 0
tri2_5_20_21: t5_20_21 - x5_21 <= 0
tri3_5_20_21: t5_20_21 - x20_21 <= 0
tri4_5_20_21: t5_20_21 - x5_20 - x5_21 - x20_21 >= -2
tri1_6_7_8: t6_7_8 - x6_7 <= 0
tri2_6_7_8: t6_7_8 - x6_8 <= 0
tri3_6_7_8: t6_7_8 - x7_8 <= 0
tri4_6_7_8: t6_7_8 - x6_7 - x6_8 - x7_8 >= -2
tri1_6_7_9: t6_7_9 - x6_7 <= 0
tri2_6_7_9: t6_7_9 - x6_9 <= 0
tri3_6_7_9: t6_7_9 - x7_9 <= 0
tri4_6_7_9: t6_7_9 - x6_7 - x6_9 - x7_9 >= -2
tri1_6_7_10: t6_7_10 - x6_7 <= 0
tri2_6_7_10: t6_7_10 - x6_10 <= 0
tri3_6_7_10: t6_7_10 - x7_10 <= 0
tri4_6_7_10: t6_7_10 - x6_7 - x6_10 - x7_10 >= -2
tri1_6_7_11: t6_7_11 - x6_7 <= 0
tri2_6_7_11: t6_7_11 - x6_11 <= 0
tri3_6_7_11: t6_7_11 - x7_11 <= 0
tri4_6_7_11: t6_7_11 - x6_7 - x6_11 - x7_11 >= -2
tri1_6_7_12: t6_7_12 - x6_7 <= 0
tri2_6_7_12: t6_7_12 - x6_12 <= 0
tri3_6_7_12: t6_7_12 - x7_12 <= 0
tri4_6_7_12: t6_7_12 - x6_7 - x6_12 - x7_12 >= -2
tri1_6_7_13: t6_7_13 - x6_7 <= 0
tri2_6_7_13: t6_7_13 - x6_13 <= 0
tri3_6_7_13: t6_7_13 - x7_13 <= 0
tri4_6_7_13: t6_7_13 - x6_7 - x6_13 - x7_13 >= -2
tri1_6_7_14: t6_7_14 - x6_7 <= 0
tri2_6_7_14: t6_7_14 - x6_14 <= 0
tri3_6_7_14: t6_7_14 - x7_14 <= 0
tri4_6_7_14: t6_7_14 - x6_7 - x6_14 - x7_14 >= -2
tri1_6_7_15: t6_7_15 - x6_7 <= 0
tri2_6_7_15: t6_7_15 - x6_15 <= 0
tri3_6_7_15: t6_7_15 - x7_15 <= 0
tri4_6_7_15: t6_7_15 - x6_7 - x6_15 - x7_15 >= -2
tri1_6_7_16: t6_7_16 - x6_7 <= 0
tri2_6_7_16: t6_7_16 - x6_16 <= 0
tri3_6_7_16: t6_7_16 - x7_16 <= 0
tri4_6_7_16: t6_7_16 - x6_7 - x6_16 - x7_16 >= -2
tri1_6_7_17: t6_7_17 - x6_7 <= 0
tri2_6_7_17: t6_7_17 - x6_17 <= 0
tri3_6_7_17: t6_7_17 - x7_17 <= 0
tri4_6_7_17: t6_7_17 - x6_7 - x6_17 - x7_17 >= -2
tri1_6_7_18: t6_7_18 - x6_7 <= 0
tri2_6_7_18: t6_7_18 - x6_18 <= 0
tri3_6_7_18: t6_7_18 - x7_18 <= 0
tri4_6_7_18: t6_7_18 - x6_7 - x6_18 - x7_18 >= -2
tri1_6_7_19: t6_7_19 - x6_7 <= 0
tri2_6_7_19: t6_7_19 - x6_19 <= 0
tri3_6_7_19: t6_7_19 - x7_19 <= 0
tri4_6_7_19: t6_7_19 - x6_7 - x6_19 - x7_19 >= -2
tri1_6_7_20: t6_7_20 - x6_7 <= 0
tri2_6_7_20: t6_7_20 - x6_20 <= 0
tri3_6_7_20: t6_7_20 - x7_20 <= 0
tri4_6_7_20: t6_7_20 - x6_7 - x6_20 - x7_20 >= -2
tri1_6_7_21: t6_7_21 - x6_7 <= 0
tri2_6_7_21: t6_7_21 - x6_21 <= 0
tri3_6_7_21: t6_7_21 - x7_21 <= 0
tri4_6_7_21: t6_7_21 - x6_7 - x6_21 - x7_21 >= -2
tri1_6_8_9: t6_8_9 - x6_8 <= 0
tri2_6_8_9: t6_8_9 - x6_9 <= 0
tri3_6_8_9: t6_8_9 - x8_9 <= 0
tri4_6_8_9: t6_8_9 - x6_8 - x6_9 - x8_9 >= -2
tri1_6_8_10: t6_8_10 - x6_8 <= 0
tri2_6_8_10: t6_8_10 - x6_10 <= 0
tri3_6_8_10: t6_8_10 - x8_10 <= 0
tri4_6_8_10: t6_8_10 - x6_8 - x6_10 - x8_10 >= -2
tri1_6_8_11: t6_8_11 - x6_8 <= 0
tri2_6_8_11: t6_8_11 - x6_11 <= 0
tri3_6_8_11: t6_8_11 - x8_11 <= 0
tri4_6_8_11: t6_8_11 - x6_8 - x6_11 - x8_11 >= -2
tri1_6_8_12: t6_8_12 - x6_8 <= 0
tri2_6_8_12: t6_8_12 - x6_12 <= 0
tri3_6_8_12: t6_8_12 - x8_12 <= 0
tri4_6_8_12: t6_8_12 - x6_8 - x6_12 - x8_12 >= -2
tri1_6_8_13: t6_8_13 - x6_8 <= 0
tri2_6_8_13: t6_8_13 - x6_13 <= 0
tri3_6_8_13: t6_8_13 - x8_13 <= 0
tri4_6_8_13: t6_8_13 - x6_8 - x6_13 - x8_13 >= -2
tri1_6_8_14: t6_8_14 - x6_8 <= 0
tri2_6_8_14: t6_8_14 - x6_14 <= 0
tri3_6_8_14: t6_8_14 - x8_14 <= 0
tri4_6_8_14: t6_8_14 - x6_8 - x6_14 - x8_14 >= -2
tri1_6_8_15: t6_8_15 - x6_8 <= 0
tri2_6_8_15: t6_8_15 - x6_15 <= 0
tri3_6_8_15: t6_8_15 - x8_15 <= 0
tri4_6_8_15: t6_8_15 - x6_8 - x6_15 - x8_15 >= -2
tri1_6_8_16: t6_8_16 - x6_8 <= 0
tri2_6_8_16: t6_8_16 - x6_16 <= 0
tri3_6_8_16: t6_8_16 - x8_16 <= 0
tri4_6_8_16: t6_8_16 - x6_8 - x6_16 - x8_16 >= -2
tri1_6_8_17: t6_8_17 - x6_8 <= 0
tri2_6_8_17: t6_8_17 - x6_17 <= 0
tri3_6_8_17: t6_8_17 - x8_17 <= 0
tri4_6_8_17: t6_8_17 - x6_8 - x6_17 - x8_17 >= -2
tri1_6_8_18: t6_8_18 - x6_8 <= 0
tri2_6_8_18: t6_8_18 - x6_18 <= 0
tri3_6_8_18: t6_8_18 - x8_18 <= 0
tri4_6_8_18: t6_8_18 - x6_8 - x6_18 - x8_18 >= -2
tri1_6_8_19: t6_8_19 - x6_8 <= 0
tri2_6_8_19: t6_8_19 - x6_19 <= 0
tri3_6_8_19: t6_8_19 - x8_19 <= 0
tri4_6_8_19: t6_8_19 - x6_8 - x6_19 - x8_19 >= -2
tri1_6_8_20: t6_8_20 - x6_8 <= 0
tri2_6_8_20: t6_8_20 - x6_20 <= 0
tri3_6_8_20: t6_8_20 - x8_20 <= 0
tri4_6_8_20: t6_8_20 - x6_8 - x6_20 - x8_20 >= -2
tri1_6_8_21: t6_8_21 - x6_8 <= 0
tri2_6_8_21: t6_8_21 - x6_21 <= 0
tri3_6_8_21: t6_8_21 - x8_21 <= 0
tri4_6_8_21: t6_8_21 - x6_8 - x6_21 - x8_21 >= -2
tri1_6_9_10: t6_9_10 - x6_9 <= 0
tri2_6_9_10: t6_9_10 - x6_10 <= 0
tri3_6_9_10: t6_9_10 - x9_10 <= 0
tri4_6_9_10: t6_9_10 - x6_9 - x6_10 - x9_10 >= -2
tri1_6_9_11: t6_9_11 - x6_9 <= 0
tri2_6_9_11: t6_9_11 - x6_11 <= 0
tri3_6_9_11: t6_9_11 - x9_11 <= 0
tri4_6_9_11: t6_9_11 - x6_9 - x6_11 - x9_11 >= -2
tri1_6_9_12: t6_9_12 - x6_9 <= 0
tri2_6_9_12: t6_9_12 - x6_12 <= 0
tri3_6_9_12: t6_9_12 - x9_12 <= 0
tri4_6_9_12: t6_9_12 - x6_9 - x6_12 - x9_12 >= -2
tri1_6_9_13: t6_9_13 - x6_9 <= 0
tri2_6_9_13: t6_9_13 - x6_13 <= 0
tri3_6_9_13: t6_9_13 - x9_13 <= 0
tri4_6_9_13: t6_9_13 - x6_9 - x6_13 - x9_13 >= -2
tri1_6_9_14: t6_9_14 - x6_9 <= 0
tri2_6_9_14: t6_9_14 - x6_14 <= 0
tri3_6_9_14: t6_9_14 - x9_14 <= 0
tri4_6_9_14: t6_9_14 - x6_9 - x6_14 - x9_14 >= -2
tri1_6_9_15: t6_9_15 - x6_9 <= 0
tri2_6_9_15: t6_9_15 - x6_15 <= 0
tri3_6_9_15: t6_9_15 - x9_15 <= 0
tri4_6_9_15: t6_9_15 - x6_9 - x6_15 - x9_15 >= -2
tri1_6_9_16: t6_9_16 - x6_9 <= 0
tri2_6_9_16: t6_9_16 - x6_16 <= 0
tri3_6_9_16: t6_9_16 - x9_16 <= 0
tri4_6_9_16: t6_9_16 - x6_9 - x6_16 - x9_16 >= -2
tri1_6_9_17: t6_9_17 - x6_9 <= 0
tri2_6_9_17: t6_9_17 - x6_17 <= 0
tri3_6_9_17: t6_9_17 - x9_17 <= 0
tri4_6_9_17: t6_9_17 - x6_9 - x6_17 - x9_17 >= -2
tri1_6_9_18: t6_9_18 - x6_9 <= 0
tri2_6_9_18: t6_9_18 - x6_18 <= 0
tri3_6_9_18: t6_9_18 - x9_18 <= 0
tri4_6_9_18: t6_9_18 - x6_9 - x6_18 - x9_18 >= -2
tri1_6_9_19: t6_9_19 - x6_9 <= 0
tri2_6_9_19: t6_9_19 - x6_19 <= 0
tri3_6_9_19: t6_9_19 - x9_19 <= 0
tri4_6_9_19: t6_9_19 - x6_9 - x6_19 - x9_19 >= -2
tri1_6_9_20: t6_9_20 - x6_9 <= 0
tri2_6_9_20: t6_9_20 - x6_20 <= 0
tri3_6_9_20: t6_9_20 - x9_20 <= 0
tri4_6_9_20: t6_9_20 - x6_9 - x6_20 - x9_20 >= -2
tri1_6_9_21: t6_9_21 - x6_9 <= 0
tri2_6_9_21: t6_9_21 - x6_21 <= 0
tri3_6_9_21: t6_9_21 - x9_21 <= 0
tri4_6_9_21: t6_9_21 - x6_9 - x6_21 - x9_21 >= -2
tri1_6_10_11: t6_10_11 - x6_10 <= 0
tri2_6_10_11: t6_10_11 - x6_11 <= 0
tri3_6_10_11: t6_10_11 - x10_11 <= 0
tri4_6_10_11: t6_10_11 - x6_10 - x6_11 - x10_11 >= -2
tri1_6_10_12: t6_10_12 - x6_10 <= 0
tri2_6_10_12: t6_10_12 - x6_12 <= 0
tri3_6_10_12: t6_10_12 - x10_12 <= 0
tri4_6_10_12: t6_10_12 - x6_10 - x6_12 - x10_12 >= -2
tri1_6_10_13: t6_10_13 - x6_10 <= 0
tri2_6_10_13: t6_10_13 - x6_13 <= 0
tri3_6_10_13: t6_10_13 - x10_13 <= 0
tri4_6_10_13: t6_10_13 - x6_10 - x6_13 - x10_13 >= -2
tri1_6_10_14: t6_10_14 - x6_10 <= 0
tri2_6_10_14: t6_10_14 - x6_14 <= 0
tri3_6_10_14: t6_10_14 - x10_14 <= 0
tri4_6_10_14: t6_10_14 - x6_10 - x6_14 - x10_14 >= -2
tri1_6_10_15: t6_10_15 - x6_10 <= 0
tri2_6_10_15: t6_10_15 - x6_15 <= 0
tri3_6_10_15: t6_10_15 - x10_15 <= 0
tri4_6_10_15: t6_10_15 - x6_10 - x6_15 - x10_15 >= -2
tri1_6_10_16: t6_10_16 - x6_10 <= 0
tri2_6_10_16: t6_10_16 - x6_16 <= 0
tri3_6_10_16: t6_10_16 - x10_16 <= 0
tri4_6_10_16: t6_10_16 - x6_10 - x6_16 - x10_16 >= -2
tri1_6_10_17: t6_10_17 - x6_10 <= 0
tri2_6_10_17: t6_10_17 - x6_17 <= 0
tri3_6_10_17: t6_10_17 - x10_17 <= 0
tri4_6_10_17: t6_10_17 - x6_10 - x6_17 - x10_17 >= -2
tri1_6_10_18: t6_10_18 - x6_10 <= 0
tri2_6_10_18: t6_10_18 - x6_18 <= 0
tri3_6_10_18: t6_10_18 - x10_18 <= 0
tri4_6_10_18: t6_10_18 - x6_10 - x6_18 - x10_18 >= -2
tri1_6_10_19: t6_10_19 - x6_10 <= 0
tri2_6_10_19: t6_10_19 - x6_19 <= 0
tri3_6_10_19: t6_10_19 - x10_19 <= 0
tri4_6_10_19: t6_10_19 - x6_10 - x6_19 - x10_19 >= -2
tri1_6_10_20: t6_10_20 - x6_10 <= 0
tri2_6_10_20: t6_10_20 - x6_20 <= 0
tri3_6_10_20: t6_10_20 - x10_20 <= 0
tri4_6_10_20: t6_10_20 - x6_10 - x6_20 - x10_20 >= -2
tri1_6_10_21: t6_10_21 - x6_10 <= 0
tri2_6_10_21: t6_10_21 - x6_21 <= 0
tri3_6_10_21: t6_10_21 - x10_21 <= 0
tri4_6_10_21: t6_10_21 - x6_10 - x6_21 - x10_21 >= -2
tri1_6_11_12: t6_11_12 - x6_11 <= 0
tri2_6_11_12: t6_11_12 - x6_12 <= 0
tri3_6_11_12: t6_11_12 - x11_12 <= 0
tri4_6_11_12: t6_11_12 - x6_11 - x6_12 - x11_12 >= -2
tri1_6_11_13: t6_11_13 - x6_11 <= 0
tri2_6_11_13: t6_11_13 - x6_13 <= 0
tri3_6_11_13: t6_11_13 - x11_13 <= 0
tri4_6_11_13: t6_11_13 - x6_11 - x6_13 - x11_13 >= -2
tri1_6_11_14: t6_11_14 - x6_11 <= 0
tri2_6_11_14: t6_11_14 - x6_14 <= 0
tri3_6_11_14: t6_11_14 - x11_14 <= 0
tri4_6_11_14: t6_11_14 - x6_11 - x6_14 - x11_14 >= -2
tri1_6_11_15: t6_11_15 - x6_11 <= 0
tri2_6_11_15: t6_11_15 - x6_15 <= 0
tri3_6_11_15: t6_11_15 - x11_15 <= 0
tri4_6_11_15: t6_11_15 - x6_11 - x6_15 - x11_15 >= -2
tri1_6_11_16: t6_11_16 - x6_11 <= 0
tri2_6_11_16: t6_11_16 - x6_16 <= 0
tri3_6_11_16: t6_11_16 - x11_16 <= 0
tri4_6_11_16: t6_11_16 - x6_11 - x6_16 - x11_16 >= -2
tri1_6_11_17: t6_11_17 - x6_11 <= 0
tri2_6_11_17: t6_11_17 - x6_17 <= 0
tri3_6_11_17: t6_11_17 - x11_17 <= 0
tri4_6_11_17: t6_11_17 - x6_11 - x6_17 - x11_17 >= -2
tri1_6_11_18: t6_11_18 - x6_11 <= 0
tri2_6_11_18: t6_11_18 - x6_18 <= 0
tri3_6_11_18: t6_11_18 - x11_18 <= 0
tri4_6_11_18: t6_11_18 - x6_11 - x6_18 - x11_18 >= -2
tri1_6_11_19: t6_11_19 - x6_11 <= 0
tri2_6_11_19: t6_11_19 - x6_19 <= 0
tri3_6_11_19: t6_11_19 - x11_19 <= 0
tri4_6_11_19: t6_11_19 - x6_11 - x6_19 - x11_19 >= -2
tri1_6_11_20: t6_11_20 - x6_11 <= 0
tri2_6_11_20: t6_11_20 - x6_20 <= 0
tri3_6_11_20: t6_11_20 - x11_20 <= 0
tri4_6_11_20: t6_11_20 - x6_11 - x6_20 - x11_20 >= -2
tri1_6_11_21: t6_11_21 - x6_11 <= 0
tri2_6_11_21: t6_11_21 - x6_21 <= 0
tri3_6_11_21: t6_11_21 - x11_21 <= 0
tri4_6_11_21: t6_11_21 - x6_11 - x6_21 - x11_21 >= -2
tri1_6_12_13: t6_12_13 - x6_12 <= 0
tri2_6_12_13: t6_12_13 - x6_13 <= 0
tri3_6_12_13: t6_12_13 - x12_13 <= 0
tri4_6_12_13: t6_12_13 - x6_12 - x6_13 - x12_13 >= -2
tri1_6_12_14: t6_12_14 - x6_12 <= 0
tri2_6_12_14: t6_12_14 - x6_14 <= 0
tri3_6_12_14: t6_12_14 - x12_14 <= 0
tri4_6_12_14: t6_12_14 - x6_12 - x6_14 - x12_14 >= -2
tri1_6_12_15: t6_12_15 - x6_12 <= 0
tri2_6_12_15: t6_12_15 - x6_15 <= 0
tri3_6_12_15: t6_12_15 - x12_15 <= 0
tri4_6_12_15: t6_12_15 - x6_12 - x6_15 - x12_15 >= -2
tri1_6_12_16: t6_12_16 - x6_12 <= 0
tri2_6_12_16: t6_12_16 - x6_16 <= 0
tri3_6_12_16: t6_12_16 - x12_16 <= 0
tri4_6_12_16: t6_12_16 - x6_12 - x6_16 - x12_16 >= -2
tri1_6_12_17: t6_12_17 - x6_12 <= 0
tri2_6_12_17: t6_12_17 - x6_17 <= 0
tri3_6_12_17: t6_12_17 - x12_17 <= 0
tri4_6_12_17: t6_12_17 - x6_12 - x6_17 - x12_17 >= -2
tri1_6_12_18: t6_12_18 - x6_12 <= 0
tri2_6_12_18: t6_12_18 - x6_18 <= 0
tri3_6_12_18: t6_12_18 - x12_18 <= 0
tri4_6_12_18: t6_12_18 - x6_12 - x6_18 - x12_18 >= -2
tri1_6_12_19: t6_12_19 - x6_12 <= 0
tri2_6_12_19: t6_12_19 - x6_19 <= 0
tri3_6_12_19: t6_12_19 - x12_19 <= 0
tri4_6_12_19: t6_12_19 - x6_12 - x6_19 - x12_19 >= -2
tri1_6_12_20: t6_12_20 - x6_12 <= 0
tri2_6_12_20: t6_12_20 - x6_20 <= 0
tri3_6_12_20: t6_12_20 - x12_20 <= 0
tri4_6_12_20: t6_12_20 - x6_12 - x6_20 - x12_20 >= -2
tri1_6_12_21: t6_12_21 - x6_12 <= 0
tri2_6_12_21: t6_12_21 - x6_21 <= 0
tri3_6_12_21: t6_12_21 - x12_21 <= 0
tri4_6_12_21: t6_12_21 - x6_12 - x6_21 - x12_21 >= -2
tri1_6_13_14: t6_13_14 - x6_13 <= 0
tri2_6_13_14: t6_13_14 - x6_14 <= 0
tri3_6_13_14: t6_13_14 - x13_14 <= 0
tri4_6_13_14: t6_13_14 - x6_13 - x6_14 - x13_14 >= -2
tri1_6_13_15: t6_13_15 - x6_13 <= 0
tri2_6_13_15: t6_13_15 - x6_15 <= 0
tri3_6_13_15: t6_13_15 - x13_15 <= 0
tri4_6_13_15: t6_13_15 - x6_13 - x6_15 - x13_15 >= -2
tri1_6_13_16: t6_13_16 - x6_13 <= 0
tri2_6_13_16: t6_13_16 - x6_16 <= 0
tri3_6_13_16: t6_13_16 - x13_16 <= 0
tri4_6_13_16: t6_13_16 - x6_13 - x6_16 - x13_16 >= -2
tri1_6_13_17: t6_13_17 - x6_13 <= 0
tri2_6_13_17: t6_13_17 - x6_17 <= 0
tri3_6_13_17: t6_13_17 - x13_17 <= 0
tri4_6_13_17: t6_13_17 - x6_13 - x6_17 - x13_17 >= -2
tri1_6_13_18: t6_13_18 - x6_13 <= 0
tri2_6_13_18: t6_13_18 - x6_18 <= 0
tri3_6_13_18: t6_13_18 - x13_18 <= 0
tri4_6_13_18: t6_13_18 - x6_13 - x6_18 - x13_18 >= -2
tri1_6_13_19: t6_13_19 - x6_13 <= 0
tri2_6_13_19: t6_13_19 - x6_19 <= 0
tri3_6_13_19: t6_13_19 - x13_19 <= 0
tri4_6_13_19: t6_13_19 - x6_13 - x6_19 - x13_19 >= -2
tri1_6_13_20: t6_13_20 - x6_13 <= 0
tri2_6_13_20: t6_13_20 - x6_20 <= 0
tri3_6_13_20: t6_13_20 - x13_20 <= 0
tri4_6_13_20: t6_13_20 - x6_13 - x6_20 - x13_20 >= -2
tri1_6_13_21: t6_13_21 - x6_13 <= 0
tri2_6_13_21: t6_13_21 - x6_21 <= 0
tri3_6_13_21: t6_13_21 - x13_21 <= 0
tri4_6_13_21: t6_13_21 - x6_13 - x6_21 - x13_21 >= -2
tri1_6_14_15: t6_14_15 - x6_14 <= 0
tri2_6_14_15: t6_14_15 - x6_15 <= 0
tri3_6_14_15: t6_14_15 - x14_15 <= 0
tri4_6_14_15: t6_14_15 - x6_14 - x6_15 - x14_15 >= -2
tri1_6_14_16: t6_14_16 - x6_14 <= 0
tri2_6_14_16: t6_14_16 - x6_16 <= 0
tri3_6_14_16: t6_14_16 - x14_16 <= 0
tri4_6_14_16: t6_14_16 - x6_14 - x6_16 - x14_16 >= -2
tri1_6_14_17: t6_14_17 - x6_14 <= 0
tri2_6_14_17: t6_14_17 - x6_17 <= 0
tri3_6_14_17: t6_14_17 - x14_17 <= 0
tri4_6_14_17: t6_14_17 - x6_14 - x6_17 - x14_17 >= -2
tri1_6_14_18: t6_14_18 - x6_14 <= 0
tri2_6_14_18: t6_14_18 - x6_18 <= 0
tri3_6_14_18: t6_14_18 - x14_18 <= 0
tri4_6_14_18: t6_14_18 - x6_14 - x6_18 - x14_18 >= -2
tri1_6_14_19: t6_14_19 - x6_14 <= 0
tri2_6_14_19: t6_14_19 - x6_19 <= 0
tri3_6_14_19: t6_14_19 - x14_19 <= 0
tri4_6_14_19: t6_14_19 - x6_14 - x6_19 - x14_19 >= -2
tri1_6_14_20: t6_14_20 - x6_14 <= 0
tri2_6_14_20: t6_14_20 - x6_20 <= 0
tri3_6_14_20: t6_14_20 - x14_20 <= 0
tri4_6_14_20: t6_14_20 - x6_14 - x6_20 - x14_20 >= -2
tri1_6_14_21: t6_14_21 - x6_14 <= 0
tri2_6_14_21: t6_14_21 - x6_21 <= 0
tri3_6_14_21: t6_14_21 - x14_21 <= 0
tri4_6_14_21: t6_14_21 - x6_14 - x6_21 - x14_21 >= -2
tri1_6_15_16: t6_15_16 - x6_15 <= 0
tri2_6_15_16: t6_15_16 - x6_16 <= 0
tri3_6_15_16: t6_15_16 - x15_16 <= 0
tri4_6_15_16: t6_15_16 - x6_15 - x6_16 - x15_16 >= -2
tri1_6_15_17: t6_15_17 - x6_15 <= 0
tri2_6_15_17: t6_15_17 - x6_17 <= 0
tri3_6_15_17: t6_15_17 - x15_17 <= 0
tri4_6_15_17: t6_15_17 - x6_15 - x6_17 - x15_17 >= -2
tri1_6_15_18: t6_15_18 - x6_15 <= 0
tri2_6_15_18: t6_15_18 - x6_18 <= 0
tri3_6_15_18: t6_15_18 - x15_18 <= 0
tri4_6_15_18: t6_15_18 - x6_15 - x6_18 - x15_18 >= -2
tri1_6_15_19: t6_15_19 - x6_15 <= 0
tri2_6_15_19: t6_15_19 - x6_19 <= 0
tri3_6_15_19: t6_15_19 - x15_19 <= 0
tri4_6_15_19: t6_15_19 - x6_15 - x6_19 - x15_19 >= -2
tri1_6_15_20: t6_15_20 - x6_15 <= 0
tri2_6_15_20: t6_15_20 - x6_20 <= 0
tri3_6_15_20: t6_15_20 - x15_20 <= 0
tri4_6_15_20: t6_15_20 - x6_15 - x6_20 - x15_20 >= -2
tri1_6_15_21: t6_15_21 - x6_15 <= 0
tri2_6_15_21: t6_15_21 - x6_21 <= 0
tri3_6_15_21: t6_15_21 - x15_21 <= 0
tri4_6_15_21: t6_15_21 - x6_15 - x6_21 - x15_21 >= -2
tri1_6_16_17: t6_16_17 - x6_16 <= 0
tri2_6_16_17: t6_16_17 - x6_17 <= 0
tri3_6_16_17: t6_16_17 - x16_17 <= 0
tri4_6_16_17: t6_16_17 - x6_16 - x6_17 - x16_17 >= -2
tri1_6_16_18: t6_16_18 - x6_16 <= 0
tri2_6_16_18: t6_16_18 - x6_18 <= 0
tri3_6_16_18: t6_16_18 - x16_18 <= 0
tri4_6_16_18: t6_16_18 - x6_16 - x6_18 - x16_18 >= -2
tri1_6_16_19: t6_16_19 - x6_16 <= 0
tri2_6_16_19: t6_16_19 - x6_19 <= 0
tri3_6_16_19: t6_16_19 - x16_19 <= 0
tri4_6_16_19: t6_16_19 - x6_16 - x6_19 - x16_19 >= -2
tri1_6_16_20: t6_16_20 - x6_16 <= 0
tri2_6_16_20: t6_16_20 - x6_20 <= 0
tri3_6_16_20: t6_16_20 - x16_20 <= 0
tri4_6_16_20: t6_16_20 - x6_16 - x6_20 - x16_20 >= -2
tri1_6_16_21: t6_16_21 - x6_16 <= 0
tri2_6_16_21: t6_16_21 - x6_21 <= 0
tri3_6_16_21: t6_16_21 - x16_21 <= 0
tri4_6_16_21: t6_16_21 - x6_16 - x6_21 - x16_21 >= -2
tri1_6_17_18: t6_17_18 - x6_17 <= 0
tri2_6_17_18: t6_17_18 - x6_18 <= 0
tri3_6_17_18: t6_17_18 - x17_18 <= 0
tri4_6_17_18: t6_17_18 - x6_17 - x6_18 - x17_18 >= -2
tri1_6_17_19: t6_17_19 - x6_17 <= 0
tri2_6_17_19: t6_17_19 - x6_19 <= 0
tri3_6_17_19: t6_17_19 - x17_19 <= 0
tri4_6_17_19: t6_17_19 - x6_17 - x6_19 - x17_19 >= -2
tri1_6_17_20: t6_17_20 - x6_17 <= 0
tri2_6_17_20: t6_17_20 - x6_20 <= 0
tri3_6_17_20: t6_17_20 - x17_20 <= 0
tri4_6_17_20: t6_17_20 - x6_17 - x6_20 - x17_20 >= -2
tri1_6_17_21: t6_17_21 - x6_17 <= 0
tri2_6_17_21: t6_17_21 - x6_21 <= 0
tri3_6_17_21: t6_17_21 - x17_21 <= 0
tri4_6_17_21: t6_17_21 - x6_17 - x6_21 - x17_21 >= -2
tri1_6_18_19: t6_18_19 - x6_18 <= 0
tri2_6_18_19: t6_18_19 - x6_19 <= 0
tri3_6_18_19: t6_18_19 - x18_19 <= 0
tri4_6_18_19: t6_18_19 - x6_18 - x6_19 - x18_19 >= -2
tri1_6_18_20: t6_18_20 - x6_18 <= 0
tri2_6_18_20: t6_18_20 - x6_20 <= 0
tri3_6_18_20: t6_18_20 - x18_20 <= 0
tri4_6_18_20: t6_18_20 - x6_18 - x6_20 - x18_20 >= -2
tri1_6_18_21: t6_18_21 - x6_18 <= 0
tri2_6_18_21: t6_18_21 - x6_21 <= 0
tri3_6_18_21: t6_18_21 - x18_21 <= 0
tri4_6_18_21: t6_18_21 - x6_18 - x6_21 - x18_21 >= -2
tri1_6_19_20: t6_19_20 - x6_19 <= 0
tri2_6_19_20: t6_19_20 - x6_20 <= 0
tri3_6_19_20: t6_19_20 - x19_20 <= 0
tri4_6_19_20: t6_19_20 - x6_19 - x6_20 - x19_20 >= -2
tri1_6_19_21: t6_19_21 - x6_19 <= 0
tri2_6_19_21: t6_19_21 - x6_21 <= 0
tri3_6_19_21: t6_19_21 - x19_21 <= 0
tri4_6_19_21: t6_19_21 - x6_19 - x6_21 - x19_21 >= -2
tri1_6_20_21: t6_20_21 - x6_20 <= 0
tri2_6_20_21: t6_20_21 - x6_21 <= 0
tri3_6_20_21: t6_20_21 - x20_21 <= 0
tri4_6_20_21: t6_20_21 - x6_20 - x6_21 - x20_21 >= -2
tri1_7_8_9: t7_8_9 - x7_8 <= 0
tri2_7_8_9: t7_8_9 - x7_9 <= 0
tri3_7_8_9: t7_8_9 - x8_9 <= 0
tri4_7_8_9: t7_8_9 - x7_8 - x7_9 - x8_9 >= -2
tri1_7_8_10: t7_8_10 - x7_8 <= 0
tri2_7_8_10: t7_8_10 - x7_10 <= 0
tri3_7_8_10: t7_8_10 - x8_10 <= 0
tri4_7_8_10: t7_8_10 - x7_8 - x7_10 - x8_10 >= -2
tri1_7_8_11: t7_8_11 - x7_8 <= 0
tri2_7_8_11: t7_8_11 - x7_11 <= 0
tri3_7_8_11: t7_8_11 - x8_11 <= 0
tri4_7_8_11: t7_8_11 - x7_8 - x7_11 - x8_11 >= -2
tri1_7_8_12: t7_8_12 - x7_8 <= 0
tri2_7_8_12: t7_8_12 - x7_12 <= 0
tri3_7_8_12: t7_8_12 - x8_12 <= 0
tri4_7_8_12: t7_8_12 - x7_8 - x7_12 - x8_12 >= -2
tri1_7_8_13: t7_8_13 - x7_8 <= 0
tri2_7_8_13: t7_8_13 - x7_13 <= 0
tri3_7_8_13: t7_8_13 - x8_13 <= 0
tri4_7_8_13: t7_8_13 - x7_8 - x7_13 - x8_13 >= -2
tri1_7_8_14: t7_8_14 - x7_8 <= 0
tri2_7_8_14: t7_8_14 - x7_14 <= 0
tri3_7_8_14: t7_8_14 - x8_14 <= 0
tri4_7_8_14: t7_8_14 - x7_8 - x7_14 - x8_14 >= -2
tri1_7_8_15: t7_8_15 - x7_8 <= 0
tri2_7_8_15: t7_8_15 - x7_15 <= 0
tri3_7_8_15: t7_8_15 - x8_15 <= 0
tri4_7_8_15: t7_8_15 - x7_8 - x7_15 - x8_15 >= -2
tri1_7_8_16: t7_8_16 - x7_8 <= 0
tri2_7_8_16: t7_8_16 - x7_16 <= 0
tri3_7_8_16: t7_8_16 - x8_16 <= 0
tri4_7_8_16: t7_8_16 - x7_8 - x7_16 - x8_16 >= -2
tri1_7_8_17: t7_8_17 - x7_8 <= 0
tri2_7_8_17: t7_8_17 - x7_17 <= 0
tri3_7_8_17: t7_8_17 - x8_17 <= 0
tri4_7_8_17: t7_8_17 - x7_8 - x7_17 - x8_17 >= -2
tri1_7_8_18: t7_8_18 - x7_8 <= 0
tri2_7_8_18: t7_8_18 - x7_18 <= 0
tri3_7_8_18: t7_8_18 - x8_18 <= 0
tri4_7_8_18: t7_8_18 - x7_8 - x7_18 - x8_18 >= -2
tri1_7_8_19: t7_8_19 - x7_8 <= 0
tri2_7_8_19: t7_8_19 - x7_19 <= 0
tri3_7_8_19: t7_8_19 - x8_19 <= 0
tri4_7_8_19: t7_8_19 - x7_8 - x7_19 - x8_19 >= -2
tri1_7_8_20: t7_8_20 - x7_8 <= 0
tri2_7_8_20: t7_8_20 - x7_20 <= 0
tri3_7_8_20: t7_8_20 - x8_20 <= 0
tri4_7_8_20: t7_8_20 - x7_8 - x7_20 - x8_20 >= -2
tri1_7_8_21: t7_8_21 - x7_8 <= 0
tri2_7_8_21: t7_8_21 - x7_21 <= 0
tri3_7_8_21: t7_8_21 - x8_21 <= 0
tri4_7_8_21: t7_8_21 - x7_8 - x7_21 - x8_21 >= -2
tri1_7_9_10: t7_9_10 - x7_9 <= 0
tri2_7_9_10: t7_9_10 - x7_10 <= 0
tri3_7_9_10: t7_9_10 - x9_10 <= 0
tri4_7_9_10: t7_9_10 - x7_9 - x7_10 - x9_10 >= -2
tri1_7_9_11: t7_9_11 - x7_9 <= 0
tri2_7_9_11: t7_9_11 - x7_11 <= 0
tri3_7_9_11: t7_9_11 - x9_11 <= 0
tri4_7_9_11: t7_9_11 - x7_9 - x7_11 - x9_11 >= -2
tri1_7_9_12: t7_9_12 - x7_9 <= 0
tri2_7_9_12: t7_9_12 - x7_12 <= 0
tri3_7_9_12: t7_9_12 - x9_12 <= 0
tri4_7_9_12: t7_9_12 - x7_9 - x7_12 - x9_12 >= -2
tri1_7_9_13: t7_9_13 - x7_9 <= 0
tri2_7_9_13: t7_9_13 - x7_13 <= 0
tri3_7_9_13: t7_9_13 - x9_13 <= 0
tri4_7_9_13: t7_9_13 - x7_9 - x7_13 - x9_13 >= -2
tri1_7_9_14: t7_9_14 - x7_9 <= 0
tri2_7_9_14: t7_9_14 - x7_14 <= 0
tri3_7_9_14: t7_9_14 - x9_14 <= 0
tri4_7_9_14: t7_9_14 - x7_9 - x7_14 - x9_14 >= -2
tri1_7_9_15: t7_9_15 - x7_9 <= 0
tri2_7_9_15: t7_9_15 - x7_15 <= 0
tri3_7_9_15: t7_9_15 - x9_15 <= 0
tri4_7_9_15: t7_9_15 - x7_9 - x7_15 - x9_15 >= -2
tri1_7_9_16: t7_9_16 - x7_9 <= 0
tri2_7_9_16: t7_9_16 - x7_16 <= 0
tri3_7_9_16: t7_9_16 - x9_16 <= 0
tri4_7_9_16: t7_9_16 - x7_9 - x7_16 - x9_16 >= -2
tri1_7_9_17: t7_9_17 - x7_9 <= 0
tri2_7_9_17: t7_9_17 - x7_17 <= 0
tri3_7_9_17: t7_9_17 - x9_17 <= 0
tri4_7_9_17: t7_9_17 - x7_9 - x7_17 - x9_17 >= -2
tri1_7_9_18: t7_9_18 - x7_9 <= 0
tri2_7_9_18: t7_9_18 - x7_18 <= 0
tri3_7_9_18: t7_9_18 - x9_18 <= 0
tri4_7_9_18: t7_9_18 - x7_9 - x7_18 - x9_18 >= -2
tri1_7_9_19: t7_9_19 - x7_9 <= 0
tri2_7_9_19: t7_9_19 - x7_19 <= 0
tri3_7_9_19: t7_9_19 - x9_19 <= 0
tri4_7_9_19: t7_9_19 - x7_9 - x7_19 - x9_19 >= -2
tri1_7_9_20: t7_9_20 - x7_9 <= 0
tri2_7_9_20: t7_9_20 - x7_20 <= 0
tri3_7_9_20: t7_9_20 - x9_20 <= 0
tri4_7_9_20: t7_9_20 - x7_9 - x7_20 - x9_20 >= -2
tri1_7_9_21: t7_9_21 - x7_9 <= 0
tri2_7_9_21: t7_9_21 - x7_21 <= 0
tri3_7_9_21: t7_9_21 - x9_21 <= 0
tri4_7_9_21: t7_9_21 - x7_9 - x7_21 - x9_21 >= -2
tri1_7_10_11: t7_10_11 - x7_10 <= 0
tri2_7_10_11: t7_10_11 - x7_11 <= 0
tri3_7_10_11: t7_10_11 - x10_11 <= 0
tri4_7_10_11: t7_10_11 - x7_10 - x7_11 - x10_11 >= -2
tri1_7_10_12: t7_10_12 - x7_10 <= 0
tri2_7_10_12: t7_10_12 - x7_12 <= 0
tri3_7_10_12: t7_10_12 - x10_12 <= 0
tri4_7_10_12: t7_10_12 - x7_10 - x7_12 - x10_12 >= -2
tri1_7_10_13: t7_10_13 - x7_10 <= 0
tri2_7_10_13: t7_10_13 - x7_13 <= 0
tri3_7_10_13: t7_10_13 - x10_13 <= 0
tri4_7_10_13: t7_10_13 - x7_10 - x7_13 - x10_13 >= -2
tri1_7_10_14: t7_10_14 - x7_10 <= 0
tri2_7_10_14: t7_10_14 - x7_14 <= 0
tri3_7_10_14: t7_10_14 - x10_14 <= 0
tri4_7_10_14: t7_10_14 - x7_10 - x7_14 - x10_14 >= -2
tri1_7_10_15: t7_10_15 - x7_10 <= 0
tri2_7_10_15: t7_10_15 - x7_15 <= 0
tri3_7_10_15: t7_10_15 - x10_15 <= 0
tri4_7_10_15: t7_10_15 - x7_10 - x7_15 - x10_15 >= -2
tri1_7_10_16: t7_10_16 - x7_10 <= 0
tri2_7_10_16: t7_10_16 - x7_16 <= 0
tri3_7_10_16: t7_10_16 - x10_16 <= 0
tri4_7_10_16: t7_10_16 - x7_10 - x7_16 - x10_16 >= -2
tri1_7_10_17: t7_10_17 - x7_10 <= 0
tri2_7_10_17: t7_10_17 - x7_17 <= 0
tri3_7_10_17: t7_10_17 - x10_17 <= 0
tri4_7_10_17: t7_10_17 - x7_10 - x7_17 - x10_17 >= -2
tri1_7_10_18: t7_10_18 - x7_10 <= 0
tri2_7_10_18: t7_10_18 - x7_18 <= 0
tri3_7_10_18: t7_10_18 - x10_18 <= 0
tri4_7_10_18: t7_10_18 - x7_10 - x7_18 - x10_18 >= -2
tri1_7_10_19: t7_10_19 - x7_10 <= 0
tri2_7_10_19: t7_10_19 - x7_19 <= 0
tri3_7_10_19: t7_10_19 - x10_19 <= 0
tri4_7_10_19: t7_10_19 - x7_10 - x7_19 - x10_19 >= -2
tri1_7_10_20: t7_10_20 - x7_10 <= 0
tri2_7_10_20: t7_10_20 - x7_20 <= 0
tri3_7_10_20: t7_10_20 - x10_20 <= 0
tri4_7_10_20: t7_10_20 - x7_10 - x7_20 - x10_20 >= -2
tri1_7_10_21: t7_10_21 - x7_10 <= 0
tri2_7_10_21: t7_10_21 - x7_21 <= 0
tri3_7_10_21: t7_10_21 - x10_21 <= 0
tri4_7_10_21: t7_10_21 - x7_10 - x7_21 - x10_21 >= -2
tri1_7_11_12: t7_11_12 - x7_11 <= 0
tri2_7_11_12: t7_11_12 - x7_12 <= 0
tri3_7_11_12: t7_11_12 - x11_12 <= 0
tri4_7_11_12: t7_11_12 - x7_11 - x7_12 - x11_12 >= -2
tri1_7_11_13: t7_11_13 - x7_11 <= 0
tri2_7_11_13: t7_11_13 - x7_13 <= 0
tri3_7_11_13: t7_11_13 - x11_13 <= 0
tri4_7_11_13: t7_11_13 - x7_11 - x7_13 - x11_13 >= -2
tri1_7_11_14: t7_11_14 - x7_11 <= 0
tri2_7_11_14: t7_11_14 - x7_14 <= 0
tri3_7_11_14: t7_11_14 - x11_14 <= 0
tri4_7_11_14: t7_11_14 - x7_11 - x7_14 - x11_14 >= -2
tri1_7_11_15: t7_11_15 - x7_11 <= 0
tri2_7_11_15: t7_11_15 - x7_15 <= 0
tri3_7_11_15: t7_11_15 - x11_15 <= 0
tri4_7_11_15: t7_11_15 - x7_11 - x7_15 - x11_15 >= -2
tri1_7_11_16: t7_11_16 - x7_11 <= 0
tri2_7_11_16: t7_11_16 - x7_16 <= 0
tri3_7_11_16: t7_11_16 - x11_16 <= 0
tri4_7_11_16: t7_11_16 - x7_11 - x7_16 - x11_16 >= -2
tri1_7_11_17: t7_11_17 - x7_11 <= 0
tri2_7_11_17: t7_11_17 - x7_17 <= 0
tri3_7_11_17: t7_11_17 - x11_17 <= 0
tri4_7_11_17: t7_11_17 - x7_11 - x7_17 - x11_17 >= -2
tri1_7_11_18: t7_11_18 - x7_11 <= 0
tri2_7_11_18: t7_11_18 - x7_18 <= 0
tri3_7_11_18: t7_11_18 - x11_18 <= 0
tri4_7_11_18: t7_11_18 - x7_11 - x7_18 - x11_18 >= -2
tri1_7_11_19: t7_11_19 - x7_11 <= 0
tri2_7_11_19: t7_11_19 - x7_19 <= 0
tri3_7_11_19: t7_11_19 - x11_19 <= 0
tri4_7_11_19: t7_11_19 - x7_11 - x7_19 - x11_19 >= -2
tri1_7_11_20: t7_11_20 - x7_11 <= 0
tri2_7_11_20: t7_11_20 - x7_20 <= 0
tri3_7_11_20: t7_11_20 - x11_20 <= 0
tri4_7_11_20: t7_11_20 - x7_11 - x7_20 - x11_20 >= -2
tri1_7_11_21: t7_11_21 - x7_11 <= 0
tri2_7_11_21: t7_11_21 - x7_21 <= 0
tri3_7_11_21: t7_11_21 - x11_21 <= 0
tri4_7_11_21: t7_11_21 - x7_11 - x7_21 - x11_21 >= -2
tri1_7_12_13: t7_12_13 - x7_12 <= 0
tri2_7_12_13: t7_12_13 - x7_13 <= 0
tri3_7_12_13: t7_12_13 - x12_13 <= 0
tri4_7_12_13: t7_12_13 - x7_12 - x7_13 - x12_13 >= -2
tri1_7_12_14: t7_12_14 - x7_12 <= 0
tri2_7_12_14: t7_12_14 - x7_14 <= 0
tri3_7_12_14: t7_12_14 - x12_14 <= 0
tri4_7_12_14: t7_12_14 - x7_12 - x7_14 - x12_14 >= -2
tri1_7_12_15: t7_12_15 - x7_12 <= 0
tri2_7_12_15: t7_12_15 - x7_15 <= 0
tri3_7_12_15: t7_12_15 - x12_15 <= 0
tri4_7_12_15: t7_12_15 - x7_12 - x7_15 - x12_15 >= -2
tri1_7_12_16: t7_12_16 - x7_12 <= 0
tri2_7_12_16: t7_12_16 - x7_16 <= 0
tri3_7_12_16: t7_12_16 - x12_16 <= 0
tri4_7_12_16: t7_12_16 - x7_12 - x7_16 - x12_16 >= -2
tri1_7_12_17: t7_12_17 - x7_12 <= 0
tri2_7_12_17: t7_12_17 - x7_17 <= 0
tri3_7_12_17: t7_12_17 - x12_17 <= 0
tri4_7_12_17: t7_12_17 - x7_12 - x7_17 - x12_17 >= -2
tri1_7_12_18: t7_12_18 - x7_12 <= 0
tri2_7_12_18: t7_12_18 - x7_18 <= 0
tri3_7_12_18: t7_12_18 - x12_18 <= 0
tri4_7_12_18: t7_12_18 - x7_12 - x7_18 - x12_18 >= -2
tri1_7_12_19: t7_12_19 - x7_12 <= 0
tri2_7_12_19: t7_12_19 - x7_19 <= 0
tri3_7_12_19: t7_12_19 - x12_19 <= 0
tri4_7_12_19: t7_12_19 - x7_12 - x7_19 - x12_19 >= -2
tri1_7_12_20: t7_12_20 - x7_12 <= 0
tri2_7_12_20: t7_12_20 - x7_20 <= 0
tri3_7_12_20: t7_12_20 - x12_20 <= 0
tri4_7_12_20: t7_12_20 - x7_12 - x7_20 - x12_20 >= -2
tri1_7_12_21: t7_12_21 - x7_12 <= 0
tri2_7_12_21: t7_12_21 - x7_21 <= 0
tri3_7_12_21: t7_12_21 - x12_21 <= 0
tri4_7_12_21: t7_12_21 - x7_12 - x7_21 - x12_21 >= -2
tri1_7_13_14: t7_13_14 - x7_13 <= 0
tri2_7_13_14: t7_13_14 - x7_14 <= 0
tri3_7_13_14: t7_13_14 - x13_14 <= 0
tri4_7_13_14: t7_13_14 - x7_13 - x7_14 - x13_14 >= -2
tri1_7_13_15: t7_13_15 - x7_13 <= 0
tri2_7_13_15: t7_13_15 - x7_15 <= 0
tri3_7_13_15: t7_13_15 - x13_15 <= 0
tri4_7_13_15: t7_13_15 - x7_13 - x7_15 - x13_15 >= -2
tri1_7_13_16: t7_13_16 - x7_13 <= 0
tri2_7_13_16: t7_13_16 - x7_16 <= 0
tri3_7_13_16: t7_13_16 - x13_16 <= 0
tri4_7_13_16: t7_13_16 - x7_13 - x7_16 - x13_16 >= -2
tri1_7_13_17: t7_13_17 - x7_13 <= 0
tri2_7_13_17: t7_13_17 - x7_17 <= 0
tri3_7_13_17: t7_13_17 - x13_17 <= 0
tri4_7_13_17: t7_13_17 - x7_13 - x7_17 - x13_17 >= -2
tri1_7_13_18: t7_13_18 - x7_13 <= 0
tri2_7_13_18: t7_13_18 - x7_18 <= 0
tri3_7_13_18: t7_13_18 - x13_18 <= 0
tri4_7_13_18: t7_13_18 - x7_13 - x7_18 - x13_18 >= -2
tri1_7_13_19: t7_13_19 - x7_13 <= 0
tri2_7_13_19: t7_13_19 - x7_19 <= 0
tri3_7_13_19: t7_13_19 - x13_19 <= 0
tri4_7_13_19: t7_13_19 - x7_13 - x7_19 - x13_19 >= -2
tri1_7_13_20: t7_13_20 - x7_13 <= 0
tri2_7_13_20: t7_13_20 - x7_20 <= 0
tri3_7_13_20: t7_13_20 - x13_20 <= 0
tri4_7_13_20: t7_13_20 - x7_13 - x7_20 - x13_20 >= -2
tri1_7_13_21: t7_13_21 - x7_13 <= 0
tri2_7_13_21: t7_13_21 - x7_21 <= 0
tri3_7_13_21: t7_13_21 - x13_21 <= 0
tri4_7_13_21: t7_13_21 - x7_13 - x7_21 - x13_21 >= -2
tri1_7_14_15: t7_14_15 - x7_14 <= 0
tri2_7_14_15: t7_14_15 - x7_15 <= 0
tri3_7_14_15: t7_14_15 - x14_15 <= 0
tri4_7_14_15: t7_14_15 - x7_14 - x7_15 - x14_15 >= -2
tri1_7_14_16: t7_14_16 - x7_14 <= 0
tri2_7_14_16: t7_14_16 - x7_16 <= 0
tri3_7_14_16: t7_14_16 - x14_16 <= 0
tri4_7_14_16: t7_14_16 - x7_14 - x7_16 - x14_16 >= -2
tri1_7_14_17: t7_14_17 - x7_14 <= 0
tri2_7_14_17: t7_14_17 - x7_17 <= 0
tri3_7_14_17: t7_14_17 - x14_17 <= 0
tri4_7_14_17: t7_14_17 - x7_14 - x7_17 - x14_17 >= -2
tri1_7_14_18: t7_14_18 - x7_14 <= 0
tri2_7_14_18: t7_14_18 - x7_18 <= 0
tri3_7_14_18: t7_14_18 - x14_18 <= 0
tri4_7_14_18: t7_14_18 - x7_14 - x7_18 - x14_18 >= -2
tri1_7_14_19: t7_14_19 - x7_14 <= 0
tri2_7_14_19: t7_14_19 - x7_19 <= 0
tri3_7_14_19: t7_14_19 - x14_19 <= 0
tri4_7_14_19: t7_14_19 - x7_14 - x7_19 - x14_19 >= -2
tri1_7_14_20: t7_14_20 - x7_14 <= 0
tri2_7_14_20: t7_14_20 - x7_20 <= 0
tri3_7_14_20: t7_14_20 - x14_20 <= 0
tri4_7_14_20: t7_14_20 - x7_14 - x7_20 - x14_20 >= -2
tri1_7_14_21: t7_14_21 - x7_14 <= 0
tri2_7_14_21: t7_14_21 - x7_21 <= 0
tri3_7_14_21: t7_14_21 - x14_21 <= 0
tri4_7_14_21: t7_14_21 - x7_14 - x7_21 - x14_21 >= -2
tri1_7_15_16: t7_15_16 - x7_15 <= 0
tri2_7_15_16: t7_15_16 - x7_16 <= 0
tri3_7_15_16: t7_15_16 - x15_16 <= 0
tri4_7_15_16: t7_15_16 - x7_15 - x7_16 - x15_16 >= -2
tri1_7_15_17: t7_15_17 - x7_15 <= 0
tri2_7_15_17: t7_15_17 - x7_17 <= 0
tri3_7_15_17: t7_15_17 - x15_17 <= 0
tri4_7_15_17: t7_15_17 - x7_15 - x7_17 - x15_17 >= -2
tri1_7_15_18: t7_15_18 - x7_15 <= 0
tri2_7_15_18: t7_15_18 - x7_18 <= 0
tri3_7_15_18: t7_15_18 - x15_18 <= 0
tri4_7_15_18: t7_15_18 - x7_15 - x7_18 - x15_18 >= -2
tri1_7_15_19: t7_15_19 - x7_15 <= 0
tri2_7_15_19: t7_15_19 - x7_19 <= 0
tri3_7_15_19: t7_15_19 - x15_19 <= 0
tri4_7_15_19: t7_15_19 - x7_15 - x7_19 - x15_19 >= -2
tri1_7_15_20: t7_15_20 - x7_15 <= 0
tri2_7_15_20: t7_15_20 - x7_20 <= 0
tri3_7_15_20: t7_15_20 - x15_20 <= 0
tri4_7_15_20: t7_15_20 - x7_15 - x7_20 - x15_20 >= -2
tri1_7_15_21: t7_15_21 - x7_15 <= 0
tri2_7_15_21: t7_15_21 - x7_21 <= 0
tri3_7_15_21: t7_15_21 - x15_21 <= 0
tri4_7_15_21: t7_15_21 - x7_15 - x7_21 - x15_21 >= -2
tri1_7_16_17: t7_16_17 - x7_16 <= 0
tri2_7_16_17: t7_16_17 - x7_17 <= 0
tri3_7_16_17: t7_16_17 - x16_17 <= 0
tri4_7_16_17: t7_16_17 - x7_16 - x7_17 - x16_17 >= -2
tri1_7_16_18: t7_16_18 - x7_16 <= 0
tri2_7_16_18: t7_16_18 - x7_18 <= 0
tri3_7_16_18: t7_16_18 - x16_18 <= 0
tri4_7_16_18: t7_16_18 - x7_16 - x7_18 - x16_18 >= -2
tri1_7_16_19: t7_16_19 - x7_16 <= 0
tri2_7_16_19: t7_16_19 - x7_19 <= 0
tri3_7_16_19: t7_16_19 - x16_19 <= 0
tri4_7_16_19: t7_16_19 - x7_16 - x7_19 - x16_19 >= -2
tri1_7_16_20: t7_16_20 - x7_16 <= 0
tri2_7_16_20: t7_16_20 - x7_20 <= 0
tri3_7_16_20: t7_16_20 - x16_20 <= 0
tri4_7_16_20: t7_16_20 - x7_16 - x7_20 - x16_20 >= -2
tri1_7_16_21: t7_16_21 - x7_16 <= 0
tri2_7_16_21: t7_16_21 - x7_21 <= 0
tri3_7_16_21: t7_16_21 - x16_21 <= 0
tri4_7_16_21: t7_16_21 - x7_16 - x7_21 - x16_21 >= -2
tri1_7_17_18: t7_17_18 - x7_17 <= 0
tri2_7_17_18: t7_17_18 - x7_18 <= 0
tri3_7_17_18: t7_17_18 - x17_18 <= 0
tri4_7_17_18: t7_17_18 - x7_17 - x7_18 - x17_18 >= -2
tri1_7_17_19: t7_17_19 - x7_17 <= 0
tri2_7_17_19: t7_17_19 - x7_19 <= 0
tri3_7_17_19: t7_17_19 - x17_19 <= 0
tri4_7_17_19: t7_17_19 - x7_17 - x7_19 - x17_19 >= -2
tri1_7_17_20: t7_17_20 - x7_17 <= 0
tri2_7_17_20: t7_17_20 - x7_20 <= 0
tri3_7_17_20: t7_17_20 - x17_20 <= 0
tri4_7_17_20: t7_17_20 - x7_17 - x7_20 - x17_20 >= -2
tri1_7_17_21: t7_17_21 - x7_17 <= 0
tri2_7_17_21: t7_17_21 - x7_21 <= 0
tri3_7_17_21: t7_17_21 - x17_21 <= 0
tri4_7_17_21: t7_17_21 - x7_17 - x7_21 - x17_21 >= -2
tri1_7_18_19: t7_18_19 - x7_18 <= 0
tri2_7_18_19: t7_18_19 - x7_19 <= 0
tri3_7_18_19: t7_18_19 - x18_19 <= 0
tri4_7_18_19: t7_18_19 - x7_18 - x7_19 - x18_19 >= -2
tri1_7_18_20: t7_18_20 - x7_18 <= 0
tri2_7_18_20: t7_18_20 - x7_20 <= 0
tri3_7_18_20: t7_18_20 - x18_20 <= 0
tri4_7_18_20: t7_18_20 - x7_18 - x7_20 - x18_20 >= -2
tri1_7_18_21: t7_18_21 - x7_18 <= 0
tri2_7_18_21: t7_18_21 - x7_21 <= 0
tri3_7_18_21: t7_18_21 - x18_21 <= 0
tri4_7_18_21: t7_18_21 - x7_18 - x7_21 - x18_21 >= -2
tri1_7_19_20: t7_19_20 - x7_19 <= 0
tri2_7_19_20: t7_19_20 - x7_20 <= 0
tri3_7_19_20: t7_19_20 - x19_20 <= 0
tri4_7_19_20: t7_19_20 - x7_19 - x7_20 - x19_20 >= -2
tri1_7_19_21: t7_19_21 - x7_19 <= 0
tri2_7_19_21: t7_19_21 - x7_21 <= 0
tri3_7_19_21: t7_19_21 - x19_21 <= 0
tri4_7_19_21: t7_19_21 - x7_19 - x7_21 - x19_21 >= -2
tri1_7_20_21: t7_20_21 - x7_20 <= 0
tri2_7_20_21: t7_20_21 - x7_21 <= 0
tri3_7_20_21: t7_20_21 - x20_21 <= 0
tri4_7_20_21: t7_20_21 - x7_20 - x7_21 - x20_21 >= -2
tri1_8_9_10: t8_9_10 - x8_9 <= 0
tri2_8_9_10: t8_9_10 - x8_10 <= 0
tri3_8_9_10: t8_9_10 - x9_10 <= 0
tri4_8_9_10: t8_9_10 - x8_9 - x8_10 - x9_10 >= -2
tri1_8_9_11: t8_9_11 - x8_9 <= 0
tri2_8_9_11: t8_9_11 - x8_11 <= 0
tri3_8_9_11: t8_9_11 - x9_11 <= 0
tri4_8_9_11: t8_9_11 - x8_9 - x8_11 - x9_11 >= -2
tri1_8_9_12: t8_9_12 - x8_9 <= 0
tri2_8_9_12: t8_9_12 - x8_12 <= 0
tri3_8_9_12: t8_9_12 - x9_12 <= 0
tri4_8_9_12: t8_9_12 - x8_9 - x8_12 - x9_12 >= -2
tri1_8_9_13: t8_9_13 - x8_9 <= 0
tri2_8_9_13: t8_9_13 - x8_13 <= 0
tri3_8_9_13: t8_9_13 - x9_13 <= 0
tri4_8_9_13: t8_9_13 - x8_9 - x8_13 - x9_13 >= -2
tri1_8_9_14: t8_9_14 - x8_9 <= 0
tri2_8_9_14: t8_9_14 - x8_14 <= 0
tri3_8_9_14: t8_9_14 - x9_14 <= 0
tri4_8_9_14: t8_9_14 - x8_9 - x8_14 - x9_14 >= -2
tri1_8_9_15: t8_9_15 - x8_9 <= 0
tri2_8_9_15: t8_9_15 - x8_15 <= 0
tri3_8_9_15: t8_9_15 - x9_15 <= 0
tri4_8_9_15: t8_9_15 - x8_9 - x8_15 - x9_15 >= -2
tri1_8_9_16: t8_9_16 - x8_9 <= 0
tri2_8_9_16: t8_9_16 - x8_16 <= 0
tri3_8_9_16: t8_9_16 - x9_16 <= 0
tri4_8_9_16: t8_9_16 - x8_9 - x8_16 - x9_16 >= -2
tri1_8_9_17: t8_9_17 - x8_9 <= 0
tri2_8_9_17: t8_9_17 - x8_17 <= 0
tri3_8_9_17: t8_9_17 - x9_17 <= 0
tri4_8_9_17: t8_9_17 - x8_9 - x8_17 - x9_17 >= -2
tri1_8_9_18: t8_9_18 - x8_9 <= 0
tri2_8_9_18: t8_9_18 - x8_18 <= 0
tri3_8_9_18: t8_9_18 - x9_18 <= 0
tri4_8_9_18: t8_9_18 - x8_9 - x8_18 - x9_18 >= -2
tri1_8_9_19: t8_9_19 - x8_9 <= 0
tri2_8_9_19: t8_9_19 - x8_19 <= 0
tri3_8_9_19: t8_9_19 - x9_19 <= 0
tri4_8_9_19: t8_9_19 - x8_9 - x8_19 - x9_19 >= -2
tri1_8_9_20: t8_9_20 - x8_9 <= 0
tri2_8_9_20: t8_9_20 - x8_20 <= 0
tri3_8_9_20: t8_9_20 - x9_20 <= 0
tri4_8_9_20: t8_9_20 - x8_9 - x8_20 - x9_20 >= -2
tri1_8_9_21: t8_9_21 - x8_9 <= 0
tri2_8_9_21: t8_9_21 - x8_21 <= 0
tri3_8_9_21: t8_9_21 - x9_21 <= 0
tri4_8_9_21: t8_9_21 - x8_9 - x8_21 - x9_21 >= -2
tri1_8_10_11: t8_10_11 - x8_10 <= 0
tri2_8_10_11: t8_10_11 - x8_11 <= 0
tri3_8_10_11: t8_10_11 - x10_11 <= 0
tri4_8_10_11: t8_10_11 - x8_10 - x8_11 - x10_11 >= -2
tri1_8_10_12: t8_10_12 - x8_10 <= 0
tri2_8_10_12: t8_10_12 - x8_12 <= 0
tri3_8_10_12: t8_10_12 - x10_12 <= 0
tri4_8_10_12: t8_10_12 - x8_10 - x8_12 - x10_12 >= -2
tri1_8_10_13: t8_10_13 - x8_10 <= 0
tri2_8_10_13: t8_10_13 - x8_13 <= 0
tri3_8_10_13: t8_10_13 - x10_13 <= 0
tri4_8_10_13: t8_10_13 - x8_10 - x8_13 - x10_13 >= -2
tri1_8_10_14: t8_10_14 - x8_10 <= 0
tri2_8_10_14: t8_10_14 - x8_14 <= 0
tri3_8_10_14: t8_10_14 - x10_14 <= 0
tri4_8_10_14: t8_10_14 - x8_10 - x8_14 - x10_14 >= -2
tri1_8_10_15: t8_10_15 - x8_10 <= 0
tri2_8_10_15: t8_10_15 - x8_15 <= 0
tri3_8_10_15: t8_10_15 - x10_15 <= 0
tri4_8_10_15: t8_10_15 - x8_10 - x8_15 - x10_15 >= -2
tri1_8_10_16: t8_10_16 - x8_10 <= 0
tri2_8_10_16: t8_10_16 - x8_16 <= 0
tri3_8_10_16: t8_10_16 - x10_16 <= 0
tri4_8_10_16: t8_10_16 - x8_10 - x8_16 - x10_16 >= -2
tri1_8_10_17: t8_10_17 - x8_10 <= 0
tri2_8_10_17: t8_10_17 - x8_17 <= 0
tri3_8_10_17: t8_10_17 - x10_17 <= 0
tri4_8_10_17: t8_10_17 - x8_10 - x8_17 - x10_17 >= -2
tri1_8_10_18: t8_10_18 - x8_10 <= 0
tri2_8_10_18: t8_10_18 - x8_18 <= 0
tri3_8_10_18: t8_10_18 - x10_18 <= 0
tri4_8_10_18: t8_10_18 - x8_10 - x8_18 - x10_18 >= -2
tri1_8_10_19: t8_10_19 - x8_10 <= 0
tri2_8_10_19: t8_10_19 - x8_19 <= 0
tri3_8_10_19: t8_10_19 - x10_19 <= 0
tri4_8_10_19: t8_10_19 - x8_10 - x8_19 - x10_19 >= -2
tri1_8_10_20: t8_10_20 - x8_10 <= 0
tri2_8_10_20: t8_10_20 - x8_20 <= 0
tri3_8_10_20: t8_10_20 - x10_20 <= 0
tri4_8_10_20: t8_10_20 - x8_10 - x8_20 - x10_20 >= -2
tri1_8_10_21: t8_10_21 - x8_10 <= 0
tri2_8_10_21: t8_10_21 - x8_21 <= 0
tri3_8_10_21: t8_10_21 - x10_21 <= 0
tri4_8_10_21: t8_10_21 - x8_10 - x8_21 - x10_21 >= -2
tri1_8_11_12: t8_11_12 - x8_11 <= 0
tri2_8_11_12: t8_11_12 - x8_12 <= 0
tri3_8_11_12: t8_11_12 - x11_12 <= 0
tri4_8_11_12: t8_11_12 - x8_11 - x8_12 - x11_12 >= -2
tri1_8_11_13: t8_11_13 - x8_11 <= 0
tri2_8_11_13: t8_11_13 - x8_13 <= 0
tri3_8_11_13: t8_11_13 - x11_13 <= 0
tri4_8_11_13: t8_11_13 - x8_11 - x8_13 - x11_13 >= -2
tri1_8_11_14: t8_11_14 - x8_11 <= 0
tri2_8_11_14: t8_11_14 - x8_14 <= 0
tri3_8_11_14: t8_11_14 - x11_14 <= 0
tri4_8_11_14: t8_11_14 - x8_11 - x8_14 - x11_14 >= -2
tri1_8_11_15: t8_11_15 - x8_11 <= 0
tri2_8_11_15: t8_11_15 - x8_15 <= 0
tri3_8_11_15: t8_11_15 - x11_15 <= 0
tri4_8_11_15: t8_11_15 - x8_11 - x8_15 - x11_15 >= -2
tri1_8_11_16: t8_11_16 - x8_11 <= 0
tri2_8_11_16: t8_11_16 - x8_16 <= 0
tri3_8_11_16: t8_11_16 - x11_16 <= 0
tri4_8_11_16: t8_11_16 - x8_11 - x8_16 - x11_16 >= -2
tri1_8_11_17: t8_11_17 - x8_11 <= 0
tri2_8_11_17: t8_11_17 - x8_17 <= 0
tri3_8_11_17: t8_11_17 - x11_17 <= 0
tri4_8_11_17: t8_11_17 - x8_11 - x8_17 - x11_17 >= -2
tri1_8_11_18: t8_11_18 - x8_11 <= 0
tri2_8_11_18: t8_11_18 - x8_18 <= 0
tri3_8_11_18: t8_11_18 - x11_18 <= 0
tri4_8_11_18: t8_11_18 - x8_11 - x8_18 - x11_18 >= -2
tri1_8_11_19: t8_11_19 - x8_11 <= 0
tri2_8_11_19: t8_11_19 - x8_19 <= 0
tri3_8_11_19: t8_11_19 - x11_19 <= 0
tri4_8_11_19: t8_11_19 - x8_11 - x8_19 - x11_19 >= -2
tri1_8_11_20: t8_11_20 - x8_11 <= 0
tri2_8_11_20: t8_11_20 - x8_20 <= 0
tri3_8_11_20: t8_11_20 - x11_20 <= 0
tri4_8_11_20: t8_11_20 - x8_11 - x8_20 - x11_20 >= -2
tri1_8_11_21: t8_11_21 - x8_11 <= 0
tri2_8_11_21: t8_11_21 - x8_21 <= 0
tri3_8_11_21: t8_11_21 - x11_21 <= 0
tri4_8_11_21: t8_11_21 - x8_11 - x8_21 - x11_21 >= -2
tri1_8_12_13: t8_12_13 - x8_12 <= 0
tri2_8_12_13: t8_12_13 - x8_13 <= 0
tri3_8_12_13: t8_12_13 - x12_13 <= 0
tri4_8_12_13: t8_12_13 - x8_12 - x8_13 - x12_13 >= -2
tri1_8_12_14: t8_12_14 - x8_12 <= 0
tri2_8_12_14: t8_12_14 - x8_14 <= 0
tri3_8_12_14: t8_12_14 - x12_14 <= 0
tri4_8_12_14: t8_12_14 - x8_12 - x8_14 - x12_14 >= -2
tri1_8_12_15: t8_12_15 - x8_12 <= 0
tri2_8_12_15: t8_12_15 - x8_15 <= 0
tri3_8_12_15: t8_12_15 - x12_15 <= 0
tri4_8_12_15: t8_12_15 - x8_12 - x8_15 - x12_15 >= -2
tri1_8_12_16: t8_12_16 - x8_12 <= 0
tri2_8_12_16: t8_12_16 - x8_16 <= 0
tri3_8_12_16: t8_12_16 - x12_16 <= 0
tri4_8_12_16: t8_12_16 - x8_12 - x8_16 - x12_16 >= -2
tri1_8_12_17: t8_12_17 - x8_12 <= 0
tri2_8_12_17: t8_12_17 - x8_17 <= 0
tri3_8_12_17: t8_12_17 - x12_17 <= 0
tri4_8_12_17: t8_12_17 - x8_12 - x8_17 - x12_17 >= -2
tri1_8_12_18: t8_12_18 - x8_12 <= 0
tri2_8_12_18: t8_12_18 - x8_18 <= 0
tri3_8_12_18: t8_12_18 - x12_18 <= 0
tri4_8_12_18: t8_12_18 - x8_12 - x8_18 - x12_18 >= -2
tri1_8_12_19: t8_12_19 - x8_12 <= 0
tri2_8_12_19: t8_12_19 - x8_19 <= 0
tri3_8_12_19: t8_12_19 - x12_19 <= 0
tri4_8_12_19: t8_12_19 - x8_12 - x8_19 - x12_19 >= -2
tri1_8_12_20: t8_12_20 - x8_12 <= 0
tri2_8_12_20: t8_12_20 - x8_20 <= 0
tri3_8_12_20: t8_12_20 - x12_20 <= 0
tri4_8_12_20: t8_12_20 - x8_12 - x8_20 - x12_20 >= -2
tri1_8_12_21: t8_12_21 - x8_12 <= 0
tri2_8_12_21: t8_12_21 - x8_21 <= 0
tri3_8_12_21: t8_12_21 - x12_21 <= 0
tri4_8_12_21: t8_12_21 - x8_12 - x8_21 - x12_21 >= -2
tri1_8_13_14: t8_13_14 - x8_13 <= 0
tri2_8_13_14: t8_13_14 - x8_14 <= 0
tri3_8_13_14: t8_13_14 - x13_14 <= 0
tri4_8_13_14: t8_13_14 - x8_13 - x8_14 - x13_14 >= -2
tri1_8_13_15: t8_13_15 - x8_13 <= 0
tri2_8_13_15: t8_13_15 - x8_15 <= 0
tri3_8_13_15: t8_13_15 - x13_15 <= 0
tri4_8_13_15: t8_13_15 - x8_13 - x8_15 - x13_15 >= -2
tri1_8_13_16: t8_13_16 - x8_13 <= 0
tri2_8_13_16: t8_13_16 - x8_16 <= 0
tri3_8_13_16: t8_13_16 - x13_16 <= 0
tri4_8_13_16: t8_13_16 - x8_13 - x8_16 - x13_16 >= -2
tri1_8_13_17: t8_13_17 - x8_13 <= 0
tri2_8_13_17: t8_13_17 - x8_17 <= 0
tri3_8_13_17: t8_13_17 - x13_17 <= 0
tri4_8_13_17: t8_13_17 - x8_13 - x8_17 - x13_17 >= -2
tri1_8_13_18: t8_13_18 - x8_13 <= 0
tri2_8_13_18: t8_13_18 - x8_18 <= 0
tri3_8_13_18: t8_13_18 - x13_18 <= 0
tri4_8_13_18: t8_13_18 - x8_13 - x8_18 - x13_18 >= -2
tri1_8_13_19: t8_13_19 - x8_13 <= 0
tri2_8_13_19: t8_13_19 - x8_19 <= 0
tri3_8_13_19: t8_13_19 - x13_19 <= 0
tri4_8_13_19: t8_13_19 - x8_13 - x8_19 - x13_19 >= -2
tri1_8_13_20: t8_13_20 - x8_13 <= 0
tri2_8_13_20: t8_13_20 - x8_20 <= 0
tri3_8_13_20: t8_13_20 - x13_20 <= 0
tri4_8_13_20: t8_13_20 - x8_13 - x8_20 - x13_20 >= -2
tri1_8_13_21: t8_13_21 - x8_13 <= 0
tri2_8_13_21: t8_13_21 - x8_21 <= 0
tri3_8_13_21: t8_13_21 - x13_21 <= 0
tri4_8_13_21: t8_13_21 - x8_13 - x8_21 - x13_21 >= -2
tri1_8_14_15: t8_14_15 - x8_14 <= 0
tri2_8_14_15: t8_14_15 - x8_15 <= 0
tri3_8_14_15: t8_14_15 - x14_15 <= 0
tri4_8_14_15: t8_14_15 - x8_14 - x8_15 - x14_15 >= -2
tri1_8_14_16: t8_14_16 - x8_14 <= 0
tri2_8_14_16: t8_14_16 - x8_16 <= 0
tri3_8_14_16: t8_14_16 - x14_16 <= 0
tri4_8_14_16: t8_14_16 - x8_14 - x8_16 - x14_16 >= -2
tri1_8_14_17: t8_14_17 - x8_14 <= 0
tri2_8_14_17: t8_14_17 - x8_17 <= 0
tri3_8_14_17: t8_14_17 - x14_17 <= 0
tri4_8_14_17: t8_14_17 - x8_14 - x8_17 - x14_17 >= -2
tri1_8_14_18: t8_14_18 - x8_14 <= 0
tri2_8_14_18: t8_14_18 - x8_18 <= 0
tri3_8_14_18: t8_14_18 - x14_18 <= 0
tri4_8_14_18: t8_14_18 - x8_14 - x8_18 - x14_18 >= -2
tri1_8_14_19: t8_14_19 - x8_14 <= 0
tri2_8_14_19: t8_14_19 - x8_19 <= 0
tri3_8_14_19: t8_14_19 - x14_19 <= 0
tri4_8_14_19: t8_14_19 - x8_14 - x8_19 - x14_19 >= -2
tri1_8_14_20: t8_14_20 - x8_14 <= 0
tri2_8_14_20: t8_14_20 - x8_20 <= 0
tri3_8_14_20: t8_14_20 - x14_20 <= 0
tri4_8_14_20: t8_14_20 - x8_14 - x8_20 - x14_20 >= -2
tri1_8_14_21: t8_14_21 - x8_14 <= 0
tri2_8_14_21: t8_14_21 - x8_21 <= 0
tri3_8_14_21: t8_14_21 - x14_21 <= 0
tri4_8_14_21: t8_14_21 - x8_14 - x8_21 - x14_21 >= -2
tri1_8_15_16: t8_15_16 - x8_15 <= 0
tri2_8_15_16: t8_15_16 - x8_16 <= 0
tri3_8_15_16: t8_15_16 - x15_16 <= 0
tri4_8_15_16: t8_15_16 - x8_15 - x8_16 - x15_16 >= -2
tri1_8_15_17: t8_15_17 - x8_15 <= 0
tri2_8_15_17: t8_15_17 - x8_17 <= 0
tri3_8_15_17: t8_15_17 - x15_17 <= 0
tri4_8_15_17: t8_15_17 - x8_15 - x8_17 - x15_17 >= -2
tri1_8_15_18: t8_15_18 - x8_15 <= 0
tri2_8_15_18: t8_15_18 - x8_18 <= 0
tri3_8_15_18: t8_15_18 - x15_18 <= 0
tri4_8_15_18: t8_15_18 - x8_15 - x8_18 - x15_18 >= -2
tri1_8_15_19: t8_15_19 - x8_15 <= 0
tri2_8_15_19: t8_15_19 - x8_19 <= 0
tri3_8_15_19: t8_15_19 - x15_19 <= 0
tri4_8_15_19: t8_15_19 - x8_15 - x8_19 - x15_19 >= -2
tri1_8_15_20: t8_15_20 - x8_15 <= 0
tri2_8_15_20: t8_15_20 - x8_20 <= 0
tri3_8_15_20: t8_15_20 - x15_20 <= 0
tri4_8_15_20: t8_15_20 - x8_15 - x8_20 - x15_20 >= -2
tri1_8_15_21: t8_15_21 - x8_15 <= 0
tri2_8_15_21: t8_15_21 - x8_21 <= 0
tri3_8_15_21: t8_15_21 - x15_21 <= 0
tri4_8_15_21: t8_15_21 - x8_15 - x8_21 - x15_21 >= -2
tri1_8_16_17: t8_16_17 - x8_16 <= 0
tri2_8_16_17: t8_16_17 - x8_17 <= 0
tri3_8_16_17: t8_16_17 - x16_17 <= 0
tri4_8_16_17: t8_16_17 - x8_16 - x8_17 - x16_17 >= -2
tri1_8_16_18: t8_16_18 - x8_16 <= 0
tri2_8_16_18: t8_16_18 - x8_18 <= 0
tri3_8_16_18: t8_16_18 - x16_18 <= 0
tri4_8_16_18: t8_16_18 - x8_16 - x8_18 - x16_18 >= -2
tri1_8_16_19: t8_16_19 - x8_16 <= 0
tri2_8_16_19: t8_16_19 - x8_19 <= 0
tri3_8_16_19: t8_16_19 - x16_19 <= 0
tri4_8_16_19: t8_16_19 - x8_16 - x8_19 - x16_19 >= -2
tri1_8_16_20: t8_16_20 - x8_16 <= 0
tri2_8_16_20: t8_16_20 - x8_20 <= 0
tri3_8_16_20: t8_16_20 - x16_20 <= 0
tri4_8_16_20: t8_16_20 - x8_16 - x8_20 - x16_20 >= -2
tri1_8_16_21: t8_16_21 - x8_16 <= 0
tri2_8_16_21: t8_16_21 - x8_21 <= 0
tri3_8_16_21: t8_16_21 - x16_21 <= 0
tri4_8_16_21: t8_16_21 - x8_16 - x8_21 - x16_21 >= -2
tri1_8_17_18: t8_17_18 - x8_17 <= 0
tri2_8_17_18: t8_17_18 - x8_18 <= 0
tri3_8_17_18: t8_17_18 - x17_18 <= 0
tri4_8_17_18: t8_17_18 - x8_17 - x8_18 - x17_18 >= -2
tri1_8_17_19: t8_17_19 - x8_17 <= 0
tri2_8_17_19: t8_17_19 - x8_19 <= 0
tri3_8_17_19: t8_17_19 - x17_19 <= 0
tri4_8_17_19: t8_17_19 - x8_17 - x8_19 - x17_19 >= -2
tri1_8_17_20: t8_17_20 - x8_17 <= 0
tri2_8_17_20: t8_17_20 - x8_20 <= 0
tri3_8_17_20: t8_17_20 - x17_20 <= 0
tri4_8_17_20: t8_17_20 - x8_17 - x8_20 - x17_20 >= -2
tri1_8_17_21: t8_17_21 - x8_17 <= 0
tri2_8_17_21: t8_17_21 - x8_21 <= 0
tri3_8_17_21: t8_17_21 - x17_21 <= 0
tri4_8_17_21: t8_17_21 - x8_17 - x8_21 - x17_21 >= -2
tri1_8_18_19: t8_18_19 - x8_18 <= 0
tri2_8_18_19: t8_18_19 - x8_19 <= 0
tri3_8_18_19: t8_18_19 - x18_19 <= 0
tri4_8_18_19: t8_18_19 - x8_18 - x8_19 - x18_19 >= -2
tri1_8_18_20: t8_18_20 - x8_18 <= 0
tri2_8_18_20: t8_18_20 - x8_20 <= 0
tri3_8_18_20: t8_18_20 - x18_20 <= 0
tri4_8_18_20: t8_18_20 - x8_18 - x8_20 - x18_20 >= -2
tri1_8_18_21: t8_18_21 - x8_18 <= 0
tri2_8_18_21: t8_18_21 - x8_21 <= 0
tri3_8_18_21: t8_18_21 - x18_21 <= 0
tri4_8_18_21: t8_18_21 - x8_18 - x8_21 - x18_21 >= -2
tri1_8_19_20: t8_19_20 - x8_19 <= 0
tri2_8_19_20: t8_19_20 - x8_20 <= 0
tri3_8_19_20: t8_19_20 - x19_20 <= 0
tri4_8_19_20: t8_19_20 - x8_19 - x8_20 - x19_20 >= -2
tri1_8_19_21: t8_19_21 - x8_19 <= 0
tri2_8_19_21: t8_19_21 - x8_21 <= 0
tri3_8_19_21: t8_19_21 - x19_21 <= 0
tri4_8_19_21: t8_19_21 - x8_19 - x8_21 - x19_21 >= -2
tri1_8_20_21: t8_20_21 - x8_20 <= 0
tri2_8_20_21: t8_20_21 - x8_21 <= 0
tri3_8_20_21: t8_20_21 - x20_21 <= 0
tri4_8_20_21: t8_20_21 - x8_20 - x8_21 - x20_21 >= -2
tri1_9_10_11: t9_10_11 - x9_10 <= 0
tri2_9_10_11: t9_10_11 - x9_11 <= 0
tri3_9_10_11: t9_10_11 - x10_11 <= 0
tri4_9_10_11: t9_10_11 - x9_10 - x9_11 - x10_11 >= -2
tri1_9_10_12: t9_10_12 - x9_10 <= 0
tri2_9_10_12: t9_10_12 - x9_12 <= 0
tri3_9_10_12: t9_10_12 - x10_12 <= 0
tri4_9_10_12: t9_10_12 - x9_10 - x9_12 - x10_12 >= -2
tri1_9_10_13: t9_10_13 - x9_10 <= 0
tri2_9_10_13: t9_10_13 - x9_13 <= 0
tri3_9_10_13: t9_10_13 - x10_13 <= 0
tri4_9_10_13: t9_10_13 - x9_10 - x9_13 - x10_13 >= -2
tri1_9_10_14: t9_10_14 - x9_10 <= 0
tri2_9_10_14: t9_10_14 - x9_14 <= 0
tri3_9_10_14: t9_10_14 - x10_14 <= 0
tri4_9_10_14: t9_10_14 - x9_10 - x9_14 - x10_14 >= -2
tri1_9_10_15: t9_10_15 - x9_10 <= 0
tri2_9_10_15: t9_10_15 - x9_15 <= 0
tri3_9_10_15: t9_10_15 - x10_15 <= 0
tri4_9_10_15: t9_10_15 - x9_10 - x9_15 - x10_15 >= -2
tri1_9_10_16: t9_10_16 - x9_10 <= 0
tri2_9_10_16: t9_10_16 - x9_16 <= 0
tri3_9_10_16: t9_10_16 - x10_16 <= 0
tri4_9_10_16: t9_10_16 - x9_10 - x9_16 - x10_16 >= -2
tri1_9_10_17: t9_10_17 - x9_10 <= 0
tri2_9_10_17: t9_10_17 - x9_17 <= 0
tri3_9_10_17: t9_10_17 - x10_17 <= 0
tri4_9_10_17: t9_10_17 - x9_10 - x9_17 - x10_17 >= -2
tri1_9_10_18: t9_10_18 - x9_10 <= 0
tri2_9_10_18: t9_10_18 - x9_18 <= 0
tri3_9_10_18: t9_10_18 - x10_18 <= 0
tri4_9_10_18: t9_10_18 - x9_10 - x9_18 - x10_18 >= -2
tri1_9_10_19: t9_10_19 - x9_10 <= 0
tri2_9_10_19: t9_10_19 - x9_19 <= 0
tri3_9_10_19: t9_10_19 - x10_19 <= 0
tri4_9_10_19: t9_10_19 - x9_10 - x9_19 - x10_19 >= -2
tri1_9_10_20: t9_10_20 - x9_10 <= 0
tri2_9_10_20: t9_10_20 - x9_20 <= 0
tri3_9_10_20: t9_10_20 - x10_20 <= 0
tri4_9_10_20: t9_10_20 - x9_10 - x9_20 - x10_20 >= -2
tri1_9_10_21: t9_10_21 - x9_10 <= 0
tri2_9_10_21: t9_10_21 - x9_21 <= 0
tri3_9_10_21: t9_10_21 - x10_21 <= 0
tri4_9_10_21: t9_10_21 - x9_10 - x9_21 - x10_21 >= -2
tri1_9_11_12: t9_11_12 - x9_11 <= 0
tri2_9_11_12: t9_11_12 - x9_12 <= 0
tri3_9_11_12: t9_11_12 - x11_12 <= 0
tri4_9_11_12: t9_11_12 - x9_11 - x9_12 - x11_12 >= -2
tri1_9_11_13: t9_11_13 - x9_11 <= 0
tri2_9_11_13: t9_11_13 - x9_13 <= 0
tri3_9_11_13: t9_11_13 - x11_13 <= 0
tri4_9_11_13: t9_11_13 - x9_11 - x9_13 - x11_13 >= -2
tri1_9_11_14: t9_11_14 - x9_11 <= 0
tri2_9_11_14: t9_11_14 - x9_14 <= 0
tri3_9_11_14: t9_11_14 - x11_14 <= 0
tri4_9_11_14: t9_11_14 - x9_11 - x9_14 - x11_14 >= -2
tri1_9_11_15: t9_11_15 - x9_11 <= 0
tri2_9_11_15: t9_11_15 - x9_15 <= 0
tri3_9_11_15: t9_11_15 - x11_15 <= 0
tri4_9_11_15: t9_11_15 - x9_11 - x9_15 - x11_15 >= -2
tri1_9_11_16: t9_11_16 - x9_11 <= 0
tri2_9_11_16: t9_11_16 - x9_16 <= 0
tri3_9_11_16: t9_11_16 - x11_16 <= 0
tri4_9_11_16: t9_11_16 - x9_11 - x9_16 - x11_16 >= -2
tri1_9_11_17: t9_11_17 - x9_11 <= 0
tri2_9_11_17: t9_11_17 - x9_17 <= 0
tri3_9_11_17: t9_11_17 - x11_17 <= 0
tri4_9_11_17: t9_11_17 - x9_11 - x9_17 - x11_17 >= -2
tri1_9_11_18: t9_11_18 - x9_11 <= 0
tri2_9_11_18: t9_11_18 - x9_18 <= 0
tri3_9_11_18: t9_11_18 - x11_18 <= 0
tri4_9_11_18: t9_11_18 - x9_11 - x9_18 - x11_18 >= -2
tri1_9_11_19: t9_11_19 - x9_11 <= 0
tri2_9_11_19: t9_11_19 - x9_19 <= 0
tri3_9_11_19: t9_11_19 - x11_19 <= 0
tri4_9_11_19: t9_11_19 - x9_11 - x9_19 - x11_19 >= -2
tri1_9_11_20: t9_11_20 - x9_11 <= 0
tri2_9_11_20: t9_11_20 - x9_20 <= 0
tri3_9_11_20: t9_11_20 - x11_20 <= 0
tri4_9_11_20: t9_11_20 - x9_11 - x9_20 - x11_20 >= -2
tri1_9_11_21: t9_11_21 - x9_11 <= 0
tri2_9_11_21: t9_11_21 - x9_21 <= 0
tri3_9_11_21: t9_11_21 - x11_21 <= 0
tri4_9_11_21: t9_11_21 - x9_11 - x9_21 - x11_21 >= -2
tri1_9_12_13: t9_12_13 - x9_12 <= 0
tri2_9_12_13: t9_12_13 - x9_13 <= 0
tri3_9_12_13: t9_12_13 - x12_13 <= 0
tri4_9_12_13: t9_12_13 - x9_12 - x9_13 - x12_13 >= -2
tri1_9_12_14: t9_12_14 - x9_12 <= 0
tri2_9_12_14: t9_12_14 - x9_14 <= 0
tri3_9_12_14: t9_12_14 - x12_14 <= 0
tri4_9_12_14: t9_12_14 - x9_12 - x9_14 - x12_14 >= -2
tri1_9_12_15: t9_12_15 - x9_12 <= 0
tri2_9_12_15: t9_12_15 - x9_15 <= 0
tri3_9_12_15: t9_12_15 - x12_15 <= 0
tri4_9_12_15: t9_12_15 - x9_12 - x9_15 - x12_15 >= -2
tri1_9_12_16: t9_12_16 - x9_12 <= 0
tri2_9_12_16: t9_12_16 - x9_16 <= 0
tri3_9_12_16: t9_12_16 - x12_16 <= 0
tri4_9_12_16: t9_12_16 - x9_12 - x9_16 - x12_16 >= -2
tri1_9_12_17: t9_12_17 - x9_12 <= 0
tri2_9_12_17: t9_12_17 - x9_17 <= 0
tri3_9_12_17: t9_12_17 - x12_17 <= 0
tri4_9_12_17: t9_12_17 - x9_12 - x9_17 - x12_17 >= -2
tri1_9_12_18: t9_12_18 - x9_12 <= 0
tri2_9_12_18: t9_12_18 - x9_18 <= 0
tri3_9_12_18: t9_12_18 - x12_18 <= 0
tri4_9_12_18: t9_12_18 - x9_12 - x9_18 - x12_18 >= -2
tri1_9_12_19: t9_12_19 - x9_12 <= 0
tri2_9_12_19: t9_12_19 - x9_19 <= 0
tri3_9_12_19: t9_12_19 - x12_19 <= 0
tri4_9_12_19: t9_12_19 - x9_12 - x9_19 - x12_19 >= -2
tri1_9_12_20: t9_12_20 - x9_12 <= 0
tri2_9_12_20: t9_12_20 - x9_20 <= 0
tri3_9_12_20: t9_12_20 - x12_20 <= 0
tri4_9_12_20: t9_12_20 - x9_12 - x9_20 - x12_20 >= -2
tri1_9_12_21: t9_12_21 - x9_12 <= 0
tri2_9_12_21: t9_12_21 - x9_21 <= 0
tri3_9_12_21: t9_12_21 - x12_21 <= 0
tri4_9_12_21: t9_12_21 - x9_12 - x9_21 - x12_21 >= -2
tri1_9_13_14: t9_13_14 - x9_13 <= 0
tri2_9_13_14: t9_13_14 - x9_14 <= 0
tri3_9_13_14: t9_13_14 - x13_14 <= 0
tri4_9_13_14: t9_13_14 - x9_13 - x9_14 - x13_14 >= -2
tri1_9_13_15: t9_13_15 - x9_13 <= 0
tri2_9_13_15: t9_13_15 - x9_15 <= 0
tri3_9_13_15: t9_13_15 - x13_15 <= 0
tri4_9_13_15: t9_13_15 - x9_13 - x9_15 - x13_15 >= -2
tri1_9_13_16: t9_13_16 - x9_13 <= 0
tri2_9_13_16: t9_13_16 - x9_16 <= 0
tri3_9_13_16: t9_13_16 - x13_16 <= 0
tri4_9_13_16: t9_13_16 - x9_13 - x9_16 - x13_16 >= -2
tri1_9_13_17: t9_13_17 - x9_13 <= 0
tri2_9_13_17: t9_13_17 - x9_17 <= 0
tri3_9_13_17: t9_13_17 - x13_17 <= 0
tri4_9_13_17: t9_13_17 - x9_13 - x9_17 - x13_17 >= -2
tri1_9_13_18: t9_13_18 - x9_13 <= 0
tri2_9_13_18: t9_13_18 - x9_18 <= 0
tri3_9_13_18: t9_13_18 - x13_18 <= 0
tri4_9_13_18: t9_13_18 - x9_13 - x9_18 - x13_18 >= -2
tri1_9_13_19: t9_13_19 - x9_13 <= 0
tri2_9_13_19: t9_13_19 - x9_19 <= 0
tri3_9_13_19: t9_13_19 - x13_19 <= 0
tri4_9_13_19: t9_13_19 - x9_13 - x9_19 - x13_19 >= -2
tri1_9_13_20: t9_13_20 - x9_13 <= 0
tri2_9_13_20: t9_13_20 - x9_20 <= 0
tri3_9_13_20: t9_13_20 - x13_20 <= 0
tri4_9_13_20: t9_13_20 - x9_13 - x9_20 - x13_20 >= -2
tri1_9_13_21: t9_13_21 - x9_13 <= 0
tri2_9_13_21: t9_13_21 - x9_21 <= 0
tri3_9_13_21: t9_13_21 - x13_21 <= 0
tri4_9_13_21: t9_13_21 - x9_13 - x9_21 - x13_21 >= -2
tri1_9_14_15: t9_14_15 - x9_14 <= 0
tri2_9_14_15: t9_14_15 - x9_15 <= 0
tri3_9_14_15: t9_14_15 - x14_15 <= 0
tri4_9_14_15: t9_14_15 - x9_14 - x9_15 - x14_15 >= -2
tri1_9_14_16: t9_14_16 - x9_14 <= 0
tri2_9_14_16: t9_14_16 - x9_16 <= 0
tri3_9_14_16: t9_14_16 - x14_16 <= 0
tri4_9_14_16: t9_14_16 - x9_14 - x9_16 - x14_16 >= -2
tri1_9_14_17: t9_14_17 - x9_14 <= 0
tri2_9_14_17: t9_14_17 - x9_17 <= 0
tri3_9_14_17: t9_14_17 - x14_17 <= 0
tri4_9_14_17: t9_14_17 - x9_14 - x9_17 - x14_17 >= -2
tri1_9_14_18: t9_14_18 - x9_14 <= 0
tri2_9_14_18: t9_14_18 - x9_18 <= 0
tri3_9_14_18: t9_14_18 - x14_18 <= 0
tri4_9_14_18: t9_14_18 - x9_14 - x9_18 - x14_18 >= -2
tri1_9_14_19: t9_14_19 - x9_14 <= 0
tri2_9_14_19: t9_14_19 - x9_19 <= 0
tri3_9_14_19: t9_14_19 - x14_19 <= 0
tri4_9_14_19: t9_14_19 - x9_14 - x9_19 - x14_19 >= -2
tri1_9_14_20: t9_14_20 - x9_14 <= 0
tri2_9_14_20: t9_14_20 - x9_20 <= 0
tri3_9_14_20: t9_14_20 - x14_20 <= 0
tri4_9_14_20: t9_14_20 - x9_14 - x9_20 - x14_20 >= -2
tri1_9_14_21: t9_14_21 - x9_14 <= 0
tri2_9_14_21: t9_14_21 - x9_21 <= 0
tri3_9_14_21: t9_14_21 - x14_21 <= 0
tri4_9_14_21: t9_14_21 - x9_14 - x9_21 - x14_21 >= -2
tri1_9_15_16: t9_15_16 - x9_15 <= 0
tri2_9_15_16: t9_15_16 - x9_16 <= 0
tri3_9_15_16: t9_15_16 - x15_16 <= 0
tri4_9_15_16: t9_15_16 - x9_15 - x9_16 - x15_16 >= -2
tri1_9_15_17: t9_15_17 - x9_15 <= 0
tri2_9_15_17: t9_15_17 - x9_17 <= 0
tri3_9_15_17: t9_15_17 - x15_17 <= 0
tri4_9_15_17: t9_15_17 - x9_15 - x9_17 - x15_17 >= -2
tri1_9_15_18: t9_15_18 - x9_15 <= 0
tri2_9_15_18: t9_15_18 - x9_18 <= 0
tri3_9_15_18: t9_15_18 - x15_18 <= 0
tri4_9_15_18: t9_15_18 - x9_15 - x9_18 - x15_18 >= -2
tri1_9_15_19: t9_15_19 - x9_15 <= 0
tri2_9_15_19: t9_15_19 - x9_19 <= 0
tri3_9_15_19: t9_15_19 - x15_19 <= 0
tri4_9_15_19: t9_15_19 - x9_15 - x9_19 - x15_19 >= -2
tri1_9_15_20: t9_15_20 - x9_15 <= 0
tri2_9_15_20: t9_15_20 - x9_20 <= 0
tri3_9_15_20: t9_15_20 - x15_20 <= 0
tri4_9_15_20: t9_15_20 - x9_15 - x9_20 - x15_20 >= -2
tri1_9_15_21: t9_15_21 - x9_15 <= 0
tri2_9_15_21: t9_15_21 - x9_21 <= 0
tri3_9_15_21: t9_15_21 - x15_21 <= 0
tri4_9_15_21: t9_15_21 - x9_15 - x9_21 - x15_21 >= -2
tri1_9_16_17: t9_16_17 - x9_16 <= 0
tri2_9_16_17: t9_16_17 - x9_17 <= 0
tri3_9_16_17: t9_16_17 - x16_17 <= 0
tri4_9_16_17: t9_16_17 - x9_16 - x9_17 - x16_17 >= -2
tri1_9_16_18: t9_16_18 - x9_16 <= 0
tri2_9_16_18: t9_16_18 - x9_18 <= 0
tri3_9_16_18: t9_16_18 - x16_18 <= 0
tri4_9_16_18: t9_16_18 - x9_16 - x9_18 - x16_18 >= -2
tri1_9_16_19: t9_16_19 - x9_16 <= 0
tri2_9_16_19: t9_16_19 - x9_19 <= 0
tri3_9_16_19: t9_16_19 - x16_19 <= 0
tri4_9_16_19: t9_16_19 - x9_16 - x9_19 - x16_19 >= -2
tri1_9_16_20: t9_16_20 - x9_16 <= 0
tri2_9_16_20: t9_16_20 - x9_20 <= 0
tri3_9_16_20: t9_16_20 - x16_20 <= 0
tri4_9_16_20: t9_16_20 - x9_16 - x9_20 - x16_20 >= -2
tri1_9_16_21: t9_16_21 - x9_16 <= 0
tri2_9_16_21: t9_16_21 - x9_21 <= 0
tri3_9_16_21: t9_16_21 - x16_21 <= 0
tri4_9_16_21: t9_16_21 - x9_16 - x9_21 - x16_21 >= -2
tri1_9_17_18: t9_17_18 - x9_17 <= 0
tri2_9_17_18: t9_17_18 - x9_18 <= 0
tri3_9_17_18: t9_17_18 - x17_18 <= 0
tri4_9_17_18: t9_17_18 - x9_17 - x9_18 - x17_18 >= -2
tri1_9_17_19: t9_17_19 - x9_17 <= 0
tri2_9_17_19: t9_17_19 - x9_19 <= 0
tri3_9_17_19: t9_17_19 - x17_19 <= 0
tri4_9_17_19: t9_17_19 - x9_17 - x9_19 - x17_19 >= -2
tri1_9_17_20: t9_17_20 - x9_17 <= 0
tri2_9_17_20: t9_17_20 - x9_20 <= 0
tri3_9_17_20: t9_17_20 - x17_20 <= 0
tri4_9_17_20: t9_17_20 - x9_17 - x9_20 - x17_20 >= -2
tri1_9_17_21: t9_17_21 - x9_17 <= 0
tri2_9_17_21: t9_17_21 - x9_21 <= 0
tri3_9_17_21: t9_17_21 - x17_21 <= 0
tri4_9_17_21: t9_17_21 - x9_17 - x9_21 - x17_21 >= -2
tri1_9_18_19: t9_18_19 - x9_18 <= 0
tri2_9_18_19: t9_18_19 - x9_19 <= 0
tri3_9_18_19: t9_18_19 - x18_19 <= 0
tri4_9_18_19: t9_18_19 - x9_18 - x9_19 - x18_19 >= -2
tri1_9_18_20: t9_18_20 - x9_18 <= 0
tri2_9_18_20: t9_18_20 - x9_20 <= 0
tri3_9_18_20: t9_18_20 - x18_20 <= 0
tri4_9_18_20: t9_18_20 - x9_18 - x9_20 - x18_20 >= -2
tri1_9_18_21: t9_18_21 - x9_18 <= 0
tri2_9_18_21: t9_18_21 - x9_21 <= 0
tri3_9_18_21: t9_18_21 - x18_21 <= 0
tri4_9_18_21: t9_18_21 - x9_18 - x9_21 - x18_21 >= -2
tri1_9_19_20: t9_19_20 - x9_19 <= 0
tri2_9_19_20: t9_19_20 - x9_20 <= 0
tri3_9_19_20: t9_19_20 - x19_20 <= 0
tri4_9_19_20: t9_19_20 - x9_19 - x9_20 - x19_20 >= -2
tri1_9_19_21: t9_19_21 - x9_19 <= 0
tri2_9_19_21: t9_19_21 - x9_21 <= 0
tri3_9_19_21: t9_19_21 - x19_21 <= 0
tri4_9_19_21: t9_19_21 - x9_19 - x9_21 - x19_21 >= -2
tri1_9_20_21: t9_20_21 - x9_20 <= 0
tri2_9_20_21: t9_20_21 - x9_21 <= 0
tri3_9_20_21: t9_20_21 - x20_21 <= 0
tri4_9_20_21: t9_20_21 - x9_20 - x9_21 - x20_21 >= -2
tri1_10_11_12: t10_11_12 - x10_11 <= 0
tri2_10_11_12: t10_11_12 - x10_12 <= 0
tri3_10_11_12: t10_11_12 - x11_12 <= 0
tri4_10_11_12: t10_11_12 - x10_11 - x10_12 - x11_12 >= -2
tri1_10_11_13: t10_11_13 - x10_11 <= 0
tri2_10_11_13: t10_11_13 - x10_13 <= 0
tri3_10_11_13: t10_11_13 - x11_13 <= 0
tri4_10_11_13: t10_11_13 - x10_11 - x10_13 - x11_13 >= -2
tri1_10_11_14: t10_11_14 - x10_11 <= 0
tri2_10_11_14: t10_11_14 - x10_14 <= 0
tri3_10_11_14: t10_11_14 - x11_14 <= 0
tri4_10_11_14: t10_11_14 - x10_11 - x10_14 - x11_14 >= -2
tri1_10_11_15: t10_11_15 - x10_11 <= 0
tri2_10_11_15: t10_11_15 - x10_15 <= 0
tri3_10_11_15: t10_11_15 - x11_15 <= 0
tri4_10_11_15: t10_11_15 - x10_11 - x10_15 - x11_15 >= -2
tri1_10_11_16: t10_11_16 - x10_11 <= 0
tri2_10_11_16: t10_11_16 - x10_16 <= 0
tri3_10_11_16: t10_11_16 - x11_16 <= 0
tri4_10_11_16: t10_11_16 - x10_11 - x10_16 - x11_16 >= -2
tri1_10_11_17: t10_11_17 - x10_11 <= 0
tri2_10_11_17: t10_11_17 - x10_17 <= 0
tri3_10_11_17: t10_11_17 - x11_17 <= 0
tri4_10_11_17: t10_11_17 - x10_11 - x10_17 - x11_17 >= -2
tri1_10_11_18: t10_11_18 - x10_11 <= 0
tri2_10_11_18: t10_11_18 - x10_18 <= 0
tri3_10_11_18: t10_11_18 - x11_18 <= 0
tri4_10_11_18: t10_11_18 - x10_11 - x10_18 - x11_18 >= -2
tri1_10_11_19: t10_11_19 - x10_11 <= 0
tri2_10_11_19: t10_11_19 - x10_19 <= 0
tri3_10_11_19: t10_11_19 - x11_19 <= 0
tri4_10_11_19: t10_11_19 - x10_11 - x10_19 - x11_19 >= -2
tri1_10_11_20: t10_11_20 - x10_11 <= 0
tri2_10_11_20: t10_11_20 - x10_20 <= 0
tri3_10_11_20: t10_11_20 - x11_20 <= 0
tri4_10_11_20: t10_11_20 - x10_11 - x10_20 - x11_20 >= -2
tri1_10_11_21: t10_11_21 - x10_11 <= 0
tri2_10_11_21: t10_11_21 - x10_21 <= 0
tri3_10_11_21: t10_11_21 - x11_21 <= 0
tri4_10_11_21: t10_11_21 - x10_11 - x10_21 - x11_21 >= -2
tri1_10_12_13: t10_12_13 - x10_12 <= 0
tri2_10_12_13: t10_12_13 - x10_13 <= 0
tri3_10_12_13: t10_12_13 - x12_13 <= 0
tri4_10_12_13: t10_12_13 - x10_12 - x10_13 - x12_13 >= -2
tri1_10_12_14: t10_12_14 - x10_12 <= 0
tri2_10_12_14: t10_12_14 - x10_14 <= 0
tri3_10_12_14: t10_12_14 - x12_14 <= 0
tri4_10_12_14: t10_12_14 - x10_12 - x10_14 - x12_14 >= -2
tri1_10_12_15: t10_12_15 - x10_12 <= 0
tri2_10_12_15: t10_12_15 - x10_15 <= 0
tri3_10_12_15: t10_12_15 - x12_15 <= 0
tri4_10_12_15: t10_12_15 - x10_12 - x10_15 - x12_15 >= -2
tri1_10_12_16: t10_12_16 - x10_12 <= 0
tri2_10_12_16: t10_12_16 - x10_16 <= 0
tri3_10_12_16: t10_12_16 - x12_16 <= 0
tri4_10_12_16: t10_12_16 - x10_12 - x10_16 - x12_16 >= -2
tri1_10_12_17: t10_12_17 - x10_12 <= 0
tri2_10_12_17: t10_12_17 - x10_17 <= 0
tri3_10_12_17: t10_12_17 - x12_17 <= 0
tri4_10_12_17: t10_12_17 - x10_12 - x10_17 - x12_17 >= -2
tri1_10_12_18: t10_12_18 - x10_12 <= 0
tri2_10_12_18: t10_12_18 - x10_18 <= 0
tri3_10_12_18: t10_12_18 - x12_18 <= 0
tri4_10_12_18: t10_12_18 - x10_12 - x10_18 - x12_18 >= -2
tri1_10_12_19: t10_12_19 - x10_12 <= 0
tri2_10_12_19: t10_12_19 - x10_19 <= 0
tri3_10_12_19: t10_12_19 - x12_19 <= 0
tri4_10_12_19: t10_12_19 - x10_12 - x10_19 - x12_19 >= -2
tri1_10_12_20: t10_12_20 - x10_12 <= 0
tri2_10_12_20: t10_12_20 - x10_20 <= 0
tri3_10_12_20: t10_12_20 - x12_20 <= 0
tri4_10_12_20: t10_12_20 - x10_12 - x10_20 - x12_20 >= -2
tri1_10_12_21: t10_12_21 - x10_12 <= 0
tri2_10_12_21: t10_12_21 - x10_21 <= 0
tri3_10_12_21: t10_12_21 - x12_21 <= 0
tri4_10_12_21: t10_12_21 - x10_12 - x10_21 - x12_21 >= -2
tri1_10_13_14: t10_13_14 - x10_13 <= 0
tri2_10_13_14: t10_13_14 - x10_14 <= 0
tri3_10_13_14: t10_13_14 - x13_14 <= 0
tri4_10_13_14: t10_13_14 - x10_13 - x10_14 - x13_14 >= -2
tri1_10_13_15: t10_13_15 - x10_13 <= 0
tri2_10_13_15: t10_13_15 - x10_15 <= 0
tri3_10_13_15: t10_13_15 - x13_15 <= 0
tri4_10_13_15: t10_13_15 - x10_13 - x10_15 - x13_15 >= -2
tri1_10_13_16: t10_13_16 - x10_13 <= 0
tri2_10_13_16: t10_13_16 - x10_16 <= 0
tri3_10_13_16: t10_13_16 - x13_16 <= 0
tri4_10_13_16: t10_13_16 - x10_13 - x10_16 - x13_16 >= -2
tri1_10_13_17: t10_13_17 - x10_13 <= 0
tri2_10_13_17: t10_13_17 - x10_17 <= 0
tri3_10_13_17: t10_13_17 - x13_17 <= 0
tri4_10_13_17: t10_13_17 - x10_13 - x10_17 - x13_17 >= -2
tri1_10_13_18: t10_13_18 - x10_13 <= 0
tri2_10_13_18: t10_13_18 - x10_18 <= 0
tri3_10_13_18: t10_13_18 - x13_18 <= 0
tri4_10_13_18: t10_13_18 - x10_13 - x10_18 - x13_18 >= -2
tri1_10_13_19: t10_13_19 - x10_13 <= 0
tri2_10_13_19: t10_13_19 - x10_19 <= 0
tri3_10_13_19: t10_13_19 - x13_19 <= 0
tri4_10_13_19: t10_13_19 - x10_13 - x10_19 - x13_19 >= -2
tri1_10_13_20: t10_13_20 - x10_13 <= 0
tri2_10_13_20: t10_13_20 - x10_20 <= 0
tri3_10_13_20: t10_13_20 - x13_20 <= 0
tri4_10_13_20: t10_13_20 - x10_13 - x10_20 - x13_20 >= -2
tri1_10_13_21: t10_13_21 - x10_13 <= 0
tri2_10_13_21: t10_13_21 - x10_21 <= 0
tri3_10_13_21: t10_13_21 - x13_21 <= 0
tri4_10_13_21: t10_13_21 - x10_13 - x10_21 - x13_21 >= -2
tri1_10_14_15: t10_14_15 - x10_14 <= 0
tri2_10_14_15: t10_14_15 - x10_15 <= 0
tri3_10_14_15: t10_14_15 - x14_15 <= 0
tri4_10_14_15: t10_14_15 - x10_14 - x10_15 - x14_15 >= -2
tri1_10_14_16: t10_14_16 - x10_14 <= 0
tri2_10_14_16: t10_14_16 - x10_16 <= 0
tri3_10_14_16: t10_14_16 - x14_16 <= 0
tri4_10_14_16: t10_14_16 - x10_14 - x10_16 - x14_16 >= -2
tri1_10_14_17: t10_14_17 - x10_14 <= 0
tri2_10_14_17: t10_14_17 - x10_17 <= 0
tri3_10_14_17: t10_14_17 - x14_17 <= 0
tri4_10_14_17: t10_14_17 - x10_14 - x10_17 - x14_17 >= -2
tri1_10_14_18: t10_14_18 - x10_14 <= 0
tri2_10_14_18: t10_14_18 - x10_18 <= 0
tri3_10_14_18: t10_14_18 - x14_18 <= 0
tri4_10_14_18: t10_14_18 - x10_14 - x10_18 - x14_18 >= -2
tri1_10_14_19: t10_14_19 - x10_14 <= 0
tri2_10_14_19: t10_14_19 - x10_19 <= 0
tri3_10_14_19: t10_14_19 - x14_19 <= 0
tri4_10_14_19: t10_14_19 - x10_14 - x10_19 - x14_19 >= -2
tri1_10_14_20: t10_14_20 - x10_14 <= 0
tri2_10_14_20: t10_14_20 - x10_20 <= 0
tri3_10_14_20: t10_14_20 - x14_20 <= 0
tri4_10_14_20: t10_14_20 - x10_14 - x10_20 - x14_20 >= -2
tri1_10_14_21: t10_14_21 - x10_14 <= 0
tri2_10_14_21: t10_14_21 - x10_21 <= 0
tri3_10_14_21: t10_14_21 - x14_21 <= 0
tri4_10_14_21: t10_14_21 - x10_14 - x10_21 - x14_21 >= -2
tri1_10_15_16: t10_15_16 - x10_15 <= 0
tri2_10_15_16: t10_15_16 - x10_16 <= 0
tri3_10_15_16: t10_15_16 - x15_16 <= 0
tri4_10_15_16: t10_15_16 - x10_15 - x10_16 - x15_16 >= -2
tri1_10_15_17: t10_15_17 - x10_15 <= 0
tri2_10_15_17: t10_15_17 - x10_17 <= 0
tri3_10_15_17: t10_15_17 - x15_17 <= 0
tri4_10_15_17: t10_15_17 - x10_15 - x10_17 - x15_17 >= -2
tri1_10_15_18: t10_15_18 - x10_15 <= 0
tri2_10_15_18: t10_15_18 - x10_18 <= 0
tri3_10_15_18: t10_15_18 - x15_18 <= 0
tri4_10_15_18: t10_15_18 - x10_15 - x10_18 - x15_18 >= -2
tri1_10_15_19: t10_15_19 - x10_15 <= 0
tri2_10_15_19: t10_15_19 - x10_19 <= 0
tri3_10_15_19: t10_15_19 - x15_19 <= 0
tri4_10_15_19: t10_15_19 - x10_15 - x10_19 - x15_19 >= -2
tri1_10_15_20: t10_15_20 - x10_15 <= 0
tri2_10_15_20: t10_15_20 - x10_20 <= 0
tri3_10_15_20: t10_15_20 - x15_20 <= 0
tri4_10_15_20: t10_15_20 - x10_15 - x10_20 - x15_20 >= -2
tri1_10_15_21: t10_15_21 - x10_15 <= 0
tri2_10_15_21: t10_15_21 - x10_21 <= 0
tri3_10_15_21: t10_15_21 - x15_21 <= 0
tri4_10_15_21: t10_15_21 - x10_15 - x10_21 - x15_21 >= -2
tri1_10_16_17: t10_16_17 - x10_16 <= 0
tri2_10_16_17: t10_16_17 - x10_17 <= 0
tri3_10_16_17: t10_16_17 - x16_17 <= 0
tri4_10_16_17: t10_16_17 - x10_16 - x10_17 - x16_17 >= -2
tri1_10_16_18: t10_16_18 - x10_16 <= 0
tri2_10_16_18: t10_16_18 - x10_18 <= 0
tri3_10_16_18: t10_16_18 - x16_18 <= 0
tri4_10_16_18: t10_16_18 - x10_16 - x10_18 - x16_18 >= -2
tri1_10_16_19: t10_16_19 - x10_16 <= 0
tri2_10_16_19: t10_16_19 - x10_19 <= 0
tri3_10_16_19: t10_16_19 - x16_19 <= 0
tri4_10_16_19: t10_16_19 - x10_16 - x10_19 - x16_19 >= -2
tri1_10_16_20: t10_16_20 - x10_16 <= 0
tri2_10_16_20: t10_16_20 - x10_20 <= 0
tri3_10_16_20: t10_16_20 - x16_20 <= 0
tri4_10_16_20: t10_16_20 - x10_16 - x10_20 - x16_20 >= -2
tri1_10_16_21: t10_16_21 - x10_16 <= 0
tri2_10_16_21: t10_16_21 - x10_21 <= 0
tri3_10_16_21: t10_16_21 - x16_21 <= 0
tri4_10_16_21: t10_16_21 - x10_16 - x10_21 - x16_21 >= -2
tri1_10_17_18: t10_17_18 - x10_17 <= 0
tri2_10_17_18: t10_17_18 - x10_18 <= 0
tri3_10_17_18: t10_17_18 - x17_18 <= 0
tri4_10_17_18: t10_17_18 - x10_17 - x10_18 - x17_18 >= -2
tri1_10_17_19: t10_17_19 - x10_17 <= 0
tri2_10_17_19: t10_17_19 - x10_19 <= 0
tri3_10_17_19: t10_17_19 - x17_19 <= 0
tri4_10_17_19: t10_17_19 - x10_17 - x10_19 - x17_19 >= -2
tri1_10_17_20: t10_17_20 - x10_17 <= 0
tri2_10_17_20: t10_17_20 - x10_20 <= 0
tri3_10_17_20: t10_17_20 - x17_20 <= 0
tri4_10_17_20: t10_17_20 - x10_17 - x10_20 - x17_20 >= -2
tri1_10_17_21: t10_17_21 - x10_17 <= 0
tri2_10_17_21: t10_17_21 - x10_21 <= 0
tri3_10_17_21: t10_17_21 - x17_21 <= 0
tri4_10_17_21: t10_17_21 - x10_17 - x10_21 - x17_21 >= -2
tri1_10_18_19: t10_18_19 - x10_18 <= 0
tri2_10_18_19: t10_18_19 - x10_19 <= 0
tri3_10_18_19: t10_18_19 - x18_19 <= 0
tri4_10_18_19: t10_18_19 - x10_18 - x10_19 - x18_19 >= -2
tri1_10_18_20: t10_18_20 - x10_18 <= 0
tri2_10_18_20: t10_18_20 - x10_20 <= 0
tri3_10_18_20: t10_18_20 - x18_20 <= 0
tri4_10_18_20: t10_18_20 - x10_18 - x10_20 - x18_20 >= -2
tri1_10_18_21: t10_18_21 - x10_18 <= 0
tri2_10_18_21: t10_18_21 - x10_21 <= 0
tri3_10_18_21: t10_18_21 - x18_21 <= 0
tri4_10_18_21: t10_18_21 - x10_18 - x10_21 - x18_21 >= -2
tri1_10_19_20: t10_19_20 - x10_19 <= 0
tri2_10_19_20: t10_19_20 - x10_20 <= 0
tri3_10_19_20: t10_19_20 - x19_20 <= 0
tri4_10_19_20: t10_19_20 - x10_19 - x10_20 - x19_20 >= -2
tri1_10_19_21: t10_19_21 - x10_19 <= 0
tri2_10_19_21: t10_19_21 - x10_21 <= 0
tri3_10_19_21: t10_19_21 - x19_21 <= 0
tri4_10_19_21: t10_19_21 - x10_19 - x10_21 - x19_21 >= -2
tri1_10_20_21: t10_20_21 - x10_20 <= 0
tri2_10_20_21: t10_20_21 - x10_21 <= 0
tri3_10_20_21: t10_20_21 - x20_21 <= 0
tri4_10_20_21: t10_20_21 - x10_20 - x10_21 - x20_21 >= -2
tri1_11_12_13: t11_12_13 - x11_12 <= 0
tri2_11_12_13: t11_12_13 - x11_13 <= 0
tri3_11_12_13: t11_12_13 - x12_13 <= 0
tri4_11_12_13: t11_12_13 - x11_12 - x11_13 - x12_13 >= -2
tri1_11_12_14: t11_12_14 - x11_12 <= 0
tri2_11_12_14: t11_12_14 - x11_14 <= 0
tri3_11_12_14: t11_12_14 - x12_14 <= 0
tri4_11_12_14: t11_12_14 - x11_12 - x11_14 - x12_14 >= -2
tri1_11_12_15: t11_12_15 - x11_12 <= 0
tri2_11_12_15: t11_12_15 - x11_15 <= 0
tri3_11_12_15: t11_12_15 - x12_15 <= 0
tri4_11_12_15: t11_12_15 - x11_12 - x11_15 - x12_15 >= -2
tri1_11_12_16: t11_12_16 - x11_12 <= 0
tri2_11_12_16: t11_12_16 - x11_16 <= 0
tri3_11_12_16: t11_12_16 - x12_16 <= 0
tri4_11_12_16: t11_12_16 - x11_12 - x11_16 - x12_16 >= -2
tri1_11_12_17: t11_12_17 - x11_12 <= 0
tri2_11_12_17: t11_12_17 - x11_17 <= 0
tri3_11_12_17: t11_12_17 - x12_17 <= 0
tri4_11_12_17: t11_12_17 - x11_12 - x11_17 - x12_17 >= -2
tri1_11_12_18: t11_12_18 - x11_12 <= 0
tri2_11_12_18: t11_12_18 - x11_18 <= 0
tri3_11_12_18: t11_12_18 - x12_18 <= 0
tri4_11_12_18: t11_12_18 - x11_12 - x11_18 - x12_18 >= -2
tri1_11_12_19: t11_12_19 - x11_12 <= 0
tri2_11_12_19: t11_12_19 - x11_19 <= 0
tri3_11_12_19: t11_12_19 - x12_19 <= 0
tri4_11_12_19: t11_12_19 - x11_12 - x11_19 - x12_19 >= -2
tri1_11_12_20: t11_12_20 - x11_12 <= 0
tri2_11_12_20: t11_12_20 - x11_20 <= 0
tri3_11_12_20: t11_12_20 - x12_20 <= 0
tri4_11_12_20: t11_12_20 - x11_12 - x11_20 - x12_20 >= -2
tri1_11_12_21: t11_12_21 - x11_12 <= 0
tri2_11_12_21: t11_12_21 - x11_21 <= 0
tri3_11_12_21: t11_12_21 - x12_21 <= 0
tri4_11_12_21: t11_12_21 - x11_12 - x11_21 - x12_21 >= -2
tri1_11_13_14: t11_13_14 - x11_13 <= 0
tri2_11_13_14: t11_13_14 - x11_14 <= 0
tri3_11_13_14: t11_13_14 - x13_14 <= 0
tri4_11_13_14: t11_13_14 - x11_13 - x11_14 - x13_14 >= -2
tri1_11_13_15: t11_13_15 - x11_13 <= 0
tri2_11_13_15: t11_13_15 - x11_15 <= 0
tri3_11_13_15: t11_13_15 - x13_15 <= 0
tri4_11_13_15: t11_13_15 - x11_13 - x11_15 - x13_15 >= -2
tri1_11_13_16: t11_13_16 - x11_13 <= 0
tri2_11_13_16: t11_13_16 - x11_16 <= 0
tri3_11_13_16: t11_13_16 - x13_16 <= 0
tri4_11_13_16: t11_13_16 - x11_13 - x11_16 - x13_16 >= -2
tri1_11_13_17: t11_13_17 - x11_13 <= 0
tri2_11_13_17: t11_13_17 - x11_17 <= 0
tri3_11_13_17: t11_13_17 - x13_17 <= 0
tri4_11_13_17: t11_13_17 - x11_13 - x11_17 - x13_17 >= -2
tri1_11_13_18: t11_13_18 - x11_13 <= 0
tri2_11_13_18: t11_13_18 - x11_18 <= 0
tri3_11_13_18: t11_13_18 - x13_18 <= 0
tri4_11_13_18: t11_13_18 - x11_13 - x11_18 - x13_18 >= -2
tri1_11_13_19: t11_13_19 - x11_13 <= 0
tri2_11_13_19: t11_13_19 - x11_19 <= 0
tri3_11_13_19: t11_13_19 - x13_19 <= 0
tri4_11_13_19: t11_13_19 - x11_13 - x11_19 - x13_19 >= -2
tri1_11_13_20: t11_13_20 - x11_13 <= 0
tri2_11_13_20: t11_13_20 - x11_20 <= 0
tri3_11_13_20: t11_13_20 - x13_20 <= 0
tri4_11_13_20: t11_13_20 - x11_13 - x11_20 - x13_20 >= -2
tri1_11_13_21: t11_13_21 - x11_13 <= 0
tri2_11_13_21: t11_13_21 - x11_21 <= 0
tri3_11_13_21: t11_13_21 - x13_21 <= 0
tri4_11_13_21: t11_13_21 - x11_13 - x11_21 - x13_21 >= -2
tri1_11_14_15: t11_14_15 - x11_14 <= 0
tri2_11_14_15: t11_14_15 - x11_15 <= 0
tri3_11_14_15: t11_14_15 - x14_15 <= 0
tri4_11_14_15: t11_14_15 - x11_14 - x11_15 - x14_15 >= -2
tri1_11_14_16: t11_14_16 - x11_14 <= 0
tri2_11_14_16: t11_14_16 - x11_16 <= 0
tri3_11_14_16: t11_14_16 - x14_16 <= 0
tri4_11_14_16: t11_14_16 - x11_14 - x11_16 - x14_16 >= -2
tri1_11_14_17: t11_14_17 - x11_14 <= 0
tri2_11_14_17: t11_14_17 - x11_17 <= 0
tri3_11_14_17: t11_14_17 - x14_17 <= 0
tri4_11_14_17: t11_14_17 - x11_14 - x11_17 - x14_17 >= -2
tri1_11_14_18: t11_14_18 - x11_14 <= 0
tri2_11_14_18: t11_14_18 - x11_18 <= 0
tri3_11_14_18: t11_14_18 - x14_18 <= 0
tri4_11_14_18: t11_14_18 - x11_14 - x11_18 - x14_18 >= -2
tri1_11_14_19: t11_14_19 - x11_14 <= 0
tri2_11_14_19: t11_14_19 - x11_19 <= 0
tri3_11_14_19: t11_14_19 - x14_19 <= 0
tri4_11_14_19: t11_14_19 - x11_14 - x11_19 - x14_19 >= -2
tri1_11_14_20: t11_14_20 - x11_14 <= 0
tri2_11_14_20: t11_14_20 - x11_20 <= 0
tri3_11_14_20: t11_14_20 - x14_20 <= 0
tri4_11_14_20: t11_14_20 - x11_14 - x11_20 - x14_20 >= -2
tri1_11_14_21: t11_14_21 - x11_14 <= 0
tri2_11_14_21: t11_14_21 - x11_21 <= 0
tri3_11_14_21: t11_14_21 - x14_21 <= 0
tri4_11_14_21: t11_14_21 - x11_14 - x11_21 - x14_21 >= -2
tri1_11_15_16: t11_15_16 - x11_15 <= 0
tri2_11_15_16: t11_15_16 - x11_16 <= 0
tri3_11_15_16: t11_15_16 - x15_16 <= 0
tri4_11_15_16: t11_15_16 - x11_15 - x11_16 - x15_16 >= -2
tri1_11_15_17: t11_15_17 - x11_15 <= 0
tri2_11_15_17: t11_15_17 - x11_17 <= 0
tri3_11_15_17: t11_15_17 - x15_17 <= 0
tri4_11_15_17: t11_15_17 - x11_15 - x11_17 - x15_17 >= -2
tri1_11_15_18: t11_15_18 - x11_15 <= 0
tri2_11_15_18: t11_15_18 - x11_18 <= 0
tri3_11_15_18: t11_15_18 - x15_18 <= 0
tri4_11_15_18: t11_15_18 - x11_15 - x11_18 - x15_18 >= -2
tri1_11_15_19: t11_15_19 - x11_15 <= 0
tri2_11_15_19: t11_15_19 - x11_19 <= 0
tri3_11_15_19: t11_15_19 - x15_19 <= 0
tri4_11_15_19: t11_15_19 - x11_15 - x11_19 - x15_19 >= -2
tri1_11_15_20: t11_15_20 - x11_15 <= 0
tri2_11_15_20: t11_15_20 - x11_20 <= 0
tri3_11_15_20: t11_15_20 - x15_20 <= 0
tri4_11_15_20: t11_15_20 - x11_15 - x11_20 - x15_20 >= -2
tri1_11_15_21: t11_15_21 - x11_15 <= 0
tri2_11_15_21: t11_15_21 - x11_21 <= 0
tri3_11_15_21: t11_15_21 - x15_21 <= 0
tri4_11_15_21: t11_15_21 - x11_15 - x11_21 - x15_21 >= -2
tri1_11_16_17: t11_16_17 - x11_16 <= 0
tri2_11_16_17: t11_16_17 - x11_17 <= 0
tri3_11_16_17: t11_16_17 - x16_17 <= 0
tri4_11_16_17: t11_16_17 - x11_16 - x11_17 - x16_17 >= -2
tri1_11_16_18: t11_16_18 - x11_16 <= 0
tri2_11_16_18: t11_16_18 - x11_18 <= 0
tri3_11_16_18: t11_16_18 - x16_18 <= 0
tri4_11_16_18: t11_16_18 - x11_16 - x11_18 - x16_18 >= -2
tri1_11_16_19: t11_16_19 - x11_16 <= 0
tri2_11_16_19: t11_16_19 - x11_19 <= 0
tri3_11_16_19: t11_16_19 - x16_19 <= 0
tri4_11_16_19: t11_16_19 - x11_16 - x11_19 - x16_19 >= -2
tri1_11_16_20: t11_16_20 - x11_16 <= 0
tri2_11_16_20: t11_16_20 - x11_20 <= 0
tri3_11_16_20: t11_16_20 - x16_20 <= 0
tri4_11_16_20: t11_16_20 - x11_16 - x11_20 - x16_20 >= -2
tri1_11_16_21: t11_16_21 - x11_16 <= 0
tri2_11_16_21: t11_16_21 - x11_21 <= 0
tri3_11_16_21: t11_16_21 - x16_21 <= 0
tri4_11_16_21: t11_16_21 - x11_16 - x11_21 - x16_21 >= -2
tri1_11_17_18: t11_17_18 - x11_17 <= 0
tri2_11_17_18: t11_17_18 - x11_18 <= 0
tri3_11_17_18: t11_17_18 - x17_18 <= 0
tri4_11_17_18: t11_17_18 - x11_17 - x11_18 - x17_18 >= -2
tri1_11_17_19: t11_17_19 - x11_17 <= 0
tri2_11_17_19: t11_17_19 - x11_19 <= 0
tri3_11_17_19: t11_17_19 - x17_19 <= 0
tri4_11_17_19: t11_17_19 - x11_17 - x11_19 - x17_19 >= -2
tri1_11_17_20: t11_17_20 - x11_17 <= 0
tri2_11_17_20: t11_17_20 - x11_20 <= 0
tri3_11_17_20: t11_17_20 - x17_20 <= 0
tri4_11_17_20: t11_17_20 - x11_17 - x11_20 - x17_20 >= -2
tri1_11_17_21: t11_17_21 - x11_17 <= 0
tri2_11_17_21: t11_17_21 - x11_21 <= 0
tri3_11_17_21: t11_17_21 - x17_21 <= 0
tri4_11_17_21: t11_17_21 - x11_17 - x11_21 - x17_21 >= -2
tri1_11_18_19: t11_18_19 - x11_18 <= 0
tri2_11_18_19: t11_18_19 - x11_19 <= 0
tri3_11_18_19: t11_18_19 - x18_19 <= 0
tri4_11_18_19: t11_18_19 - x11_18 - x11_19 - x18_19 >= -2
tri1_11_18_20: t11_18_20 - x11_18 <= 0
tri2_11_18_20: t11_18_20 - x11_20 <= 0
tri3_11_18_20: t11_18_20 - x18_20 <= 0
tri4_11_18_20: t11_18_20 - x11_18 - x11_20 - x18_20 >= -2
tri1_11_18_21: t11_18_21 - x11_18 <= 0
tri2_11_18_21: t11_18_21 - x11_21 <= 0
tri3_11_18_21: t11_18_21 - x18_21 <= 0
tri4_11_18_21: t11_18_21 - x11_18 - x11_21 - x18_21 >= -2
tri1_11_19_20: t11_19_20 - x11_19 <= 0
tri2_11_19_20: t11_19_20 - x11_20 <= 0
tri3_11_19_20: t11_19_20 - x19_20 <= 0
tri4_11_19_20: t11_19_20 - x11_19 - x11_20 - x19_20 >= -2
tri1_11_19_21: t11_19_21 - x11_19 <= 0
tri2_11_19_21: t11_19_21 - x11_21 <= 0
tri3_11_19_21: t11_19_21 - x19_21 <= 0
tri4_11_19_21: t11_19_21 - x11_19 - x11_21 - x19_21 >= -2
tri1_11_20_21: t11_20_21 - x11_20 <= 0
tri2_11_20_21: t11_20_21 - x11_21 <= 0
tri3_11_20_21: t11_20_21 - x20_21 <= 0
tri4_11_20_21: t11_20_21 - x11_20 - x11_21 - x20_21 >= -2
tri1_12_13_14: t12_13_14 - x12_13 <= 0
tri2_12_13_14: t12_13_14 - x12_14 <= 0
tri3_12_13_14: t12_13_14 - x13_14 <= 0
tri4_12_13_14: t12_13_14 - x12_13 - x12_14 - x13_14 >= -2
tri1_12_13_15: t12_13_15 - x12_13 <= 0
tri2_12_13_15: t12_13_15 - x12_15 <= 0
tri3_12_13_15: t12_13_15 - x13_15 <= 0
tri4_12_13_15: t12_13_15 - x12_13 - x12_15 - x13_15 >= -2
tri1_12_13_16: t12_13_16 - x12_13 <= 0
tri2_12_13_16: t12_13_16 - x12_16 <= 0
tri3_12_13_16: t12_13_16 - x13_16 <= 0
tri4_12_13_16: t12_13_16 - x12_13 - x12_16 - x13_16 >= -2
tri1_12_13_17: t12_13_17 - x12_13 <= 0
tri2_12_13_17: t12_13_17 - x12_17 <= 0
tri3_12_13_17: t12_13_17 - x13_17 <= 0
tri4_12_13_17: t12_13_17 - x12_13 - x12_17 - x13_17 >= -2
tri1_12_13_18: t12_13_18 - x12_13 <= 0
tri2_12_13_18: t12_13_18 - x12_18 <= 0
tri3_12_13_18: t12_13_18 - x13_18 <= 0
tri4_12_13_18: t12_13_18 - x12_13 - x12_18 - x13_18 >= -2
tri1_12_13_19: t12_13_19 - x12_13 <= 0
tri2_12_13_19: t12_13_19 - x12_19 <= 0
tri3_12_13_19: t12_13_19 - x13_19 <= 0
tri4_12_13_19: t12_13_19 - x12_13 - x12_19 - x13_19 >= -2
tri1_12_13_20: t12_13_20 - x12_13 <= 0
tri2_12_13_20: t12_13_20 - x12_20 <= 0
tri3_12_13_20: t12_13_20 - x13_20 <= 0
tri4_12_13_20: t12_13_20 - x12_13 - x12_20 - x13_20 >= -2
tri1_12_13_21: t12_13_21 - x12_13 <= 0
tri2_12_13_21: t12_13_21 - x12_21 <= 0
tri3_12_13_21: t12_13_21 - x13_21 <= 0
tri4_12_13_21: t12_13_21 - x12_13 - x12_21 - x13_21 >= -2
tri1_12_14_15: t12_14_15 - x12_14 <= 0
tri2_12_14_15: t12_14_15 - x12_15 <= 0
tri3_12_14_15: t12_14_15 - x14_15 <= 0
tri4_12_14_15: t12_14_15 - x12_14 - x12_15 - x14_15 >= -2
tri1_12_14_16: t12_14_16 - x12_14 <= 0
tri2_12_14_16: t12_14_16 - x12_16 <= 0
tri3_12_14_16: t12_14_16 - x14_16 <= 0
tri4_12_14_16: t12_14_16 - x12_14 - x12_16 - x14_16 >= -2
tri1_12_14_17: t12_14_17 - x12_14 <= 0
tri2_12_14_17: t12_14_17 - x12_17 <= 0
tri3_12_14_17: t12_14_17 - x14_17 <= 0
tri4_12_14_17: t12_14_17 - x12_14 - x12_17 - x14_17 >= -2
tri1_12_14_18: t12_14_18 - x12_14 <= 0
tri2_12_14_18: t12_14_18 - x12_18 <= 0
tri3_12_14_18: t12_14_18 - x14_18 <= 0
tri4_12_14_18: t12_14_18 - x12_14 - x12_18 - x14_18 >= -2
tri1_12_14_19: t12_14_19 - x12_14 <= 0
tri2_12_14_19: t12_14_19 - x12_19 <= 0
tri3_12_14_19: t12_14_19 - x14_19 <= 0
tri4_12_14_19: t12_14_19 - x12_14 - x12_19 - x14_19 >= -2
tri1_12_14_20: t12_14_20 - x12_14 <= 0
tri2_12_14_20: t12_14_20 - x12_20 <= 0
tri3_12_14_20: t12_14_20 - x14_20 <= 0
tri4_12_14_20: t12_14_20 - x12_14 - x12_20 - x14_20 >= -2
tri1_12_14_21: t12_14_21 - x12_14 <= 0
tri2_12_14_21: t12_14_21 - x12_21 <= 0
tri3_12_14_21: t12_14_21 - x14_21 <= 0
tri4_12_14_21: t12_14_21 - x12_14 - x12_21 - x14_21 >= -2
tri1_12_15_16: t12_15_16 - x12_15 <= 0
tri2_12_15_16: t12_15_16 - x12_16 <= 0
tri3_12_15_16: t12_15_16 - x15_16 <= 0
tri4_12_15_16: t12_15_16 - x12_15 - x12_16 - x15_16 >= -2
tri1_12_15_17: t12_15_17 - x12_15 <= 0
tri2_12_15_17: t12_15_17 - x12_17 <= 0
tri3_12_15_17: t12_15_17 - x15_17 <= 0
tri4_12_15_17: t12_15_17 - x12_15 - x12_17 - x15_17 >= -2
tri1_12_15_18: t12_15_18 - x12_15 <= 0
tri2_12_15_18: t12_15_18 - x12_18 <= 0
tri3_12_15_18: t12_15_18 - x15_18 <= 0
tri4_12_15_18: t12_15_18 - x12_15 - x12_18 - x15_18 >= -2
tri1_12_15_19: t12_15_19 - x12_15 <= 0
tri2_12_15_19: t12_15_19 - x12_19 <= 0
tri3_12_15_19: t12_15_19 - x15_19 <= 0
tri4_12_15_19: t12_15_19 - x12_15 - x12_19 - x15_19 >= -2
tri1_12_15_20: t12_15_20 - x12_15 <= 0
tri2_12_15_20: t12_15_20 - x12_20 <= 0
tri3_12_15_20: t12_15_20 - x15_20 <= 0
tri4_12_15_20: t12_15_20 - x12_15 - x12_20 - x15_20 >= -2
tri1_12_15_21: t12_15_21 - x12_15 <= 0
tri2_12_15_21: t12_15_21 - x12_21 <= 0
tri3_12_15_21: t12_15_21 - x15_21 <= 0
tri4_12_15_21: t12_15_21 - x12_15 - x12_21 - x15_21 >= -2
tri1_12_16_17: t12_16_17 - x12_16 <= 0
tri2_12_16_17: t12_16_17 - x12_17 <= 0
tri3_12_16_17: t12_16_17 - x16_17 <= 0
tri4_12_16_17: t12_16_17 - x12_16 - x12_17 - x16_17 >= -2
tri1_12_16_18: t12_16_18 - x12_16 <= 0
tri2_12_16_18: t12_16_18 - x12_18 <= 0
tri3_12_16_18: t12_16_18 - x16_18 <= 0
tri4_12_16_18: t12_16_18 - x12_16 - x12_18 - x16_18 >= -2
tri1_12_16_19: t12_16_19 - x12_16 <= 0
tri2_12_16_19: t12_16_19 - x12_19 <= 0
tri3_12_16_19: t12_16_19 - x16_19 <= 0
tri4_12_16_19: t12_16_19 - x12_16 - x12_19 - x16_19 >= -2
tri1_12_16_20: t12_16_20 - x12_16 <= 0
tri2_12_16_20: t12_16_20 - x12_20 <= 0
tri3_12_16_20: t12_16_20 - x16_20 <= 0
tri4_12_16_20: t12_16_20 - x12_16 - x12_20 - x16_20 >= -2
tri1_12_16_21: t12_16_21 - x12_16 <= 0
tri2_12_16_21: t12_16_21 - x12_21 <= 0
tri3_12_16_21: t12_16_21 - x16_21 <= 0
tri4_12_16_21: t12_16_21 - x12_16 - x12_21 - x16_21 >= -2
tri1_12_17_18: t12_17_18 - x12_17 <= 0
tri2_12_17_18: t12_17_18 - x12_18 <= 0
tri3_12_17_18: t12_17_18 - x17_18 <= 0
tri4_12_17_18: t12_17_18 - x12_17 - x12_18 - x17_18 >= -2
tri1_12_17_19: t12_17_19 - x12_17 <= 0
tri2_12_17_19: t12_17_19 - x12_19 <= 0
tri3_12_17_19: t12_17_19 - x17_19 <= 0
tri4_12_17_19: t12_17_19 - x12_17 - x12_19 - x17_19 >= -2
tri1_12_17_20: t12_17_20 - x12_17 <= 0
tri2_12_17_20: t12_17_20 - x12_20 <= 0
tri3_12_17_20: t12_17_20 - x17_20 <= 0
tri4_12_17_20: t12_17_20 - x12_17 - x12_20 - x17_20 >= -2
tri1_12_17_21: t12_17_21 - x12_17 <= 0
tri2_12_17_21: t12_17_21 - x12_21 <= 0
tri3_12_17_21: t12_17_21 - x17_21 <= 0
tri4_12_17_21: t12_17_21 - x12_17 - x12_21 - x17_21 >= -2
tri1_12_18_19: t12_18_19 - x12_18 <= 0
tri2_12_18_19: t12_18_19 - x12_19 <= 0
tri3_12_18_19: t12_18_19 - x18_19 <= 0
tri4_12_18_19: t12_18_19 - x12_18 - x12_19 - x18_19 >= -2
tri1_12_18_20: t12_18_20 - x12_18 <= 0
tri2_12_18_20: t12_18_20 - x12_20 <= 0
tri3_12_18_20: t12_18_20 - x18_20 <= 0
tri4_12_18_20: t12_18_20 - x12_18 - x12_20 - x18_20 >= -2
tri1_12_18_21: t12_18_21 - x12_18 <= 0
tri2_12_18_21: t12_18_21 - x12_21 <= 0
tri3_12_18_21: t12_18_21 - x18_21 <= 0
tri4_12_18_21: t12_18_21 - x12_18 - x12_21 - x18_21 >= -2
tri1_12_19_20: t12_19_20 - x12_19 <= 0
tri2_12_19_20: t12_19_20 - x12_20 <= 0
tri3_12_19_20: t12_19_20 - x19_20 <= 0
tri4_12_19_20: t12_19_20 - x12_19 - x12_20 - x19_20 >= -2
tri1_12_19_21: t12_19_21 - x12_19 <= 0
tri2_12_19_21: t12_19_21 - x12_21 <= 0
tri3_12_19_21: t12_19_21 - x19_21 <= 0
tri4_12_19_21: t12_19_21 - x12_19 - x12_21 - x19_21 >= -2
tri1_12_20_21: t12_20_21 - x12_20 <= 0
tri2_12_20_21: t12_20_21 - x12_21 <= 0
tri3_12_20_21: t12_20_21 - x20_21 <= 0
tri4_12_20_21: t12_20_21 - x12_20 - x12_21 - x20_21 >= -2
tri1_13_14_15: t13_14_15 - x13_14 <= 0
tri2_13_14_15: t13_14_15 - x13_15 <= 0
tri3_13_14_15: t13_14_15 - x14_15 <= 0
tri4_13_14_15: t13_14_15 - x13_14 - x13_15 - x14_15 >= -2
tri1_13_14_16: t13_14_16 - x13_14 <= 0
tri2_13_14_16: t13_14_16 - x13_16 <= 0
tri3_13_14_16: t13_14_16 - x14_16 <= 0
tri4_13_14_16: t13_14_16 - x13_14 - x13_16 - x14_16 >= -2
tri1_13_14_17: t13_14_17 - x13_14 <= 0
tri2_13_14_17: t13_14_17 - x13_17 <= 0
tri3_13_14_17: t13_14_17 - x14_17 <= 0
tri4_13_14_17: t13_14_17 - x13_14 - x13_17 - x14_17 >= -2
tri1_13_14_18: t13_14_18 - x13_14 <= 0
tri2_13_14_18: t13_14_18 - x13_18 <= 0
tri3_13_14_18: t13_14_18 - x14_18 <= 0
tri4_13_14_18: t13_14_18 - x13_14 - x13_18 - x14_18 >= -2
tri1_13_14_19: t13_14_19 - x13_14 <= 0
tri2_13_14_19: t13_14_19 - x13_19 <= 0
tri3_13_14_19: t13_14_19 - x14_19 <= 0
tri4_13_14_19: t13_14_19 - x13_14 - x13_19 - x14_19 >= -2
tri1_13_14_20: t13_14_20 - x13_14 <= 0
tri2_13_14_20: t13_14_20 - x13_20 <= 0
tri3_13_14_20: t13_14_20 - x14_20 <= 0
tri4_13_14_20: t13_14_20 - x13_14 - x13_20 - x14_20 >= -2
tri1_13_14_21: t13_14_21 - x13_14 <= 0
tri2_13_14_21: t13_14_21 - x13_21 <= 0
tri3_13_14_21: t13_14_21 - x14_21 <= 0
tri4_13_14_21: t13_14_21 - x13_14 - x13_21 - x14_21 >= -2
tri1_13_15_16: t13_15_16 - x13_15 <= 0
tri2_13_15_16: t13_15_16 - x13_16 <= 0
tri3_13_15_16: t13_15_16 - x15_16 <= 0
tri4_13_15_16: t13_15_16 - x13_15 - x13_16 - x15_16 >= -2
tri1_13_15_17: t13_15_17 - x13_15 <= 0
tri2_13_15_17: t13_15_17 - x13_17 <= 0
tri3_13_15_17: t13_15_17 - x15_17 <= 0
tri4_13_15_17: t13_15_17 - x13_15 - x13_17 - x15_17 >= -2
tri1_13_15_18: t13_15_18 - x13_15 <= 0
tri2_13_15_18: t13_15_18 - x13_18 <= 0
tri3_13_15_18: t13_15_18 - x15_18 <= 0
tri4_13_15_18: t13_15_18 - x13_15 - x13_18 - x15_18 >= -2
tri1_13_15_19: t13_15_19 - x13_15 <= 0
tri2_13_15_19: t13_15_19 - x13_19 <= 0
tri3_13_15_19: t13_15_19 - x15_19 <= 0
tri4_13_15_19: t13_15_19 - x13_15 - x13_19 - x15_19 >= -2
tri1_13_15_20: t13_15_20 - x13_15 <= 0
tri2_13_15_20: t13_15_20 - x13_20 <= 0
tri3_13_15_20: t13_15_20 - x15_20 <= 0
tri4_13_15_20: t13_15_20 - x13_15 - x13_20 - x15_20 >= -2
tri1_13_15_21: t13_15_21 - x13_15 <= 0
tri2_13_15_21: t13_15_21 - x13_21 <= 0
tri3_13_15_21: t13_15_21 - x15_21 <= 0
tri4_13_15_21: t13_15_21 - x13_15 - x13_21 - x15_21 >= -2
tri1_13_16_17: t13_16_17 - x13_16 <= 0
tri2_13_16_17: t13_16_17 - x13_17 <= 0
tri3_13_16_17: t13_16_17 - x16_17 <= 0
tri4_13_16_17: t13_16_17 - x13_16 - x13_17 - x16_17 >= -2
tri1_13_16_18: t13_16_18 - x13_16 <= 0
tri2_13_16_18: t13_16_18 - x13_18 <= 0
tri3_13_16_18: t13_16_18 - x16_18 <= 0
tri4_13_16_18: t13_16_18 - x13_16 - x13_18 - x16_18 >= -2
tri1_13_16_19: t13_16_19 - x13_16 <= 0
tri2_13_16_19: t13_16_19 - x13_19 <= 0
tri3_13_16_19: t13_16_19 - x16_19 <= 0
tri4_13_16_19: t13_16_19 - x13_16 - x13_19 - x16_19 >= -2
tri1_13_16_20: t13_16_20 - x13_16 <= 0
tri2_13_16_20: t13_16_20 - x13_20 <= 0
tri3_13_16_20: t13_16_20 - x16_20 <= 0
tri4_13_16_20: t13_16_20 - x13_16 - x13_20 - x16_20 >= -2
tri1_13_16_21: t13_16_21 - x13_16 <= 0
tri2_13_16_21: t13_16_21 - x13_21 <= 0
tri3_13_16_21: t13_16_21 - x16_21 <= 0
tri4_13_16_21: t13_16_21 - x13_16 - x13_21 - x16_21 >= -2
tri1_13_17_18: t13_17_18 - x13_17 <= 0
tri2_13_17_18: t13_17_18 - x13_18 <= 0
tri3_13_17_18: t13_17_18 - x17_18 <= 0
tri4_13_17_18: t13_17_18 - x13_17 - x13_18 - x17_18 >= -2
tri1_13_17_19: t13_17_19 - x13_17 <= 0
tri2_13_17_19: t13_17_19 - x13_19 <= 0
tri3_13_17_19: t13_17_19 - x17_19 <= 0
tri4_13_17_19: t13_17_19 - x13_17 - x13_19 - x17_19 >= -2
tri1_13_17_20: t13_17_20 - x13_17 <= 0
tri2_13_17_20: t13_17_20 - x13_20 <= 0
tri3_13_17_20: t13_17_20 - x17_20 <= 0
tri4_13_17_20: t13_17_20 - x13_17 - x13_20 - x17_20 >= -2
tri1_13_17_21: t13_17_21 - x13_17 <= 0
tri2_13_17_21: t13_17_21 - x13_21 <= 0
tri3_13_17_21: t13_17_21 - x17_21 <= 0
tri4_13_17_21: t13_17_21 - x13_17 - x13_21 - x17_21 >= -2
tri1_13_18_19: t13_18_19 - x13_18 <= 0
tri2_13_18_19: t13_18_19 - x13_19 <= 0
tri3_13_18_19: t13_18_19 - x18_19 <= 0
tri4_13_18_19: t13_18_19 - x13_18 - x13_19 - x18_19 >= -2
tri1_13_18_20: t13_18_20 - x13_18 <= 0
tri2_13_18_20: t13_18_20 - x13_20 <= 0
tri3_13_18_20: t13_18_20 - x18_20 <= 0
tri4_13_18_20: t13_18_20 - x13_18 - x13_20 - x18_20 >= -2
tri1_13_18_21: t13_18_21 - x13_18 <= 0
tri2_13_18_21: t13_18_21 - x13_21 <= 0
tri3_13_18_21: t13_18_21 - x18_21 <= 0
tri4_13_18_21: t13_18_21 - x13_18 - x13_21 - x18_21 >= -2
tri1_13_19_20: t13_19_20 - x13_19 <= 0
tri2_13_19_20: t13_19_20 - x13_20 <= 0
tri3_13_19_20: t13_19_20 - x19_20 <= 0
tri4_13_19_20: t13_19_20 - x13_19 - x13_20 - x19_20 >= -2
tri1_13_19_21: t13_19_21 - x13_19 <= 0
tri2_13_19_21: t13_19_21 - x13_21 <= 0
tri3_13_19_21: t13_19_21 - x19_21 <= 0
tri4_13_19_21: t13_19_21 - x13_19 - x13_21 - x19_21 >= -2
tri1_13_20_21: t13_20_21 - x13_20 <= 0
tri2_13_20_21: t13_20_21 - x13_21 <= 0
tri3_13_20_21: t13_20_21 - x20_21 <= 0
tri4_13_20_21: t13_20_21 - x13_20 - x13_21 - x20_21 >= -2
tri1_14_15_16: t14_15_16 - x14_15 <= 0
tri2_14_15_16: t14_15_16 - x14_16 <= 0
tri3_14_15_16: t14_15_16 - x15_16 <= 0
tri4_14_15_16: t14_15_16 - x14_15 - x14_16 - x15_16 >= -2
tri1_14_15_17: t14_15_17 - x14_15 <= 0
tri2_14_15_17: t14_15_17 - x14_17 <= 0
tri3_14_15_17: t14_15_17 - x15_17 <= 0
tri4_14_15_17: t14_15_17 - x14_15 - x14_17 - x15_17 >= -2
tri1_14_15_18: t14_15_18 - x14_15 <= 0
tri2_14_15_18: t14_15_18 - x14_18 <= 0
tri3_14_15_18: t14_15_18 - x15_18 <= 0
tri4_14_15_18: t14_15_18 - x14_15 - x14_18 - x15_18 >= -2
tri1_14_15_19: t14_15_19 - x14_15 <= 0
tri2_14_15_19: t14_15_19 - x14_19 <= 0
tri3_14_15_19: t14_15_19 - x15_19 <= 0
tri4_14_15_19: t14_15_19 - x14_15 - x14_19 - x15_19 >= -2
tri1_14_15_20: t14_15_20 - x14_15 <= 0
tri2_14_15_20: t14_15_20 - x14_20 <= 0
tri3_14_15_20: t14_15_20 - x15_20 <= 0
tri4_14_15_20: t14_15_20 - x14_15 - x14_20 - x15_20 >= -2
tri1_14_15_21: t14_15_21 - x14_15 <= 0
tri2_14_15_21: t14_15_21 - x14_21 <= 0
tri3_14_15_21: t14_15_21 - x15_21 <= 0
tri4_14_15_21: t14_15_21 - x14_15 - x14_21 - x15_21 >= -2
tri1_14_16_17: t14_16_17 - x14_16 <= 0
tri2_14_16_17: t14_16_17 - x14_17 <= 0
tri3_14_16_17: t14_16_17 - x16_17 <= 0
tri4_14_16_17: t14_16_17 - x14_16 - x14_17 - x16_17 >= -2
tri1_14_16_18: t14_16_18 - x14_16 <= 0
tri2_14_16_18: t14_16_18 - x14_18 <= 0
tri3_14_16_18: t14_16_18 - x16_18 <= 0
tri4_14_16_18: t14_16_18 - x14_16 - x14_18 - x16_18 >= -2
tri1_14_16_19: t14_16_19 - x14_16 <= 0
tri2_14_16_19: t14_16_19 - x14_19 <= 0
tri3_14_16_19: t14_16_19 - x16_19 <= 0
tri4_14_16_19: t14_16_19 - x14_16 - x14_19 - x16_19 >= -2
tri1_14_16_20: t14_16_20 - x14_16 <= 0
tri2_14_16_20: t14_16_20 - x14_20 <= 0
tri3_14_16_20: t14_16_20 - x16_20 <= 0
tri4_14_16_20: t14_16_20 - x14_16 - x14_20 - x16_20 >= -2
tri1_14_16_21: t14_16_21 - x14_16 <= 0
tri2_14_16_21: t14_16_21 - x14_21 <= 0
tri3_14_16_21: t14_16_21 - x16_21 <= 0
tri4_14_16_21: t14_16_21 - x14_16 - x14_21 - x16_21 >= -2
tri1_14_17_18: t14_17_18 - x14_17 <= 0
tri2_14_17_18: t14_17_18 - x14_18 <= 0
tri3_14_17_18: t14_17_18 - x17_18 <= 0
tri4_14_17_18: t14_17_18 - x14_17 - x14_18 - x17_18 >= -2
tri1_14_17_19: t14_17_19 - x14_17 <= 0
tri2_14_17_19: t14_17_19 - x14_19 <= 0
tri3_14_17_19: t14_17_19 - x17_19 <= 0
tri4_14_17_19: t14_17_19 - x14_17 - x14_19 - x17_19 >= -2
tri1_14_17_20: t14_17_20 - x14_17 <= 0
tri2_14_17_20: t14_17_20 - x14_20 <= 0
tri3_14_17_20: t14_17_20 - x17_20 <= 0
tri4_14_17_20: t14_17_20 - x14_17 - x14_20 - x17_20 >= -2
tri1_14_17_21: t14_17_21 - x14_17 <= 0
tri2_14_17_21: t14_17_21 - x14_21 <= 0
tri3_14_17_21: t14_17_21 - x17_21 <= 0
tri4_14_17_21: t14_17_21 - x14_17 - x14_21 - x17_21 >= -2
tri1_14_18_19: t14_18_19 - x14_18 <= 0
tri2_14_18_19: t14_18_19 - x14_19 <= 0
tri3_14_18_19: t14_18_19 - x18_19 <= 0
tri4_14_18_19: t14_18_19 - x14_18 - x14_19 - x18_19 >= -2
tri1_14_18_20: t14_18_20 - x14_18 <= 0
tri2_14_18_20: t14_18_20 - x14_20 <= 0
tri3_14_18_20: t14_18_20 - x18_20 <= 0
tri4_14_18_20: t14_18_20 - x14_18 - x14_20 - x18_20 >= -2
tri1_14_18_21: t14_18_21 - x14_18 <= 0
tri2_14_18_21: t14_18_21 - x14_21 <= 0
tri3_14_18_21: t14_18_21 - x18_21 <= 0
tri4_14_18_21: t14_18_21 - x14_18 - x14_21 - x18_21 >= -2
tri1_14_19_20: t14_19_20 - x14_19 <= 0
tri2_14_19_20: t14_19_20 - x14_20 <= 0
tri3_14_19_20: t14_19_20 - x19_20 <= 0
tri4_14_19_20: t14_19_20 - x14_19 - x14_20 - x19_20 >= -2
tri1_14_19_21: t14_19_21 - x14_19 <= 0
tri2_14_19_21: t14_19_21 - x14_21 <= 0
tri3_14_19_21: t14_19_21 - x19_21 <= 0
tri4_14_19_21: t14_19_21 - x14_19 - x14_21 - x19_21 >= -2
tri1_14_20_21: t14_20_21 - x14_20 <= 0
tri2_14_20_21: t14_20_21 - x14_21 <= 0
tri3_14_20_21: t14_20_21 - x20_21 <= 0
tri4_14_20_21: t14_20_21 - x14_20 - x14_21 - x20_21 >= -2
tri1_15_16_17: t15_16_17 - x15_16 <= 0
tri2_15_16_17: t15_16_17 - x15_17 <= 0
tri3_15_16_17: t15_16_17 - x16_17 <= 0
tri4_15_16_17: t15_16_17 - x15_16 - x15_17 - x16_17 >= -2
tri1_15_16_18: t15_16_18 - x15_16 <= 0
tri2_15_16_18: t15_16_18 - x15_18 <= 0
tri3_15_16_18: t15_16_18 - x16_18 <= 0
tri4_15_16_18: t15_16_18 - x15_16 - x15_18 - x16_18 >= -2
tri1_15_16_19: t15_16_19 - x15_16 <= 0
tri2_15_16_19: t15_16_19 - x15_19 <= 0
tri3_15_16_19: t15_16_19 - x16_19 <= 0
tri4_15_16_19: t15_16_19 - x15_16 - x15_19 - x16_19 >= -2
tri1_15_16_20: t15_16_20 - x15_16 <= 0
tri2_15_16_20: t15_16_20 - x15_20 <= 0
tri3_15_16_20: t15_16_20 - x16_20 <= 0
tri4_15_16_20: t15_16_20 - x15_16 - x15_20 - x16_20 >= -2
tri1_15_16_21: t15_16_21 - x15_16 <= 0
tri2_15_16_21: t15_16_21 - x15_21 <= 0
tri3_15_16_21: t15_16_21 - x16_21 <= 0
tri4_15_16_21: t15_16_21 - x15_16 - x15_21 - x16_21 >= -2
tri1_15_17_18: t15_17_18 - x15_17 <= 0
tri2_15_17_18: t15_17_18 - x15_18 <= 0
tri3_15_17_18: t15_17_18 - x17_18 <= 0
tri4_15_17_18: t15_17_18 - x15_17 - x15_18 - x17_18 >= -2
tri1_15_17_19: t15_17_19 - x15_17 <= 0
tri2_15_17_19: t15_17_19 - x15_19 <= 0
tri3_15_17_19: t15_17_19 - x17_19 <= 0
tri4_15_17_19: t15_17_19 - x15_17 - x15_19 - x17_19 >= -2
tri1_15_17_20: t15_17_20 - x15_17 <= 0
tri2_15_17_20: t15_17_20 - x15_20 <= 0
tri3_15_17_20: t15_17_20 - x17_20 <= 0
tri4_15_17_20: t15_17_20 - x15_17 - x15_20 - x17_20 >= -2
tri1_15_17_21: t15_17_21 - x15_17 <= 0
tri2_15_17_21: t15_17_21 - x15_21 <= 0
tri3_15_17_21: t15_17_21 - x17_21 <= 0
tri4_15_17_21: t15_17_21 - x15_17 - x15_21 - x17_21 >= -2
tri1_15_18_19: t15_18_19 - x15_18 <= 0
tri2_15_18_19: t15_18_19 - x15_19 <= 0
tri3_15_18_19: t15_18_19 - x18_19 <= 0
tri4_15_18_19: t15_18_19 - x15_18 - x15_19 - x18_19 >= -2
tri1_15_18_20: t15_18_20 - x15_18 <= 0
tri2_15_18_20: t15_18_20 - x15_20 <= 0
tri3_15_18_20: t15_18_20 - x18_20 <= 0
tri4_15_18_20: t15_18_20 - x15_18 - x15_20 - x18_20 >= -2
tri1_15_18_21: t15_18_21 - x15_18 <= 0
tri2_15_18_21: t15_18_21 - x15_21 <= 0
tri3_15_18_21: t15_18_21 - x18_21 <= 0
tri4_15_18_21: t15_18_21 - x15_18 - x15_21 - x18_21 >= -2
tri1_15_19_20: t15_19_20 - x15_19 <= 0
tri2_15_19_20: t15_19_20 - x15_20 <= 0
tri3_15_19_20: t15_19_20 - x19_20 <= 0
tri4_15_19_20: t15_19_20 - x15_19 - x15_20 - x19_20 >= -2
tri1_15_19_21: t15_19_21 - x15_19 <= 0
tri2_15_19_21: t15_19_21 - x15_21 <= 0
tri3_15_19_21: t15_19_21 - x19_21 <= 0
tri4_15_19_21: t15_19_21 - x15_19 - x15_21 - x19_21 >= -2
tri1_15_20_21: t15_20_21 - x15_20 <= 0
tri2_15_20_21: t15_20_21 - x15_21 <= 0
tri3_15_20_21: t15_20_21 - x20_21 <= 0
tri4_15_20_21: t15_20_21 - x15_20 - x15_21 - x20_21 >= -2
tri1_16_17_18: t16_17_18 - x16_17 <= 0
tri2_16_17_18: t16_17_18 - x16_18 <= 0
tri3_16_17_18: t16_17_18 - x17_18 <= 0
tri4_16_17_18: t16_17_18 - x16_17 - x16_18 - x17_18 >= -2
tri1_16_17_19: t16_17_19 - x16_17 <= 0
tri2_16_17_19: t16_17_19 - x16_19 <= 0
tri3_16_17_19: t16_17_19 - x17_19 <= 0
tri4_16_17_19: t16_17_19 - x16_17 - x16_19 - x17_19 >= -2
tri1_16_17_20: t16_17_20 - x16_17 <= 0
tri2_16_17_20: t16_17_20 - x16_20 <= 0
tri3_16_17_20: t16_17_20 - x17_20 <= 0
tri4_16_17_20: t16_17_20 - x16_17 - x16_20 - x17_20 >= -2
tri1_16_17_21: t16_17_21 - x16_17 <= 0
tri2_16_17_21: t16_17_21 - x16_21 <= 0
tri3_16_17_21: t16_17_21 - x17_21 <= 0
tri4_16_17_21: t16_17_21 - x16_17 - x16_21 - x17_21 >= -2
tri1_16_18_19: t16_18_19 - x16_18 <= 0
tri2_16_18_19: t16_18_19 - x16_19 <= 0
tri3_16_18_19: t16_18_19 - x18_19 <= 0
tri4_16_18_19: t16_18_19 - x16_18 - x16_19 - x18_19 >= -2
tri1_16_18_20: t16_18_20 - x16_18 <= 0
tri2_16_18_20: t16_18_20 - x16_20 <= 0
tri3_16_18_20: t16_18_20 - x18_20 <= 0
tri4_16_18_20: t16_18_20 - x16_18 - x16_20 - x18_20 >= -2
tri1_16_18_21: t16_18_21 - x16_18 <= 0
tri2_16_18_21: t16_18_21 - x16_21 <= 0
tri3_16_18_21: t16_18_21 - x18_21 <= 0
tri4_16_18_21: t16_18_21 - x16_18 - x16_21 - x18_21 >= -2
tri1_16_19_20: t16_19_20 - x16_19 <= 0
tri2_16_19_20: t16_19_20 - x16_20 <= 0
tri3_16_19_20: t16_19_20 - x19_20 <= 0
tri4_16_19_20: t16_19_20 - x16_19 - x16_20 - x19_20 >= -2
tri1_16_19_21: t16_19_21 - x16_19 <= 0
tri2_16_19_21: t16_19_21 - x16_21 <= 0
tri3_16_19_21: t16_19_21 - x19_21 <= 0
tri4_16_19_21: t16_19_21 - x16_19 - x16_21 - x19_21 >= -2
tri1_16_20_21: t16_20_21 - x16_20 <= 0
tri2_16_20_21: t16_20_21 - x16_21 <= 0
tri3_16_20_21: t16_20_21 - x20_21 <= 0
tri4_16_20_21: t16_20_21 - x16_20 - x16_21 - x20_21 >= -2
tri1_17_18_19: t17_18_19 - x17_18 <= 0
tri2_17_18_19: t17_18_19 - x17_19 <= 0
tri3_17_18_19: t17_18_19 - x18_19 <= 0
tri4_17_18_19: t17_18_19 - x17_18 - x17_19 - x18_19 >= -2
tri1_17_18_20: t17_18_20 - x17_18 <= 0
tri2_17_18_20: t17_18_20 - x17_20 <= 0
tri3_17_18_20: t17_18_20 - x18_20 <= 0
tri4_17_18_20: t17_18_20 - x17_18 - x17_20 - x18_20 >= -2
tri1_17_18_21: t17_18_21 - x17_18 <= 0
tri2_17_18_21: t17_18_21 - x17_21 <= 0
tri3_17_18_21: t17_18_21 - x18_21 <= 0
tri4_17_18_21: t17_18_21 - x17_18 - x17_21 - x18_21 >= -2
tri1_17_19_20: t17_19_20 - x17_19 <= 0
tri2_17_19_20: t17_19_20 - x17_20 <= 0
tri3_17_19_20: t17_19_20 - x19_20 <= 0
tri4_17_19_20: t17_19_20 - x17_19 - x17_20 - x19_20 >= -2
tri1_17_19_21: t17_19_21 - x17_19 <= 0
tri2_17_19_21: t17_19_21 - x17_21 <= 0
tri3_17_19_21: t17_19_21 - x19_21 <= 0
tri4_17_19_21: t17_19_21 - x17_19 - x17_21 - x19_21 >= -2
tri1_17_20_21: t17_20_21 - x17_20 <= 0
tri2_17_20_21: t17_20_21 - x17_21 <= 0
tri3_17_20_21: t17_20_21 - x20_21 <= 0
tri4_17_20_21: t17_20_21 - x17_20 - x17_21 - x20_21 >= -2
tri1_18_19_20: t18_19_20 - x18_19 <= 0
tri2_18_19_20: t18_19_20 - x18_20 <= 0
tri3_18_19_20: t18_19_20 - x19_20 <= 0
tri4_18_19_20: t18_19_20 - x18_19 - x18_20 - x19_20 >= -2
tri1_18_19_21: t18_19_21 - x18_19 <= 0
tri2_18_19_21: t18_19_21 - x18_21 <= 0
tri3_18_19_21: t18_19_21 - x19_21 <= 0
tri4_18_19_21: t18_19_21 - x18_19 - x18_21 - x19_21 >= -2
tri1_18_20_21: t18_20_21 - x18_20 <= 0
tri2_18_20_21: t18_20_21 - x18_21 <= 0
tri3_18_20_21: t18_20_21 - x20_21 <= 0
tri4_18_20_21: t18_20_21 - x18_20 - x18_21 - x20_21 >= -2
tri1_19_20_21: t19_20_21 - x19_20 <= 0
tri2_19_20_21: t19_20_21 - x19_21 <= 0
tri3_19_20_21: t19_20_21 - x20_21 <= 0
tri4_19_20_21: t19_20_21 - x19_20 - x19_21 - x20_21 >= -2

k3deg0: d0 - t0_1_2 - t0_1_3 - t0_1_4 - t0_1_5 - t0_1_6 - t0_1_7 - t0_1_8 - t0_1_9 - t0_1_10 - t0_1_11 - t0_1_12 - t0_1_13 - t0_1_14 - t0_1_15 - t0_1_16 - t0_1_17 - t0_1_18 - t0_1_19 - t0_1_20 - t0_1_21 - t0_2_3 - t0_2_4 - t0_2_5 - t0_2_6 - t0_2_7 - t0_2_8 - t0_2_9 - t0_2_10 - t0_2_11 - t0_2_12 - t0_2_13 - t0_2_14 - t0_2_15 - t0_2_16 - t0_2_17 - t0_2_18 - t0_2_19 - t0_2_20 - t0_2_21 - t0_3_4 - t0_3_5 - t0_3_6 - t0_3_7 - t0_3_8 - t0_3_9 - t0_3_10 - t0_3_11 - t0_3_12 - t0_3_13 - t0_3_14 - t0_3_15 - t0_3_16 - t0_3_17 - t0_3_18 - t0_3_19 - t0_3_20 - t0_3_21 - t0_4_5 - t0_4_6 - t0_4_7 - t0_4_8 - t0_4_9 - t0_4_10 - t0_4_11 - t0_4_12 - t0_4_13 - t0_4_14 - t0_4_15 - t0_4_16 - t0_4_17 - t0_4_18 - t0_4_19 - t0_4_20 - t0_4_21 - t0_5_6 - t0_5_7 - t0_5_8 - t0_5_9 - t0_5_10 - t0_5_11 - t0_5_12 - t0_5_13 - t0_5_14 - t0_5_15 - t0_5_16 - t0_5_17 - t0_5_18 - t0_5_19 - t0_5_20 - t0_5_21 - t0_6_7 - t0_6_8 - t0_6_9 - t0_6_10 - t0_6_11 - t0_6_12 - t0_6_13 - t0_6_14 - t0_6_15 - t0_6_16 - t0_6_17 - t0_6_18 - t0_6_19 - t0_6_20 - t0_6_21 - t0_7_8 - t0_7_9 - t0_7_10 - t0_7_11 - t0_7_12 - t0_7_13 - t0_7_14 - t0_7_15 - t0_7_16 - t0_7_17 - t0_7_18 - t0_7_19 - t0_7_20 - t0_7_21 - t0_8_9 - t0_8_10 - t0_8_11 - t0_8_12 - t0_8_13 - t0_8_14 - t0_8_15 - t0_8_16 - t0_8_17 - t0_8_18 - t0_8_19 - t0_8_20 - t0_8_21 - t0_9_10 - t0_9_11 - t0_9_12 - t0_9_13 - t0_9_14 - t0_9_15 - t0_9_16 - t0_9_17 - t0_9_18 - t0_9_19 - t0_9_20 - t0_9_21 - t0_10_11 - t0_10_12 - t0_10_13 - t0_10_14 - t0_10_15 - t0_10_16 - t0_10_17 - t0_10_18 - t0_10_19 - t0_10_20 - t0_10_21 - t0_11_12 - t0_11_13 - t0_11_14 - t0_11_15 - t0_11_16 - t0_11_17 - t0_11_18 - t0_11_19 - t0_11_20 - t0_11_21 - t0_12_13 - t0_12_14 - t0_12_15 - t0_12_16 - t0_12_17 - t0_12_18 - t0_12_19 - t0_12_20 - t0_12_21 - t0_13_14 - t0_13_15 - t0_13_16 - t0_13_17 - t0_13_18 - t0_13_19 - t0_13_20 - t0_13_21 - t0_14_15 - t0_14_16 - t0_14_17 - t0_14_18 - t0_14_19 - t0_14_20 - t0_14_21 - t0_15_16 - t0_15_17 - t0_15_18 - t0_15_19 - t0_15_20 - t0_15_21 - t0_16_17 - t0_16_18 - t0_16_19 - t0_16_20 - t0_16_21 - t0_17_18 - t0_17_19 - t0_17_20 - t0_17_21 - t0_18_19 - t0_18_20 - t0_18_21 - t0_19_20 - t0_19_21 - t0_20_21 = 0

k3deg1: d1 - t0_1_2 - t0_1_3 - t0_1_4 - t0_1_5 - t0_1_6 - t0_1_7 - t0_1_8 - t0_1_9 - t0_1_10 - t0_1_11 - t0_1_12 - t0_1_13 - t0_1_14 - t0_1_15 - t0_1_16 - t0_1_17 - t0_1_18 - t0_1_19 - t0_1_20 - t0_1_21 - t1_2_3 - t1_2_4 - t1_2_5 - t1_2_6 - t1_2_7 - t1_2_8 - t1_2_9 - t1_2_10 - t1_2_11 - t1_2_12 - t1_2_13 - t1_2_14 - t1_2_15 - t1_2_16 - t1_2_17 - t1_2_18 - t1_2_19 - t1_2_20 - t1_2_21 - t1_3_4 - t1_3_5 - t1_3_6 - t1_3_7 - t1_3_8 - t1_3_9 - t1_3_10 - t1_3_11 - t1_3_12 - t1_3_13 - t1_3_14 - t1_3_15 - t1_3_16 - t1_3_17 - t1_3_18 - t1_3_19 - t1_3_20 - t1_3_21 - t1_4_5 - t1_4_6 - t1_4_7 - t1_4_8 - t1_4_9 - t1_4_10 - t1_4_11 - t1_4_12 - t1_4_13 - t1_4_14 - t1_4_15 - t1_4_16 - t1_4_17 - t1_4_18 - t1_4_19 - t1_4_20 - t1_4_21 - t1_5_6 - t1_5_7 - t1_5_8 - t1_5_9 - t1_5_10 - t1_5_11 - t1_5_12 - t1_5_13 - t1_5_14 - t1_5_15 - t1_5_16 - t1_5_17 - t1_5_18 - t1_5_19 - t1_5_20 - t1_5_21 - t1_6_7 - t1_6_8 - t1_6_9 - t1_6_10 - t1_6_11 - t1_6_12 - t1_6_13 - t1_6_14 - t1_6_15 - t1_6_16 - t1_6_17 - t1_6_18 - t1_6_19 - t1_6_20 - t1_6_21 - t1_7_8 - t1_7_9 - t1_7_10 - t1_7_11 - t1_7_12 - t1_7_13 - t1_7_14 - t1_7_15 - t1_7_16 - t1_7_17 - t1_7_18 - t1_7_19 - t1_7_20 - t1_7_21 - t1_8_9 - t1_8_10 - t1_8_11 - t1_8_12 - t1_8_13 - t1_8_14 - t1_8_15 - t1_8_16 - t1_8_17 - t1_8_18 - t1_8_19 - t1_8_20 - t1_8_21 - t1_9_10 - t1_9_11 - t1_9_12 - t1_9_13 - t1_9_14 - t1_9_15 - t1_9_16 - t1_9_17 - t1_9_18 - t1_9_19 - t1_9_20 - t1_9_21 - t1_10_11 - t1_10_12 - t1_10_13 - t1_10_14 - t1_10_15 - t1_10_16 - t1_10_17 - t1_10_18 - t1_10_19 - t1_10_20 - t1_10_21 - t1_11_12 - t1_11_13 - t1_11_14 - t1_11_15 - t1_11_16 - t1_11_17 - t1_11_18 - t1_11_19 - t1_11_20 - t1_11_21 - t1_12_13 - t1_12_14 - t1_12_15 - t1_12_16 - t1_12_17 - t1_12_18 - t1_12_19 - t1_12_20 - t1_12_21 - t1_13_14 - t1_13_15 - t1_13_16 - t1_13_17 - t1_13_18 - t1_13_19 - t1_13_20 - t1_13_21 - t1_14_15 - t1_14_16 - t1_14_17 - t1_14_18 - t1_14_19 - t1_14_20 - t1_14_21 - t1_15_16 - t1_15_17 - t1_15_18 - t1_15_19 - t1_15_20 - t1_15_21 - t1_16_17 - t1_16_18 - t1_16_19 - t1_16_20 - t1_16_21 - t1_17_18 - t1_17_19 - t1_17_20 - t1_17_21 - t1_18_19 - t1_18_20 - t1_18_21 - t1_19_20 - t1_19_21 - t1_20_21 = 0

k3deg2: d2 - t0_1_2 - t0_2_3 - t0_2_4 - t0_2_5 - t0_2_6 - t0_2_7 - t0_2_8 - t0_2_9 - t0_2_10 - t0_2_11 - t0_2_12 - t0_2_13 - t0_2_14 - t0_2_15 - t0_2_16 - t0_2_17 - t0_2_18 - t0_2_19 - t0_2_20 - t0_2_21 - t1_2_3 - t1_2_4 - t1_2_5 - t1_2_6 - t1_2_7 - t1_2_8 - t1_2_9 - t1_2_10 - t1_2_11 - t1_2_12 - t1_2_13 - t1_2_14 - t1_2_15 - t1_2_16 - t1_2_17 - t1_2_18 - t1_2_19 - t1_2_20 - t1_2_21 - t2_3_4 - t2_3_5 - t2_3_6 - t2_3_7 - t2_3_8 - t2_3_9 - t2_3_10 - t2_3_11 - t2_3_12 - t2_3_13 - t2_3_14 - t2_3_15 - t2_3_16 - t2_3_17 - t2_3_18 - t2_3_19 - t2_3_20 - t2_3_21 - t2_4_5 - t2_4_6 - t2_4_7 - t2_4_8 - t2_4_9 - t2_4_10 - t2_4_11 - t2_4_12 - t2_4_13 - t2_4_14 - t2_4_15 - t2_4_16 - t2_4_17 - t2_4_18 - t2_4_19 - t2_4_20 - t2_4_21 - t2_5_6 - t2_5_7 - t2_5_8 - t2_5_9 - t2_5_10 - t2_5_11 - t2_5_12 - t2_5_13 - t2_5_14 - t2_5_15 - t2_5_16 - t2_5_17 - t2_5_18 - t2_5_19 - t2_5_20 - t2_5_21 - t2_6_7 - t2_6_8 - t2_6_9 - t2_6_10 - t2_6_11 - t2_6_12 - t2_6_13 - t2_6_14 - t2_6_15 - t2_6_16 - t2_6_17 - t2_6_18 - t2_6_19 - t2_6_20 - t2_6_21 - t2_7_8 - t2_7_9 - t2_7_10 - t2_7_11 - t2_7_12 - t2_7_13 - t2_7_14 - t2_7_15 - t2_7_16 - t2_7_17 - t2_7_18 - t2_7_19 - t2_7_20 - t2_7_21 - t2_8_9 - t2_8_10 - t2_8_11 - t2_8_12 - t2_8_13 - t2_8_14 - t2_8_15 - t2_8_16 - t2_8_17 - t2_8_18 - t2_8_19 - t2_8_20 - t2_8_21 - t2_9_10 - t2_9_11 - t2_9_12 - t2_9_13 - t2_9_14 - t2_9_15 - t2_9_16 - t2_9_17 - t2_9_18 - t2_9_19 - t2_9_20 - t2_9_21 - t2_10_11 - t2_10_12 - t2_10_13 - t2_10_14 - t2_10_15 - t2_10_16 - t2_10_17 - t2_10_18 - t2_10_19 - t2_10_20 - t2_10_21 - t2_11_12 - t2_11_13 - t2_11_14 - t2_11_15 - t2_11_16 - t2_11_17 - t2_11_18 - t2_11_19 - t2_11_20 - t2_11_21 - t2_12_13 - t2_12_14 - t2_12_15 - t2_12_16 - t2_12_17 - t2_12_18 - t2_12_19 - t2_12_20 - t2_12_21 - t2_13_14 - t2_13_15 - t2_13_16 - t2_13_17 - t2_13_18 - t2_13_19 - t2_13_20 - t2_13_21 - t2_14_15 - t2_14_16 - t2_14_17 - t2_14_18 - t2_14_19 - t2_14_20 - t2_14_21 - t2_15_16 - t2_15_17 - t2_15_18 - t2_15_19 - t2_15_20 - t2_15_21 - t2_16_17 - t2_16_18 - t2_16_19 - t2_16_20 - t2_16_21 - t2_17_18 - t2_17_19 - t2_17_20 - t2_17_21 - t2_18_19 - t2_18_20 - t2_18_21 - t2_19_20 - t2_19_21 - t2_20_21 = 0

k3deg3: d3 - t0_1_3 - t0_2_3 - t0_3_4 - t0_3_5 - t0_3_6 - t0_3_7 - t0_3_8 - t0_3_9 - t0_3_10 - t0_3_11 - t0_3_12 - t0_3_13 - t0_3_14 - t0_3_15 - t0_3_16 - t0_3_17 - t0_3_18 - t0_3_19 - t0_3_20 - t0_3_21 - t1_2_3 - t1_3_4 - t1_3_5 - t1_3_6 - t1_3_7 - t1_3_8 - t1_3_9 - t1_3_10 - t1_3_11 - t1_3_12 - t1_3_13 - t1_3_14 - t1_3_15 - t1_3_16 - t1_3_17 - t1_3_18 - t1_3_19 - t1_3_20 - t1_3_21 - t2_3_4 - t2_3_5 - t2_3_6 - t2_3_7 - t2_3_8 - t2_3_9 - t2_3_10 - t2_3_11 - t2_3_12 - t2_3_13 - t2_3_14 - t2_3_15 - t2_3_16 - t2_3_17 - t2_3_18 - t2_3_19 - t2_3_20 - t2_3_21 - t3_4_5 - t3_4_6 - t3_4_7 - t3_4_8 - t3_4_9 - t3_4_10 - t3_4_11 - t3_4_12 - t3_4_13 - t3_4_14 - t3_4_15 - t3_4_16 - t3_4_17 - t3_4_18 - t3_4_19 - t3_4_20 - t3_4_21 - t3_5_6 - t3_5_7 - t3_5_8 - t3_5_9 - t3_5_10 - t3_5_11 - t3_5_12 - t3_5_13 - t3_5_14 - t3_5_15 - t3_5_16 - t3_5_17 - t3_5_18 - t3_5_19 - t3_5_20 - t3_5_21 - t3_6_7 - t3_6_8 - t3_6_9 - t3_6_10 - t3_6_11 - t3_6_12 - t3_6_13 - t3_6_14 - t3_6_15 - t3_6_16 - t3_6_17 - t3_6_18 - t3_6_19 - t3_6_20 - t3_6_21 - t3_7_8 - t3_7_9 - t3_7_10 - t3_7_11 - t3_7_12 - t3_7_13 - t3_7_14 - t3_7_15 - t3_7_16 - t3_7_17 - t3_7_18 - t3_7_19 - t3_7_20 - t3_7_21 - t3_8_9 - t3_8_10 - t3_8_11 - t3_8_12 - t3_8_13 - t3_8_14 - t3_8_15 - t3_8_16 - t3_8_17 - t3_8_18 - t3_8_19 - t3_8_20 - t3_8_21 - t3_9_10 - t3_9_11 - t3_9_12 - t3_9_13 - t3_9_14 - t3_9_15 - t3_9_16 - t3_9_17 - t3_9_18 - t3_9_19 - t3_9_20 - t3_9_21 - t3_10_11 - t3_10_12 - t3_10_13 - t3_10_14 - t3_10_15 - t3_10_16 - t3_10_17 - t3_10_18 - t3_10_19 - t3_10_20 - t3_10_21 - t3_11_12 - t3_11_13 - t3_11_14 - t3_11_15 - t3_11_16 - t3_11_17 - t3_11_18 - t3_11_19 - t3_11_20 - t3_11_21 - t3_12_13 - t3_12_14 - t3_12_15 - t3_12_16 - t3_12_17 - t3_12_18 - t3_12_19 - t3_12_20 - t3_12_21 - t3_13_14 - t3_13_15 - t3_13_16 - t3_13_17 - t3_13_18 - t3_13_19 - t3_13_20 - t3_13_21 - t3_14_15 - t3_14_16 - t3_14_17 - t3_14_18 - t3_14_19 - t3_14_20 - t3_14_21 - t3_15_16 - t3_15_17 - t3_15_18 - t3_15_19 - t3_15_20 - t3_15_21 - t3_16_17 - t3_16_18 - t3_16_19 - t3_16_20 - t3_16_21 - t3_17_18 - t3_17_19 - t3_17_20 - t3_17_21 - t3_18_19 - t3_18_20 - t3_18_21 - t3_19_20 - t3_19_21 - t3_20_21 = 0

k3deg4: d4 - t0_1_4 - t0_2_4 - t0_3_4 - t0_4_5 - t0_4_6 - t0_4_7 - t0_4_8 - t0_4_9 - t0_4_10 - t0_4_11 - t0_4_12 - t0_4_13 - t0_4_14 - t0_4_15 - t0_4_16 - t0_4_17 - t0_4_18 - t0_4_19 - t0_4_20 - t0_4_21 - t1_2_4 - t1_3_4 - t1_4_5 - t1_4_6 - t1_4_7 - t1_4_8 - t1_4_9 - t1_4_10 - t1_4_11 - t1_4_12 - t1_4_13 - t1_4_14 - t1_4_15 - t1_4_16 - t1_4_17 - t1_4_18 - t1_4_19 - t1_4_20 - t1_4_21 - t2_3_4 - t2_4_5 - t2_4_6 - t2_4_7 - t2_4_8 - t2_4_9 - t2_4_10 - t2_4_11 - t2_4_12 - t2_4_13 - t2_4_14 - t2_4_15 - t2_4_16 - t2_4_17 - t2_4_18 - t2_4_19 - t2_4_20 - t2_4_21 - t3_4_5 - t3_4_6 - t3_4_7 - t3_4_8 - t3_4_9 - t3_4_10 - t3_4_11 - t3_4_12 - t3_4_13 - t3_4_14 - t3_4_15 - t3_4_16 - t3_4_17 - t3_4_18 - t3_4_19 - t3_4_20 - t3_4_21 - t4_5_6 - t4_5_7 - t4_5_8 - t4_5_9 - t4_5_10 - t4_5_11 - t4_5_12 - t4_5_13 - t4_5_14 - t4_5_15 - t4_5_16 - t4_5_17 - t4_5_18 - t4_5_19 - t4_5_20 - t4_5_21 - t4_6_7 - t4_6_8 - t4_6_9 - t4_6_10 - t4_6_11 - t4_6_12 - t4_6_13 - t4_6_14 - t4_6_15 - t4_6_16 - t4_6_17 - t4_6_18 - t4_6_19 - t4_6_20 - t4_6_21 - t4_7_8 - t4_7_9 - t4_7_10 - t4_7_11 - t4_7_12 - t4_7_13 - t4_7_14 - t4_7_15 - t4_7_16 - t4_7_17 - t4_7_18 - t4_7_19 - t4_7_20 - t4_7_21 - t4_8_9 - t4_8_10 - t4_8_11 - t4_8_12 - t4_8_13 - t4_8_14 - t4_8_15 - t4_8_16 - t4_8_17 - t4_8_18 - t4_8_19 - t4_8_20 - t4_8_21 - t4_9_10 - t4_9_11 - t4_9_12 - t4_9_13 - t4_9_14 - t4_9_15 - t4_9_16 - t4_9_17 - t4_9_18 - t4_9_19 - t4_9_20 - t4_9_21 - t4_10_11 - t4_10_12 - t4_10_13 - t4_10_14 - t4_10_15 - t4_10_16 - t4_10_17 - t4_10_18 - t4_10_19 - t4_10_20 - t4_10_21 - t4_11_12 - t4_11_13 - t4_11_14 - t4_11_15 - t4_11_16 - t4_11_17 - t4_11_18 - t4_11_19 - t4_11_20 - t4_11_21 - t4_12_13 - t4_12_14 - t4_12_15 - t4_12_16 - t4_12_17 - t4_12_18 - t4_12_19 - t4_12_20 - t4_12_21 - t4_13_14 - t4_13_15 - t4_13_16 - t4_13_17 - t4_13_18 - t4_13_19 - t4_13_20 - t4_13_21 - t4_14_15 - t4_14_16 - t4_14_17 - t4_14_18 - t4_14_19 - t4_14_20 - t4_14_21 - t4_15_16 - t4_15_17 - t4_15_18 - t4_15_19 - t4_15_20 - t4_15_21 - t4_16_17 - t4_16_18 - t4_16_19 - t4_16_20 - t4_16_21 - t4_17_18 - t4_17_19 - t4_17_20 - t4_17_21 - t4_18_19 - t4_18_20 - t4_18_21 - t4_19_20 - t4_19_21 - t4_20_21 = 0

k3deg5: d5 - t0_1_5 - t0_2_5 - t0_3_5 - t0_4_5 - t0_5_6 - t0_5_7 - t0_5_8 - t0_5_9 - t0_5_10 - t0_5_11 - t0_5_12 - t0_5_13 - t0_5_14 - t0_5_15 - t0_5_16 - t0_5_17 - t0_5_18 - t0_5_19 - t0_5_20 - t0_5_21 - t1_2_5 - t1_3_5 - t1_4_5 - t1_5_6 - t1_5_7 - t1_5_8 - t1_5_9 - t1_5_10 - t1_5_11 - t1_5_12 - t1_5_13 - t1_5_14 - t1_5_15 - t1_5_16 - t1_5_17 - t1_5_18 - t1_5_19 - t1_5_20 - t1_5_21 - t2_3_5 - t2_4_5 - t2_5_6 - t2_5_7 - t2_5_8 - t2_5_9 - t2_5_10 - t2_5_11 - t2_5_12 - t2_5_13 - t2_5_14 - t2_5_15 - t2_5_16 - t2_5_17 - t2_5_18 - t2_5_19 - t2_5_20 - t2_5_21 - t3_4_5 - t3_5_6 - t3_5_7 - t3_5_8 - t3_5_9 - t3_5_10 - t3_5_11 - t3_5_12 - t3_5_13 - t3_5_14 - t3_5_15 - t3_5_16 - t3_5_17 - t3_5_18 - t3_5_19 - t3_5_20 - t3_5_21 - t4_5_6 - t4_5_7 - t4_5_8 - t4_5_9 - t4_5_10 - t4_5_11 - t4_5_12 - t4_5_13 - t4_5_14 - t4_5_15 - t4_5_16 - t4_5_17 - t4_5_18 - t4_5_19 - t4_5_20 - t4_5_21 - t5_6_7 - t5_6_8 - t5_6_9 - t5_6_10 - t5_6_11 - t5_6_12 - t5_6_13 - t5_6_14 - t5_6_15 - t5_6_16 - t5_6_17 - t5_6_18 - t5_6_19 - t5_6_20 - t5_6_21 - t5_7_8 - t5_7_9 - t5_7_10 - t5_7_11 - t5_7_12 - t5_7_13 - t5_7_14 - t5_7_15 - t5_7_16 - t5_7_17 - t5_7_18 - t5_7_19 - t5_7_20 - t5_7_21 - t5_8_9 - t5_8_10 - t5_8_11 - t5_8_12 - t5_8_13 - t5_8_14 - t5_8_15 - t5_8_16 - t5_8_17 - t5_8_18 - t5_8_19 - t5_8_20 - t5_8_21 - t5_9_10 - t5_9_11 - t5_9_12 - t5_9_13 - t5_9_14 - t5_9_15 - t5_9_16 - t5_9_17 - t5_9_18 - t5_9_19 - t5_9_20 - t5_9_21 - t5_10_11 - t5_10_12 - t5_10_13 - t5_10_14 - t5_10_15 - t5_10_16 - t5_10_17 - t5_10_18 - t5_10_19 - t5_10_20 - t5_10_21 - t5_11_12 - t5_11_13 - t5_11_14 - t5_11_15 - t5_11_16 - t5_11_17 - t5_11_18 - t5_11_19 - t5_11_20 - t5_11_21 - t5_12_13 - t5_12_14 - t5_12_15 - t5_12_16 - t5_12_17 - t5_12_18 - t5_12_19 - t5_12_20 - t5_12_21 - t5_13_14 - t5_13_15 - t5_13_16 - t5_13_17 - t5_13_18 - t5_13_19 - t5_13_20 - t5_13_21 - t5_14_15 - t5_14_16 - t5_14_17 - t5_14_18 - t5_14_19 - t5_14_20 - t5_14_21 - t5_15_16 - t5_15_17 - t5_15_18 - t5_15_19 - t5_15_20 - t5_15_21 - t5_16_17 - t5_16_18 - t5_16_19 - t5_16_20 - t5_16_21 - t5_17_18 - t5_17_19 - t5_17_20 - t5_17_21 - t5_18_19 - t5_18_20 - t5_18_21 - t5_19_20 - t5_19_21 - t5_20_21 = 0

k3deg6: d6 - t0_1_6 - t0_2_6 - t0_3_6 - t0_4_6 - t0_5_6 - t0_6_7 - t0_6_8 - t0_6_9 - t0_6_10 - t0_6_11 - t0_6_12 - t0_6_13 - t0_6_14 - t0_6_15 - t0_6_16 - t0_6_17 - t0_6_18 - t0_6_19 - t0_6_20 - t0_6_21 - t1_2_6 - t1_3_6 - t1_4_6 - t1_5_6 - t1_6_7 - t1_6_8 - t1_6_9 - t1_6_10 - t1_6_11 - t1_6_12 - t1_6_13 - t1_6_14 - t1_6_15 - t1_6_16 - t1_6_17 - t1_6_18 - t1_6_19 - t1_6_20 - t1_6_21 - t2_3_6 - t2_4_6 - t2_5_6 - t2_6_7 - t2_6_8 - t2_6_9 - t2_6_10 - t2_6_11 - t2_6_12 - t2_6_13 - t2_6_14 - t2_6_15 - t2_6_16 - t2_6_17 - t2_6_18 - t2_6_19 - t2_6_20 - t2_6_21 - t3_4_6 - t3_5_6 - t3_6_7 - t3_6_8 - t3_6_9 - t3_6_10 - t3_6_11 - t3_6_12 - t3_6_13 - t3_6_14 - t3_6_15 - t3_6_16 - t3_6_17 - t3_6_18 - t3_6_19 - t3_6_20 - t3_6_21 - t4_5_6 - t4_6_7 - t4_6_8 - t4_6_9 - t4_6_10 - t4_6_11 - t4_6_12 - t4_6_13 - t4_6_14 - t4_6_15 - t4_6_16 - t4_6_17 - t4_6_18 - t4_6_19 - t4_6_20 - t4_6_21 - t5_6_7 - t5_6_8 - t5_6_9 - t5_6_10 - t5_6_11 - t5_6_12 - t5_6_13 - t5_6_14 - t5_6_15 - t5_6_16 - t5_6_17 - t5_6_18 - t5_6_19 - t5_6_20 - t5_6_21 - t6_7_8 - t6_7_9 - t6_7_10 - t6_7_11 - t6_7_12 - t6_7_13 - t6_7_14 - t6_7_15 - t6_7_16 - t6_7_17 - t6_7_18 - t6_7_19 - t6_7_20 - t6_7_21 - t6_8_9 - t6_8_10 - t6_8_11 - t6_8_12 - t6_8_13 - t6_8_14 - t6_8_15 - t6_8_16 - t6_8_17 - t6_8_18 - t6_8_19 - t6_8_20 - t6_8_21 - t6_9_10 - t6_9_11 - t6_9_12 - t6_9_13 - t6_9_14 - t6_9_15 - t6_9_16 - t6_9_17 - t6_9_18 - t6_9_19 - t6_9_20 - t6_9_21 - t6_10_11 - t6_10_12 - t6_10_13 - t6_10_14 - t6_10_15 - t6_10_16 - t6_10_17 - t6_10_18 - t6_10_19 - t6_10_20 - t6_10_21 - t6_11_12 - t6_11_13 - t6_11_14 - t6_11_15 - t6_11_16 - t6_11_17 - t6_11_18 - t6_11_19 - t6_11_20 - t6_11_21 - t6_12_13 - t6_12_14 - t6_12_15 - t6_12_16 - t6_12_17 - t6_12_18 - t6_12_19 - t6_12_20 - t6_12_21 - t6_13_14 - t6_13_15 - t6_13_16 - t6_13_17 - t6_13_18 - t6_13_19 - t6_13_20 - t6_13_21 - t6_14_15 - t6_14_16 - t6_14_17 - t6_14_18 - t6_14_19 - t6_14_20 - t6_14_21 - t6_15_16 - t6_15_17 - t6_15_18 - t6_15_19 - t6_15_20 - t6_15_21 - t6_16_17 - t6_16_18 - t6_16_19 - t6_16_20 - t6_16_21 - t6_17_18 - t6_17_19 - t6_17_20 - t6_17_21 - t6_18_19 - t6_18_20 - t6_18_21 - t6_19_20 - t6_19_21 - t6_20_21 = 0

k3deg7: d7 - t0_1_7 - t0_2_7 - t0_3_7 - t0_4_7 - t0_5_7 - t0_6_7 - t0_7_8 - t0_7_9 - t0_7_10 - t0_7_11 - t0_7_12 - t0_7_13 - t0_7_14 - t0_7_15 - t0_7_16 - t0_7_17 - t0_7_18 - t0_7_19 - t0_7_20 - t0_7_21 - t1_2_7 - t1_3_7 - t1_4_7 - t1_5_7 - t1_6_7 - t1_7_8 - t1_7_9 - t1_7_10 - t1_7_11 - t1_7_12 - t1_7_13 - t1_7_14 - t1_7_15 - t1_7_16 - t1_7_17 - t1_7_18 - t1_7_19 - t1_7_20 - t1_7_21 - t2_3_7 - t2_4_7 - t2_5_7 - t2_6_7 - t2_7_8 - t2_7_9 - t2_7_10 - t2_7_11 - t2_7_12 - t2_7_13 - t2_7_14 - t2_7_15 - t2_7_16 - t2_7_17 - t2_7_18 - t2_7_19 - t2_7_20 - t2_7_21 - t3_4_7 - t3_5_7 - t3_6_7 - t3_7_8 - t3_7_9 - t3_7_10 - t3_7_11 - t3_7_12 - t3_7_13 - t3_7_14 - t3_7_15 - t3_7_16 - t3_7_17 - t3_7_18 - t3_7_19 - t3_7_20 - t3_7_21 - t4_5_7 - t4_6_7 - t4_7_8 - t4_7_9 - t4_7_10 - t4_7_11 - t4_7_12 - t4_7_13 - t4_7_14 - t4_7_15 - t4_7_16 - t4_7_17 - t4_7_18 - t4_7_19 - t4_7_20 - t4_7_21 - t5_6_7 - t5_7_8 - t5_7_9 - t5_7_10 - t5_7_11 - t5_7_12 - t5_7_13 - t5_7_14 - t5_7_15 - t5_7_16 - t5_7_17 - t5_7_18 - t5_7_19 - t5_7_20 - t5_7_21 - t6_7_8 - t6_7_9 - t6_7_10 - t6_7_11 - t6_7_12 - t6_7_13 - t6_7_14 - t6_7_15 - t6_7_16 - t6_7_17 - t6_7_18 - t6_7_19 - t6_7_20 - t6_7_21 - t7_8_9 - t7_8_10 - t7_8_11 - t7_8_12 - t7_8_13 - t7_8_14 - t7_8_15 - t7_8_16 - t7_8_17 - t7_8_18 - t7_8_19 - t7_8_20 - t7_8_21 - t7_9_10 - t7_9_11 - t7_9_12 - t7_9_13 - t7_9_14 - t7_9_15 - t7_9_16 - t7_9_17 - t7_9_18 - t7_9_19 - t7_9_20 - t7_9_21 - t7_10_11 - t7_10_12 - t7_10_13 - t7_10_14 - t7_10_15 - t7_10_16 - t7_10_17 - t7_10_18 - t7_10_19 - t7_10_20 - t7_10_21 - t7_11_12 - t7_11_13 - t7_11_14 - t7_11_15 - t7_11_16 - t7_11_17 - t7_11_18 - t7_11_19 - t7_11_20 - t7_11_21 - t7_12_13 - t7_12_14 - t7_12_15 - t7_12_16 - t7_12_17 - t7_12_18 - t7_12_19 - t7_12_20 - t7_12_21 - t7_13_14 - t7_13_15 - t7_13_16 - t7_13_17 - t7_13_18 - t7_13_19 - t7_13_20 - t7_13_21 - t7_14_15 - t7_14_16 - t7_14_17 - t7_14_18 - t7_14_19 - t7_14_20 - t7_14_21 - t7_15_16 - t7_15_17 - t7_15_18 - t7_15_19 - t7_15_20 - t7_15_21 - t7_16_17 - t7_16_18 - t7_16_19 - t7_16_20 - t7_16_21 - t7_17_18 - t7_17_19 - t7_17_20 - t7_17_21 - t7_18_19 - t7_18_20 - t7_18_21 - t7_19_20 - t7_19_21 - t7_20_21 = 0

k3deg8: d8 - t0_1_8 - t0_2_8 - t0_3_8 - t0_4_8 - t0_5_8 - t0_6_8 - t0_7_8 - t0_8_9 - t0_8_10 - t0_8_11 - t0_8_12 - t0_8_13 - t0_8_14 - t0_8_15 - t0_8_16 - t0_8_17 - t0_8_18 - t0_8_19 - t0_8_20 - t0_8_21 - t1_2_8 - t1_3_8 - t1_4_8 - t1_5_8 - t1_6_8 - t1_7_8 - t1_8_9 - t1_8_10 - t1_8_11 - t1_8_12 - t1_8_13 - t1_8_14 - t1_8_15 - t1_8_16 - t1_8_17 - t1_8_18 - t1_8_19 - t1_8_20 - t1_8_21 - t2_3_8 - t2_4_8 - t2_5_8 - t2_6_8 - t2_7_8 - t2_8_9 - t2_8_10 - t2_8_11 - t2_8_12 - t2_8_13 - t2_8_14 - t2_8_15 - t2_8_16 - t2_8_17 - t2_8_18 - t2_8_19 - t2_8_20 - t2_8_21 - t3_4_8 - t3_5_8 - t3_6_8 - t3_7_8 - t3_8_9 - t3_8_10 - t3_8_11 - t3_8_12 - t3_8_13 - t3_8_14 - t3_8_15 - t3_8_16 - t3_8_17 - t3_8_18 - t3_8_19 - t3_8_20 - t3_8_21 - t4_5_8 - t4_6_8 - t4_7_8 - t4_8_9 - t4_8_10 - t4_8_11 - t4_8_12 - t4_8_13 - t4_8_14 - t4_8_15 - t4_8_16 - t4_8_17 - t4_8_18 - t4_8_19 - t4_8_20 - t4_8_21 - t5_6_8 - t5_7_8 - t5_8_9 - t5_8_10 - t5_8_11 - t5_8_12 - t5_8_13 - t5_8_14 - t5_8_15 - t5_8_16 - t5_8_17 - t5_8_18 - t5_8_19 - t5_8_20 - t5_8_21 - t6_7_8 - t6_8_9 - t6_8_10 - t6_8_11 - t6_8_12 - t6_8_13 - t6_8_14 - t6_8_15 - t6_8_16 - t6_8_17 - t6_8_18 - t6_8_19 - t6_8_20 - t6_8_21 - t7_8_9 - t7_8_10 - t7_8_11 - t7_8_12 - t7_8_13 - t7_8_14 - t7_8_15 - t7_8_16 - t7_8_17 - t7_8_18 - t7_8_19 - t7_8_20 - t7_8_21 - t8_9_10 - t8_9_11 - t8_9_12 - t8_9_13 - t8_9_14 - t8_9_15 - t8_9_16 - t8_9_17 - t8_9_18 - t8_9_19 - t8_9_20 - t8_9_21 - t8_10_11 - t8_10_12 - t8_10_13 - t8_10_14 - t8_10_15 - t8_10_16 - t8_10_17 - t8_10_18 - t8_10_19 - t8_10_20 - t8_10_21 - t8_11_12 - t8_11_13 - t8_11_14 - t8_11_15 - t8_11_16 - t8_11_17 - t8_11_18 - t8_11_19 - t8_11_20 - t8_11_21 - t8_12_13 - t8_12_14 - t8_12_15 - t8_12_16 - t8_12_17 - t8_12_18 - t8_12_19 - t8_12_20 - t8_12_21 - t8_13_14 - t8_13_15 - t8_13_16 - t8_13_17 - t8_13_18 - t8_13_19 - t8_13_20 - t8_13_21 - t8_14_15 - t8_14_16 - t8_14_17 - t8_14_18 - t8_14_19 - t8_14_20 - t8_14_21 - t8_15_16 - t8_15_17 - t8_15_18 - t8_15_19 - t8_15_20 - t8_15_21 - t8_16_17 - t8_16_18 - t8_16_19 - t8_16_20 - t8_16_21 - t8_17_18 - t8_17_19 - t8_17_20 - t8_17_21 - t8_18_19 - t8_18_20 - t8_18_21 - t8_19_20 - t8_19_21 - t8_20_21 = 0

k3deg9: d9 - t0_1_9 - t0_2_9 - t0_3_9 - t0_4_9 - t0_5_9 - t0_6_9 - t0_7_9 - t0_8_9 - t0_9_10 - t0_9_11 - t0_9_12 - t0_9_13 - t0_9_14 - t0_9_15 - t0_9_16 - t0_9_17 - t0_9_18 - t0_9_19 - t0_9_20 - t0_9_21 - t1_2_9 - t1_3_9 - t1_4_9 - t1_5_9 - t1_6_9 - t1_7_9 - t1_8_9 - t1_9_10 - t1_9_11 - t1_9_12 - t1_9_13 - t1_9_14 - t1_9_15 - t1_9_16 - t1_9_17 - t1_9_18 - t1_9_19 - t1_9_20 - t1_9_21 - t2_3_9 - t2_4_9 - t2_5_9 - t2_6_9 - t2_7_9 - t2_8_9 - t2_9_10 - t2_9_11 - t2_9_12 - t2_9_13 - t2_9_14 - t2_9_15 - t2_9_16 - t2_9_17 - t2_9_18 - t2_9_19 - t2_9_20 - t2_9_21 - t3_4_9 - t3_5_9 - t3_6_9 - t3_7_9 - t3_8_9 - t3_9_10 - t3_9_11 - t3_9_12 - t3_9_13 - t3_9_14 - t3_9_15 - t3_9_16 - t3_9_17 - t3_9_18 - t3_9_19 - t3_9_20 - t3_9_21 - t4_5_9 - t4_6_9 - t4_7_9 - t4_8_9 - t4_9_10 - t4_9_11 - t4_9_12 - t4_9_13 - t4_9_14 - t4_9_15 - t4_9_16 - t4_9_17 - t4_9_18 - t4_9_19 - t4_9_20 - t4_9_21 - t5_6_9 - t5_7_9 - t5_8_9 - t5_9_10 - t5_9_11 - t5_9_12 - t5_9_13 - t5_9_14 - t5_9_15 - t5_9_16 - t5_9_17 - t5_9_18 - t5_9_19 - t5_9_20 - t5_9_21 - t6_7_9 - t6_8_9 - t6_9_10 - t6_9_11 - t6_9_12 - t6_9_13 - t6_9_14 - t6_9_15 - t6_9_16 - t6_9_17 - t6_9_18 - t6_9_19 - t6_9_20 - t6_9_21 - t7_8_9 - t7_9_10 - t7_9_11 - t7_9_12 - t7_9_13 - t7_9_14 - t7_9_15 - t7_9_16 - t7_9_17 - t7_9_18 - t7_9_19 - t7_9_20 - t7_9_21 - t8_9_10 - t8_9_11 - t8_9_12 - t8_9_13 - t8_9_14 - t8_9_15 - t8_9_16 - t8_9_17 - t8_9_18 - t8_9_19 - t8_9_20 - t8_9_21 - t9_10_11 - t9_10_12 - t9_10_13 - t9_10_14 - t9_10_15 - t9_10_16 - t9_10_17 - t9_10_18 - t9_10_19 - t9_10_20 - t9_10_21 - t9_11_12 - t9_11_13 - t9_11_14 - t9_11_15 - t9_11_16 - t9_11_17 - t9_11_18 - t9_11_19 - t9_11_20 - t9_11_21 - t9_12_13 - t9_12_14 - t9_12_15 - t9_12_16 - t9_12_17 - t9_12_18 - t9_12_19 - t9_12_20 - t9_12_21 - t9_13_14 - t9_13_15 - t9_13_16 - t9_13_17 - t9_13_18 - t9_13_19 - t9_13_20 - t9_13_21 - t9_14_15 - t9_14_16 - t9_14_17 - t9_14_18 - t9_14_19 - t9_14_20 - t9_14_21 - t9_15_16 - t9_15_17 - t9_15_18 - t9_15_19 - t9_15_20 - t9_15_21 - t9_16_17 - t9_16_18 - t9_16_19 - t9_16_20 - t9_16_21 - t9_17_18 - t9_17_19 - t9_17_20 - t9_17_21 - t9_18_19 - t9_18_20 - t9_18_21 - t9_19_20 - t9_19_21 - t9_20_21 = 0

k3deg10: d10 - t0_1_10 - t0_2_10 - t0_3_10 - t0_4_10 - t0_5_10 - t0_6_10 - t0_7_10 - t0_8_10 - t0_9_10 - t0_10_11 - t0_10_12 - t0_10_13 - t0_10_14 - t0_10_15 - t0_10_16 - t0_10_17 - t0_10_18 - t0_10_19 - t0_10_20 - t0_10_21 - t1_2_10 - t1_3_10 - t1_4_10 - t1_5_10 - t1_6_10 - t1_7_10 - t1_8_10 - t1_9_10 - t1_10_11 - t1_10_12 - t1_10_13 - t1_10_14 - t1_10_15 - t1_10_16 - t1_10_17 - t1_10_18 - t1_10_19 - t1_10_20 - t1_10_21 - t2_3_10 - t2_4_10 - t2_5_10 - t2_6_10 - t2_7_10 - t2_8_10 - t2_9_10 - t2_10_11 - t2_10_12 - t2_10_13 - t2_10_14 - t2_10_15 - t2_10_16 - t2_10_17 - t2_10_18 - t2_10_19 - t2_10_20 - t2_10_21 - t3_4_10 - t3_5_10 - t3_6_10 - t3_7_10 - t3_8_10 - t3_9_10 - t3_10_11 - t3_10_12 - t3_10_13 - t3_10_14 - t3_10_15 - t3_10_16 - t3_10_17 - t3_10_18 - t3_10_19 - t3_10_20 - t3_10_21 - t4_5_10 - t4_6_10 - t4_7_10 - t4_8_10 - t4_9_10 - t4_10_11 - t4_10_12 - t4_10_13 - t4_10_14 - t4_10_15 - t4_10_16 - t4_10_17 - t4_10_18 - t4_10_19 - t4_10_20 - t4_10_21 - t5_6_10 - t5_7_10 - t5_8_10 - t5_9_10 - t5_10_11 - t5_10_12 - t5_10_13 - t5_10_14 - t5_10_15 - t5_10_16 - t5_10_17 - t5_10_18 - t5_10_19 - t5_10_20 - t5_10_21 - t6_7_10 - t6_8_10 - t6_9_10 - t6_10_11 - t6_10_12 - t6_10_13 - t6_10_14 - t6_10_15 - t6_10_16 - t6_10_17 - t6_10_18 - t6_10_19 - t6_10_20 - t6_10_21 - t7_8_10 - t7_9_10 - t7_10_11 - t7_10_12 - t7_10_13 - t7_10_14 - t7_10_15 - t7_10_16 - t7_10_17 - t7_10_18 - t7_10_19 - t7_10_20 - t7_10_21 - t8_9_10 - t8_10_11 - t8_10_12 - t8_10_13 - t8_10_14 - t8_10_15 - t8_10_16 - t8_10_17 - t8_10_18 - t8_10_19 - t8_10_20 - t8_10_21 - t9_10_11 - t9_10_12 - t9_10_13 - t9_10_14 - t9_10_15 - t9_10_16 - t9_10_17 - t9_10_18 - t9_10_19 - t9_10_20 - t9_10_21 - t10_11_12 - t10_11_13 - t10_11_14 - t10_11_15 - t10_11_16 - t10_11_17 - t10_11_18 - t10_11_19 - t10_11_20 - t10_11_21 - t10_12_13 - t10_12_14 - t10_12_15 - t10_12_16 - t10_12_17 - t10_12_18 - t10_12_19 - t10_12_20 - t10_12_21 - t10_13_14 - t10_13_15 - t10_13_16 - t10_13_17 - t10_13_18 - t10_13_19 - t10_13_20 - t10_13_21 - t10_14_15 - t10_14_16 - t10_14_17 - t10_14_18 - t10_14_19 - t10_14_20 - t10_14_21 - t10_15_16 - t10_15_17 - t10_15_18 - t10_15_19 - t10_15_20 - t10_15_21 - t10_16_17 - t10_16_18 - t10_16_19 - t10_16_20 - t10_16_21 - t10_17_18 - t10_17_19 - t10_17_20 - t10_17_21 - t10_18_19 - t10_18_20 - t10_18_21 - t10_19_20 - t10_19_21 - t10_20_21 = 0

k3deg11: d11 - t0_1_11 - t0_2_11 - t0_3_11 - t0_4_11 - t0_5_11 - t0_6_11 - t0_7_11 - t0_8_11 - t0_9_11 - t0_10_11 - t0_11_12 - t0_11_13 - t0_11_14 - t0_11_15 - t0_11_16 - t0_11_17 - t0_11_18 - t0_11_19 - t0_11_20 - t0_11_21 - t1_2_11 - t1_3_11 - t1_4_11 - t1_5_11 - t1_6_11 - t1_7_11 - t1_8_11 - t1_9_11 - t1_10_11 - t1_11_12 - t1_11_13 - t1_11_14 - t1_11_15 - t1_11_16 - t1_11_17 - t1_11_18 - t1_11_19 - t1_11_20 - t1_11_21 - t2_3_11 - t2_4_11 - t2_5_11 - t2_6_11 - t2_7_11 - t2_8_11 - t2_9_11 - t2_10_11 - t2_11_12 - t2_11_13 - t2_11_14 - t2_11_15 - t2_11_16 - t2_11_17 - t2_11_18 - t2_11_19 - t2_11_20 - t2_11_21 - t3_4_11 - t3_5_11 - t3_6_11 - t3_7_11 - t3_8_11 - t3_9_11 - t3_10_11 - t3_11_12 - t3_11_13 - t3_11_14 - t3_11_15 - t3_11_16 - t3_11_17 - t3_11_18 - t3_11_19 - t3_11_20 - t3_11_21 - t4_5_11 - t4_6_11 - t4_7_11 - t4_8_11 - t4_9_11 - t4_10_11 - t4_11_12 - t4_11_13 - t4_11_14 - t4_11_15 - t4_11_16 - t4_11_17 - t4_11_18 - t4_11_19 - t4_11_20 - t4_11_21 - t5_6_11 - t5_7_11 - t5_8_11 - t5_9_11 - t5_10_11 - t5_11_12 - t5_11_13 - t5_11_14 - t5_11_15 - t5_11_16 - t5_11_17 - t5_11_18 - t5_11_19 - t5_11_20 - t5_11_21 - t6_7_11 - t6_8_11 - t6_9_11 - t6_10_11 - t6_11_12 - t6_11_13 - t6_11_14 - t6_11_15 - t6_11_16 - t6_11_17 - t6_11_18 - t6_11_19 - t6_11_20 - t6_11_21 - t7_8_11 - t7_9_11 - t7_10_11 - t7_11_12 - t7_11_13 - t7_11_14 - t7_11_15 - t7_11_16 - t7_11_17 - t7_11_18 - t7_11_19 - t7_11_20 - t7_11_21 - t8_9_11 - t8_10_11 - t8_11_12 - t8_11_13 - t8_11_14 - t8_11_15 - t8_11_16 - t8_11_17 - t8_11_18 - t8_11_19 - t8_11_20 - t8_11_21 - t9_10_11 - t9_11_12 - t9_11_13 - t9_11_14 - t9_11_15 - t9_11_16 - t9_11_17 - t9_11_18 - t9_11_19 - t9_11_20 - t9_11_21 - t10_11_12 - t10_11_13 - t10_11_14 - t10_11_15 - t10_11_16 - t10_11_17 - t10_11_18 - t10_11_19 - t10_11_20 - t10_11_21 - t11_12_13 - t11_12_14 - t11_12_15 - t11_12_16 - t11_12_17 - t11_12_18 - t11_12_19 - t11_12_20 - t11_12_21 - t11_13_14 - t11_13_15 - t11_13_16 - t11_13_17 - t11_13_18 - t11_13_19 - t11_13_20 - t11_13_21 - t11_14_15 - t11_14_16 - t11_14_17 - t11_14_18 - t11_14_19 - t11_14_20 - t11_14_21 - t11_15_16 - t11_15_17 - t11_15_18 - t11_15_19 - t11_15_20 - t11_15_21 - t11_16_17 - t11_16_18 - t11_16_19 - t11_16_20 - t11_16_21 - t11_17_18 - t11_17_19 - t11_17_20 - t11_17_21 - t11_18_19 - t11_18_20 - t11_18_21 - t11_19_20 - t11_19_21 - t11_20_21 = 0

k3deg12: d12 - t0_1_12 - t0_2_12 - t0_3_12 - t0_4_12 - t0_5_12 - t0_6_12 - t0_7_12 - t0_8_12 - t0_9_12 - t0_10_12 - t0_11_12 - t0_12_13 - t0_12_14 - t0_12_15 - t0_12_16 - t0_12_17 - t0_12_18 - t0_12_19 - t0_12_20 - t0_12_21 - t1_2_12 - t1_3_12 - t1_4_12 - t1_5_12 - t1_6_12 - t1_7_12 - t1_8_12 - t1_9_12 - t1_10_12 - t1_11_12 - t1_12_13 - t1_12_14 - t1_12_15 - t1_12_16 - t1_12_17 - t1_12_18 - t1_12_19 - t1_12_20 - t1_12_21 - t2_3_12 - t2_4_12 - t2_5_12 - t2_6_12 - t2_7_12 - t2_8_12 - t2_9_12 - t2_10_12 - t2_11_12 - t2_12_13 - t2_12_14 - t2_12_15 - t2_12_16 - t2_12_17 - t2_12_18 - t2_12_19 - t2_12_20 - t2_12_21 - t3_4_12 - t3_5_12 - t3_6_12 - t3_7_12 - t3_8_12 - t3_9_12 - t3_10_12 - t3_11_12 - t3_12_13 - t3_12_14 - t3_12_15 - t3_12_16 - t3_12_17 - t3_12_18 - t3_12_19 - t3_12_20 - t3_12_21 - t4_5_12 - t4_6_12 - t4_7_12 - t4_8_12 - t4_9_12 - t4_10_12 - t4_11_12 - t4_12_13 - t4_12_14 - t4_12_15 - t4_12_16 - t4_12_17 - t4_12_18 - t4_12_19 - t4_12_20 - t4_12_21 - t5_6_12 - t5_7_12 - t5_8_12 - t5_9_12 - t5_10_12 - t5_11_12 - t5_12_13 - t5_12_14 - t5_12_15 - t5_12_16 - t5_12_17 - t5_12_18 - t5_12_19 - t5_12_20 - t5_12_21 - t6_7_12 - t6_8_12 - t6_9_12 - t6_10_12 - t6_11_12 - t6_12_13 - t6_12_14 - t6_12_15 - t6_12_16 - t6_12_17 - t6_12_18 - t6_12_19 - t6_12_20 - t6_12_21 - t7_8_12 - t7_9_12 - t7_10_12 - t7_11_12 - t7_12_13 - t7_12_14 - t7_12_15 - t7_12_16 - t7_12_17 - t7_12_18 - t7_12_19 - t7_12_20 - t7_12_21 - t8_9_12 - t8_10_12 - t8_11_12 - t8_12_13 - t8_12_14 - t8_12_15 - t8_12_16 - t8_12_17 - t8_12_18 - t8_12_19 - t8_12_20 - t8_12_21 - t9_10_12 - t9_11_12 - t9_12_13 - t9_12_14 - t9_12_15 - t9_12_16 - t9_12_17 - t9_12_18 - t9_12_19 - t9_12_20 - t9_12_21 - t10_11_12 - t10_12_13 - t10_12_14 - t10_12_15 - t10_12_16 - t10_12_17 - t10_12_18 - t10_12_19 - t10_12_20 - t10_12_21 - t11_12_13 - t11_12_14 - t11_12_15 - t11_12_16 - t11_12_17 - t11_12_18 - t11_12_19 - t11_12_20 - t11_12_21 - t12_13_14 - t12_13_15 - t12_13_16 - t12_13_17 - t12_13_18 - t12_13_19 - t12_13_20 - t12_13_21 - t12_14_15 - t12_14_16 - t12_14_17 - t12_14_18 - t12_14_19 - t12_14_20 - t12_14_21 - t12_15_16 - t12_15_17 - t12_15_18 - t12_15_19 - t12_15_20 - t12_15_21 - t12_16_17 - t12_16_18 - t12_16_19 - t12_16_20 - t12_16_21 - t12_17_18 - t12_17_19 - t12_17_20 - t12_17_21 - t12_18_19 - t12_18_20 - t12_18_21 - t12_19_20 - t12_19_21 - t12_20_21 = 0

k3deg13: d13 - t0_1_13 - t0_2_13 - t0_3_13 - t0_4_13 - t0_5_13 - t0_6_13 - t0_7_13 - t0_8_13 - t0_9_13 - t0_10_13 - t0_11_13 - t0_12_13 - t0_13_14 - t0_13_15 - t0_13_16 - t0_13_17 - t0_13_18 - t0_13_19 - t0_13_20 - t0_13_21 - t1_2_13 - t1_3_13 - t1_4_13 - t1_5_13 - t1_6_13 - t1_7_13 - t1_8_13 - t1_9_13 - t1_10_13 - t1_11_13 - t1_12_13 - t1_13_14 - t1_13_15 - t1_13_16 - t1_13_17 - t1_13_18 - t1_13_19 - t1_13_20 - t1_13_21 - t2_3_13 - t2_4_13 - t2_5_13 - t2_6_13 - t2_7_13 - t2_8_13 - t2_9_13 - t2_10_13 - t2_11_13 - t2_12_13 - t2_13_14 - t2_13_15 - t2_13_16 - t2_13_17 - t2_13_18 - t2_13_19 - t2_13_20 - t2_13_21 - t3_4_13 - t3_5_13 - t3_6_13 - t3_7_13 - t3_8_13 - t3_9_13 - t3_10_13 - t3_11_13 - t3_12_13 - t3_13_14 - t3_13_15 - t3_13_16 - t3_13_17 - t3_13_18 - t3_13_19 - t3_13_20 - t3_13_21 - t4_5_13 - t4_6_13 - t4_7_13 - t4_8_13 - t4_9_13 - t4_10_13 - t4_11_13 - t4_12_13 - t4_13_14 - t4_13_15 - t4_13_16 - t4_13_17 - t4_13_18 - t4_13_19 - t4_13_20 - t4_13_21 - t5_6_13 - t5_7_13 - t5_8_13 - t5_9_13 - t5_10_13 - t5_11_13 - t5_12_13 - t5_13_14 - t5_13_15 - t5_13_16 - t5_13_17 - t5_13_18 - t5_13_19 - t5_13_20 - t5_13_21 - t6_7_13 - t6_8_13 - t6_9_13 - t6_10_13 - t6_11_13 - t6_12_13 - t6_13_14 - t6_13_15 - t6_13_16 - t6_13_17 - t6_13_18 - t6_13_19 - t6_13_20 - t6_13_21 - t7_8_13 - t7_9_13 - t7_10_13 - t7_11_13 - t7_12_13 - t7_13_14 - t7_13_15 - t7_13_16 - t7_13_17 - t7_13_18 - t7_13_19 - t7_13_20 - t7_13_21 - t8_9_13 - t8_10_13 - t8_11_13 - t8_12_13 - t8_13_14 - t8_13_15 - t8_13_16 - t8_13_17 - t8_13_18 - t8_13_19 - t8_13_20 - t8_13_21 - t9_10_13 - t9_11_13 - t9_12_13 - t9_13_14 - t9_13_15 - t9_13_16 - t9_13_17 - t9_13_18 - t9_13_19 - t9_13_20 - t9_13_21 - t10_11_13 - t10_12_13 - t10_13_14 - t10_13_15 - t10_13_16 - t10_13_17 - t10_13_18 - t10_13_19 - t10_13_20 - t10_13_21 - t11_12_13 - t11_13_14 - t11_13_15 - t11_13_16 - t11_13_17 - t11_13_18 - t11_13_19 - t11_13_20 - t11_13_21 - t12_13_14 - t12_13_15 - t12_13_16 - t12_13_17 - t12_13_18 - t12_13_19 - t12_13_20 - t12_13_21 - t13_14_15 - t13_14_16 - t13_14_17 - t13_14_18 - t13_14_19 - t13_14_20 - t13_14_21 - t13_15_16 - t13_15_17 - t13_15_18 - t13_15_19 - t13_15_20 - t13_15_21 - t13_16_17 - t13_16_18 - t13_16_19 - t13_16_20 - t13_16_21 - t13_17_18 - t13_17_19 - t13_17_20 - t13_17_21 - t13_18_19 - t13_18_20 - t13_18_21 - t13_19_20 - t13_19_21 - t13_20_21 = 0

k3deg14: d14 - t0_1_14 - t0_2_14 - t0_3_14 - t0_4_14 - t0_5_14 - t0_6_14 - t0_7_14 - t0_8_14 - t0_9_14 - t0_10_14 - t0_11_14 - t0_12_14 - t0_13_14 - t0_14_15 - t0_14_16 - t0_14_17 - t0_14_18 - t0_14_19 - t0_14_20 - t0_14_21 - t1_2_14 - t1_3_14 - t1_4_14 - t1_5_14 - t1_6_14 - t1_7_14 - t1_8_14 - t1_9_14 - t1_10_14 - t1_11_14 - t1_12_14 - t1_13_14 - t1_14_15 - t1_14_16 - t1_14_17 - t1_14_18 - t1_14_19 - t1_14_20 - t1_14_21 - t2_3_14 - t2_4_14 - t2_5_14 - t2_6_14 - t2_7_14 - t2_8_14 - t2_9_14 - t2_10_14 - t2_11_14 - t2_12_14 - t2_13_14 - t2_14_15 - t2_14_16 - t2_14_17 - t2_14_18 - t2_14_19 - t2_14_20 - t2_14_21 - t3_4_14 - t3_5_14 - t3_6_14 - t3_7_14 - t3_8_14 - t3_9_14 - t3_10_14 - t3_11_14 - t3_12_14 - t3_13_14 - t3_14_15 - t3_14_16 - t3_14_17 - t3_14_18 - t3_14_19 - t3_14_20 - t3_14_21 - t4_5_14 - t4_6_14 - t4_7_14 - t4_8_14 - t4_9_14 - t4_10_14 - t4_11_14 - t4_12_14 - t4_13_14 - t4_14_15 - t4_14_16 - t4_14_17 - t4_14_18 - t4_14_19 - t4_14_20 - t4_14_21 - t5_6_14 - t5_7_14 - t5_8_14 - t5_9_14 - t5_10_14 - t5_11_14 - t5_12_14 - t5_13_14 - t5_14_15 - t5_14_16 - t5_14_17 - t5_14_18 - t5_14_19 - t5_14_20 - t5_14_21 - t6_7_14 - t6_8_14 - t6_9_14 - t6_10_14 - t6_11_14 - t6_12_14 - t6_13_14 - t6_14_15 - t6_14_16 - t6_14_17 - t6_14_18 - t6_14_19 - t6_14_20 - t6_14_21 - t7_8_14 - t7_9_14 - t7_10_14 - t7_11_14 - t7_12_14 - t7_13_14 - t7_14_15 - t7_14_16 - t7_14_17 - t7_14_18 - t7_14_19 - t7_14_20 - t7_14_21 - t8_9_14 - t8_10_14 - t8_11_14 - t8_12_14 - t8_13_14 - t8_14_15 - t8_14_16 - t8_14_17 - t8_14_18 - t8_14_19 - t8_14_20 - t8_14_21 - t9_10_14 - t9_11_14 - t9_12_14 - t9_13_14 - t9_14_15 - t9_14_16 - t9_14_17 - t9_14_18 - t9_14_19 - t9_14_20 - t9_14_21 - t10_11_14 - t10_12_14 - t10_13_14 - t10_14_15 - t10_14_16 - t10_14_17 - t10_14_18 - t10_14_19 - t10_14_20 - t10_14_21 - t11_12_14 - t11_13_14 - t11_14_15 - t11_14_16 - t11_14_17 - t11_14_18 - t11_14_19 - t11_14_20 - t11_14_21 - t12_13_14 - t12_14_15 - t12_14_16 - t12_14_17 - t12_14_18 - t12_14_19 - t12_14_20 - t12_14_21 - t13_14_15 - t13_14_16 - t13_14_17 - t13_14_18 - t13_14_19 - t13_14_20 - t13_14_21 - t14_15_16 - t14_15_17 - t14_15_18 - t14_15_19 - t14_15_20 - t14_15_21 - t14_16_17 - t14_16_18 - t14_16_19 - t14_16_20 - t14_16_21 - t14_17_18 - t14_17_19 - t14_17_20 - t14_17_21 - t14_18_19 - t14_18_20 - t14_18_21 - t14_19_20 - t14_19_21 - t14_20_21 = 0

k3deg15: d15 - t0_1_15 - t0_2_15 - t0_3_15 - t0_4_15 - t0_5_15 - t0_6_15 - t0_7_15 - t0_8_15 - t0_9_15 - t0_10_15 - t0_11_15 - t0_12_15 - t0_13_15 - t0_14_15 - t0_15_16 - t0_15_17 - t0_15_18 - t0_15_19 - t0_15_20 - t0_15_21 - t1_2_15 - t1_3_15 - t1_4_15 - t1_5_15 - t1_6_15 - t1_7_15 - t1_8_15 - t1_9_15 - t1_10_15 - t1_11_15 - t1_12_15 - t1_13_15 - t1_14_15 - t1_15_16 - t1_15_17 - t1_15_18 - t1_15_19 - t1_15_20 - t1_15_21 - t2_3_15 - t2_4_15 - t2_5_15 - t2_6_15 - t2_7_15 - t2_8_15 - t2_9_15 - t2_10_15 - t2_11_15 - t2_12_15 - t2_13_15 - t2_14_15 - t2_15_16 - t2_15_17 - t2_15_18 - t2_15_19 - t2_15_20 - t2_15_21 - t3_4_15 - t3_5_15 - t3_6_15 - t3_7_15 - t3_8_15 - t3_9_15 - t3_10_15 - t3_11_15 - t3_12_15 - t3_13_15 - t3_14_15 - t3_15_16 - t3_15_17 - t3_15_18 - t3_15_19 - t3_15_20 - t3_15_21 - t4_5_15 - t4_6_15 - t4_7_15 - t4_8_15 - t4_9_15 - t4_10_15 - t4_11_15 - t4_12_15 - t4_13_15 - t4_14_15 - t4_15_16 - t4_15_17 - t4_15_18 - t4_15_19 - t4_15_20 - t4_15_21 - t5_6_15 - t5_7_15 - t5_8_15 - t5_9_15 - t5_10_15 - t5_11_15 - t5_12_15 - t5_13_15 - t5_14_15 - t5_15_16 - t5_15_17 - t5_15_18 - t5_15_19 - t5_15_20 - t5_15_21 - t6_7_15 - t6_8_15 - t6_9_15 - t6_10_15 - t6_11_15 - t6_12_15 - t6_13_15 - t6_14_15 - t6_15_16 - t6_15_17 - t6_15_18 - t6_15_19 - t6_15_20 - t6_15_21 - t7_8_15 - t7_9_15 - t7_10_15 - t7_11_15 - t7_12_15 - t7_13_15 - t7_14_15 - t7_15_16 - t7_15_17 - t7_15_18 - t7_15_19 - t7_15_20 - t7_15_21 - t8_9_15 - t8_10_15 - t8_11_15 - t8_12_15 - t8_13_15 - t8_14_15 - t8_15_16 - t8_15_17 - t8_15_18 - t8_15_19 - t8_15_20 - t8_15_21 - t9_10_15 - t9_11_15 - t9_12_15 - t9_13_15 - t9_14_15 - t9_15_16 - t9_15_17 - t9_15_18 - t9_15_19 - t9_15_20 - t9_15_21 - t10_11_15 - t10_12_15 - t10_13_15 - t10_14_15 - t10_15_16 - t10_15_17 - t10_15_18 - t10_15_19 - t10_15_20 - t10_15_21 - t11_12_15 - t11_13_15 - t11_14_15 - t11_15_16 - t11_15_17 - t11_15_18 - t11_15_19 - t11_15_20 - t11_15_21 - t12_13_15 - t12_14_15 - t12_15_16 - t12_15_17 - t12_15_18 - t12_15_19 - t12_15_20 - t12_15_21 - t13_14_15 - t13_15_16 - t13_15_17 - t13_15_18 - t13_15_19 - t13_15_20 - t13_15_21 - t14_15_16 - t14_15_17 - t14_15_18 - t14_15_19 - t14_15_20 - t14_15_21 - t15_16_17 - t15_16_18 - t15_16_19 - t15_16_20 - t15_16_21 - t15_17_18 - t15_17_19 - t15_17_20 - t15_17_21 - t15_18_19 - t15_18_20 - t15_18_21 - t15_19_20 - t15_19_21 - t15_20_21 = 0

k3deg16: d16 - t0_1_16 - t0_2_16 - t0_3_16 - t0_4_16 - t0_5_16 - t0_6_16 - t0_7_16 - t0_8_16 - t0_9_16 - t0_10_16 - t0_11_16 - t0_12_16 - t0_13_16 - t0_14_16 - t0_15_16 - t0_16_17 - t0_16_18 - t0_16_19 - t0_16_20 - t0_16_21 - t1_2_16 - t1_3_16 - t1_4_16 - t1_5_16 - t1_6_16 - t1_7_16 - t1_8_16 - t1_9_16 - t1_10_16 - t1_11_16 - t1_12_16 - t1_13_16 - t1_14_16 - t1_15_16 - t1_16_17 - t1_16_18 - t1_16_19 - t1_16_20 - t1_16_21 - t2_3_16 - t2_4_16 - t2_5_16 - t2_6_16 - t2_7_16 - t2_8_16 - t2_9_16 - t2_10_16 - t2_11_16 - t2_12_16 - t2_13_16 - t2_14_16 - t2_15_16 - t2_16_17 - t2_16_18 - t2_16_19 - t2_16_20 - t2_16_21 - t3_4_16 - t3_5_16 - t3_6_16 - t3_7_16 - t3_8_16 - t3_9_16 - t3_10_16 - t3_11_16 - t3_12_16 - t3_13_16 - t3_14_16 - t3_15_16 - t3_16_17 - t3_16_18 - t3_16_19 - t3_16_20 - t3_16_21 - t4_5_16 - t4_6_16 - t4_7_16 - t4_8_16 - t4_9_16 - t4_10_16 - t4_11_16 - t4_12_16 - t4_13_16 - t4_14_16 - t4_15_16 - t4_16_17 - t4_16_18 - t4_16_19 - t4_16_20 - t4_16_21 - t5_6_16 - t5_7_16 - t5_8_16 - t5_9_16 - t5_10_16 - t5_11_16 - t5_12_16 - t5_13_16 - t5_14_16 - t5_15_16 - t5_16_17 - t5_16_18 - t5_16_19 - t5_16_20 - t5_16_21 - t6_7_16 - t6_8_16 - t6_9_16 - t6_10_16 - t6_11_16 - t6_12_16 - t6_13_16 - t6_14_16 - t6_15_16 - t6_16_17 - t6_16_18 - t6_16_19 - t6_16_20 - t6_16_21 - t7_8_16 - t7_9_16 - t7_10_16 - t7_11_16 - t7_12_16 - t7_13_16 - t7_14_16 - t7_15_16 - t7_16_17 - t7_16_18 - t7_16_19 - t7_16_20 - t7_16_21 - t8_9_16 - t8_10_16 - t8_11_16 - t8_12_16 - t8_13_16 - t8_14_16 - t8_15_16 - t8_16_17 - t8_16_18 - t8_16_19 - t8_16_20 - t8_16_21 - t9_10_16 - t9_11_16 - t9_12_16 - t9_13_16 - t9_14_16 - t9_15_16 - t9_16_17 - t9_16_18 - t9_16_19 - t9_16_20 - t9_16_21 - t10_11_16 - t10_12_16 - t10_13_16 - t10_14_16 - t10_15_16 - t10_16_17 - t10_16_18 - t10_16_19 - t10_16_20 - t10_16_21 - t11_12_16 - t11_13_16 - t11_14_16 - t11_15_16 - t11_16_17 - t11_16_18 - t11_16_19 - t11_16_20 - t11_16_21 - t12_13_16 - t12_14_16 - t12_15_16 - t12_16_17 - t12_16_18 - t12_16_19 - t12_16_20 - t12_16_21 - t13_14_16 - t13_15_16 - t13_16_17 - t13_16_18 - t13_16_19 - t13_16_20 - t13_16_21 - t14_15_16 - t14_16_17 - t14_16_18 - t14_16_19 - t14_16_20 - t14_16_21 - t15_16_17 - t15_16_18 - t15_16_19 - t15_16_20 - t15_16_21 - t16_17_18 - t16_17_19 - t16_17_20 - t16_17_21 - t16_18_19 - t16_18_20 - t16_18_21 - t16_19_20 - t16_19_21 - t16_20_21 = 0

k3deg17: d17 - t0_1_17 - t0_2_17 - t0_3_17 - t0_4_17 - t0_5_17 - t0_6_17 - t0_7_17 - t0_8_17 - t0_9_17 - t0_10_17 - t0_11_17 - t0_12_17 - t0_13_17 - t0_14_17 - t0_15_17 - t0_16_17 - t0_17_18 - t0_17_19 - t0_17_20 - t0_17_21 - t1_2_17 - t1_3_17 - t1_4_17 - t1_5_17 - t1_6_17 - t1_7_17 - t1_8_17 - t1_9_17 - t1_10_17 - t1_11_17 - t1_12_17 - t1_13_17 - t1_14_17 - t1_15_17 - t1_16_17 - t1_17_18 - t1_17_19 - t1_17_20 - t1_17_21 - t2_3_17 - t2_4_17 - t2_5_17 - t2_6_17 - t2_7_17 - t2_8_17 - t2_9_17 - t2_10_17 - t2_11_17 - t2_12_17 - t2_13_17 - t2_14_17 - t2_15_17 - t2_16_17 - t2_17_18 - t2_17_19 - t2_17_20 - t2_17_21 - t3_4_17 - t3_5_17 - t3_6_17 - t3_7_17 - t3_8_17 - t3_9_17 - t3_10_17 - t3_11_17 - t3_12_17 - t3_13_17 - t3_14_17 - t3_15_17 - t3_16_17 - t3_17_18 - t3_17_19 - t3_17_20 - t3_17_21 - t4_5_17 - t4_6_17 - t4_7_17 - t4_8_17 - t4_9_17 - t4_10_17 - t4_11_17 - t4_12_17 - t4_13_17 - t4_14_17 - t4_15_17 - t4_16_17 - t4_17_18 - t4_17_19 - t4_17_20 - t4_17_21 - t5_6_17 - t5_7_17 - t5_8_17 - t5_9_17 - t5_10_17 - t5_11_17 - t5_12_17 - t5_13_17 - t5_14_17 - t5_15_17 - t5_16_17 - t5_17_18 - t5_17_19 - t5_17_20 - t5_17_21 - t6_7_17 - t6_8_17 - t6_9_17 - t6_10_17 - t6_11_17 - t6_12_17 - t6_13_17 - t6_14_17 - t6_15_17 - t6_16_17 - t6_17_18 - t6_17_19 - t6_17_20 - t6_17_21 - t7_8_17 - t7_9_17 - t7_10_17 - t7_11_17 - t7_12_17 - t7_13_17 - t7_14_17 - t7_15_17 - t7_16_17 - t7_17_18 - t7_17_19 - t7_17_20 - t7_17_21 - t8_9_17 - t8_10_17 - t8_11_17 - t8_12_17 - t8_13_17 - t8_14_17 - t8_15_17 - t8_16_17 - t8_17_18 - t8_17_19 - t8_17_20 - t8_17_21 - t9_10_17 - t9_11_17 - t9_12_17 - t9_13_17 - t9_14_17 - t9_15_17 - t9_16_17 - t9_17_18 - t9_17_19 - t9_17_20 - t9_17_21 - t10_11_17 - t10_12_17 - t10_13_17 - t10_14_17 - t10_15_17 - t10_16_17 - t10_17_18 - t10_17_19 - t10_17_20 - t10_17_21 - t11_12_17 - t11_13_17 - t11_14_17 - t11_15_17 - t11_16_17 - t11_17_18 - t11_17_19 - t11_17_20 - t11_17_21 - t12_13_17 - t12_14_17 - t12_15_17 - t12_16_17 - t12_17_18 - t12_17_19 - t12_17_20 - t12_17_21 - t13_14_17 - t13_15_17 - t13_16_17 - t13_17_18 - t13_17_19 - t13_17_20 - t13_17_21 - t14_15_17 - t14_16_17 - t14_17_18 - t14_17_19 - t14_17_20 - t14_17_21 - t15_16_17 - t15_17_18 - t15_17_19 - t15_17_20 - t15_17_21 - t16_17_18 - t16_17_19 - t16_17_20 - t16_17_21 - t17_18_19 - t17_18_20 - t17_18_21 - t17_19_20 - t17_19_21 - t17_20_21 = 0

k3deg18: d18 - t0_1_18 - t0_2_18 - t0_3_18 - t0_4_18 - t0_5_18 - t0_6_18 - t0_7_18 - t0_8_18 - t0_9_18 - t0_10_18 - t0_11_18 - t0_12_18 - t0_13_18 - t0_14_18 - t0_15_18 - t0_16_18 - t0_17_18 - t0_18_19 - t0_18_20 - t0_18_21 - t1_2_18 - t1_3_18 - t1_4_18 - t1_5_18 - t1_6_18 - t1_7_18 - t1_8_18 - t1_9_18 - t1_10_18 - t1_11_18 - t1_12_18 - t1_13_18 - t1_14_18 - t1_15_18 - t1_16_18 - t1_17_18 - t1_18_19 - t1_18_20 - t1_18_21 - t2_3_18 - t2_4_18 - t2_5_18 - t2_6_18 - t2_7_18 - t2_8_18 - t2_9_18 - t2_10_18 - t2_11_18 - t2_12_18 - t2_13_18 - t2_14_18 - t2_15_18 - t2_16_18 - t2_17_18 - t2_18_19 - t2_18_20 - t2_18_21 - t3_4_18 - t3_5_18 - t3_6_18 - t3_7_18 - t3_8_18 - t3_9_18 - t3_10_18 - t3_11_18 - t3_12_18 - t3_13_18 - t3_14_18 - t3_15_18 - t3_16_18 - t3_17_18 - t3_18_19 - t3_18_20 - t3_18_21 - t4_5_18 - t4_6_18 - t4_7_18 - t4_8_18 - t4_9_18 - t4_10_18 - t4_11_18 - t4_12_18 - t4_13_18 - t4_14_18 - t4_15_18 - t4_16_18 - t4_17_18 - t4_18_19 - t4_18_20 - t4_18_21 - t5_6_18 - t5_7_18 - t5_8_18 - t5_9_18 - t5_10_18 - t5_11_18 - t5_12_18 - t5_13_18 - t5_14_18 - t5_15_18 - t5_16_18 - t5_17_18 - t5_18_19 - t5_18_20 - t5_18_21 - t6_7_18 - t6_8_18 - t6_9_18 - t6_10_18 - t6_11_18 - t6_12_18 - t6_13_18 - t6_14_18 - t6_15_18 - t6_16_18 - t6_17_18 - t6_18_19 - t6_18_20 - t6_18_21 - t7_8_18 - t7_9_18 - t7_10_18 - t7_11_18 - t7_12_18 - t7_13_18 - t7_14_18 - t7_15_18 - t7_16_18 - t7_17_18 - t7_18_19 - t7_18_20 - t7_18_21 - t8_9_18 - t8_10_18 - t8_11_18 - t8_12_18 - t8_13_18 - t8_14_18 - t8_15_18 - t8_16_18 - t8_17_18 - t8_18_19 - t8_18_20 - t8_18_21 - t9_10_18 - t9_11_18 - t9_12_18 - t9_13_18 - t9_14_18 - t9_15_18 - t9_16_18 - t9_17_18 - t9_18_19 - t9_18_20 - t9_18_21 - t10_11_18 - t10_12_18 - t10_13_18 - t10_14_18 - t10_15_18 - t10_16_18 - t10_17_18 - t10_18_19 - t10_18_20 - t10_18_21 - t11_12_18 - t11_13_18 - t11_14_18 - t11_15_18 - t11_16_18 - t11_17_18 - t11_18_19 - t11_18_20 - t11_18_21 - t12_13_18 - t12_14_18 - t12_15_18 - t12_16_18 - t12_17_18 - t12_18_19 - t12_18_20 - t12_18_21 - t13_14_18 - t13_15_18 - t13_16_18 - t13_17_18 - t13_18_19 - t13_18_20 - t13_18_21 - t14_15_18 - t14_16_18 - t14_17_18 - t14_18_19 - t14_18_20 - t14_18_21 - t15_16_18 - t15_17_18 - t15_18_19 - t15_18_20 - t15_18_21 - t16_17_18 - t16_18_19 - t16_18_20 - t16_18_21 - t17_18_19 - t17_18_20 - t17_18_21 - t18_19_20 - t18_19_21 - t18_20_21 = 0

k3deg19: d19 - t0_1_19 - t0_2_19 - t0_3_19 - t0_4_19 - t0_5_19 - t0_6_19 - t0_7_19 - t0_8_19 - t0_9_19 - t0_10_19 - t0_11_19 - t0_12_19 - t0_13_19 - t0_14_19 - t0_15_19 - t0_16_19 - t0_17_19 - t0_18_19 - t0_19_20 - t0_19_21 - t1_2_19 - t1_3_19 - t1_4_19 - t1_5_19 - t1_6_19 - t1_7_19 - t1_8_19 - t1_9_19 - t1_10_19 - t1_11_19 - t1_12_19 - t1_13_19 - t1_14_19 - t1_15_19 - t1_16_19 - t1_17_19 - t1_18_19 - t1_19_20 - t1_19_21 - t2_3_19 - t2_4_19 - t2_5_19 - t2_6_19 - t2_7_19 - t2_8_19 - t2_9_19 - t2_10_19 - t2_11_19 - t2_12_19 - t2_13_19 - t2_14_19 - t2_15_19 - t2_16_19 - t2_17_19 - t2_18_19 - t2_19_20 - t2_19_21 - t3_4_19 - t3_5_19 - t3_6_19 - t3_7_19 - t3_8_19 - t3_9_19 - t3_10_19 - t3_11_19 - t3_12_19 - t3_13_19 - t3_14_19 - t3_15_19 - t3_16_19 - t3_17_19 - t3_18_19 - t3_19_20 - t3_19_21 - t4_5_19 - t4_6_19 - t4_7_19 - t4_8_19 - t4_9_19 - t4_10_19 - t4_11_19 - t4_12_19 - t4_13_19 - t4_14_19 - t4_15_19 - t4_16_19 - t4_17_19 - t4_18_19 - t4_19_20 - t4_19_21 - t5_6_19 - t5_7_19 - t5_8_19 - t5_9_19 - t5_10_19 - t5_11_19 - t5_12_19 - t5_13_19 - t5_14_19 - t5_15_19 - t5_16_19 - t5_17_19 - t5_18_19 - t5_19_20 - t5_19_21 - t6_7_19 - t6_8_19 - t6_9_19 - t6_10_19 - t6_11_19 - t6_12_19 - t6_13_19 - t6_14_19 - t6_15_19 - t6_16_19 - t6_17_19 - t6_18_19 - t6_19_20 - t6_19_21 - t7_8_19 - t7_9_19 - t7_10_19 - t7_11_19 - t7_12_19 - t7_13_19 - t7_14_19 - t7_15_19 - t7_16_19 - t7_17_19 - t7_18_19 - t7_19_20 - t7_19_21 - t8_9_19 - t8_10_19 - t8_11_19 - t8_12_19 - t8_13_19 - t8_14_19 - t8_15_19 - t8_16_19 - t8_17_19 - t8_18_19 - t8_19_20 - t8_19_21 - t9_10_19 - t9_11_19 - t9_12_19 - t9_13_19 - t9_14_19 - t9_15_19 - t9_16_19 - t9_17_19 - t9_18_19 - t9_19_20 - t9_19_21 - t10_11_19 - t10_12_19 - t10_13_19 - t10_14_19 - t10_15_19 - t10_16_19 - t10_17_19 - t10_18_19 - t10_19_20 - t10_19_21 - t11_12_19 - t11_13_19 - t11_14_19 - t11_15_19 - t11_16_19 - t11_17_19 - t11_18_19 - t11_19_20 - t11_19_21 - t12_13_19 - t12_14_19 - t12_15_19 - t12_16_19 - t12_17_19 - t12_18_19 - t12_19_20 - t12_19_21 - t13_14_19 - t13_15_19 - t13_16_19 - t13_17_19 - t13_18_19 - t13_19_20 - t13_19_21 - t14_15_19 - t14_16_19 - t14_17_19 - t14_18_19 - t14_19_20 - t14_19_21 - t15_16_19 - t15_17_19 - t15_18_19 - t15_19_20 - t15_19_21 - t16_17_19 - t16_18_19 - t16_19_20 - t16_19_21 - t17_18_19 - t17_19_20 - t17_19_21 - t18_19_20 - t18_19_21 - t19_20_21 = 0

k3deg20: d20 - t0_1_20 - t0_2_20 - t0_3_20 - t0_4_20 - t0_5_20 - t0_6_20 - t0_7_20 - t0_8_20 - t0_9_20 - t0_10_20 - t0_11_20 - t0_12_20 - t0_13_20 - t0_14_20 - t0_15_20 - t0_16_20 - t0_17_20 - t0_18_20 - t0_19_20 - t0_20_21 - t1_2_20 - t1_3_20 - t1_4_20 - t1_5_20 - t1_6_20 - t1_7_20 - t1_8_20 - t1_9_20 - t1_10_20 - t1_11_20 - t1_12_20 - t1_13_20 - t1_14_20 - t1_15_20 - t1_16_20 - t1_17_20 - t1_18_20 - t1_19_20 - t1_20_21 - t2_3_20 - t2_4_20 - t2_5_20 - t2_6_20 - t2_7_20 - t2_8_20 - t2_9_20 - t2_10_20 - t2_11_20 - t2_12_20 - t2_13_20 - t2_14_20 - t2_15_20 - t2_16_20 - t2_17_20 - t2_18_20 - t2_19_20 - t2_20_21 - t3_4_20 - t3_5_20 - t3_6_20 - t3_7_20 - t3_8_20 - t3_9_20 - t3_10_20 - t3_11_20 - t3_12_20 - t3_13_20 - t3_14_20 - t3_15_20 - t3_16_20 - t3_17_20 - t3_18_20 - t3_19_20 - t3_20_21 - t4_5_20 - t4_6_20 - t4_7_20 - t4_8_20 - t4_9_20 - t4_10_20 - t4_11_20 - t4_12_20 - t4_13_20 - t4_14_20 - t4_15_20 - t4_16_20 - t4_17_20 - t4_18_20 - t4_19_20 - t4_20_21 - t5_6_20 - t5_7_20 - t5_8_20 - t5_9_20 - t5_10_20 - t5_11_20 - t5_12_20 - t5_13_20 - t5_14_20 - t5_15_20 - t5_16_20 - t5_17_20 - t5_18_20 - t5_19_20 - t5_20_21 - t6_7_20 - t6_8_20 - t6_9_20 - t6_10_20 - t6_11_20 - t6_12_20 - t6_13_20 - t6_14_20 - t6_15_20 - t6_16_20 - t6_17_20 - t6_18_20 - t6_19_20 - t6_20_21 - t7_8_20 - t7_9_20 - t7_10_20 - t7_11_20 - t7_12_20 - t7_13_20 - t7_14_20 - t7_15_20 - t7_16_20 - t7_17_20 - t7_18_20 - t7_19_20 - t7_20_21 - t8_9_20 - t8_10_20 - t8_11_20 - t8_12_20 - t8_13_20 - t8_14_20 - t8_15_20 - t8_16_20 - t8_17_20 - t8_18_20 - t8_19_20 - t8_20_21 - t9_10_20 - t9_11_20 - t9_12_20 - t9_13_20 - t9_14_20 - t9_15_20 - t9_16_20 - t9_17_20 - t9_18_20 - t9_19_20 - t9_20_21 - t10_11_20 - t10_12_20 - t10_13_20 - t10_14_20 - t10_15_20 - t10_16_20 - t10_17_20 - t10_18_20 - t10_19_20 - t10_20_21 - t11_12_20 - t11_13_20 - t11_14_20 - t11_15_20 - t11_16_20 - t11_17_20 - t11_18_20 - t11_19_20 - t11_20_21 - t12_13_20 - t12_14_20 - t12_15_20 - t12_16_20 - t12_17_20 - t12_18_20 - t12_19_20 - t12_20_21 - t13_14_20 - t13_15_20 - t13_16_20 - t13_17_20 - t13_18_20 - t13_19_20 - t13_20_21 - t14_15_20 - t14_16_20 - t14_17_20 - t14_18_20 - t14_19_20 - t14_20_21 - t15_16_20 - t15_17_20 - t15_18_20 - t15_19_20 - t15_20_21 - t16_17_20 - t16_18_20 - t16_19_20 - t16_20_21 - t17_18_20 - t17_19_20 - t17_20_21 - t18_19_20 - t18_20_21 - t19_20_21 = 0

k3deg21: d21 - t0_1_21 - t0_2_21 - t0_3_21 - t0_4_21 - t0_5_21 - t0_6_21 - t0_7_21 - t0_8_21 - t0_9_21 - t0_10_21 - t0_11_21 - t0_12_21 - t0_13_21 - t0_14_21 - t0_15_21 - t0_16_21 - t0_17_21 - t0_18_21 - t0_19_21 - t0_20_21 - t1_2_21 - t1_3_21 - t1_4_21 - t1_5_21 - t1_6_21 - t1_7_21 - t1_8_21 - t1_9_21 - t1_10_21 - t1_11_21 - t1_12_21 - t1_13_21 - t1_14_21 - t1_15_21 - t1_16_21 - t1_17_21 - t1_18_21 - t1_19_21 - t1_20_21 - t2_3_21 - t2_4_21 - t2_5_21 - t2_6_21 - t2_7_21 - t2_8_21 - t2_9_21 - t2_10_21 - t2_11_21 - t2_12_21 - t2_13_21 - t2_14_21 - t2_15_21 - t2_16_21 - t2_17_21 - t2_18_21 - t2_19_21 - t2_20_21 - t3_4_21 - t3_5_21 - t3_6_21 - t3_7_21 - t3_8_21 - t3_9_21 - t3_10_21 - t3_11_21 - t3_12_21 - t3_13_21 - t3_14_21 - t3_15_21 - t3_16_21 - t3_17_21 - t3_18_21 - t3_19_21 - t3_20_21 - t4_5_21 - t4_6_21 - t4_7_21 - t4_8_21 - t4_9_21 - t4_10_21 - t4_11_21 - t4_12_21 - t4_13_21 - t4_14_21 - t4_15_21 - t4_16_21 - t4_17_21 - t4_18_21 - t4_19_21 - t4_20_21 - t5_6_21 - t5_7_21 - t5_8_21 - t5_9_21 - t5_10_21 - t5_11_21 - t5_12_21 - t5_13_21 - t5_14_21 - t5_15_21 - t5_16_21 - t5_17_21 - t5_18_21 - t5_19_21 - t5_20_21 - t6_7_21 - t6_8_21 - t6_9_21 - t6_10_21 - t6_11_21 - t6_12_21 - t6_13_21 - t6_14_21 - t6_15_21 - t6_16_21 - t6_17_21 - t6_18_21 - t6_19_21 - t6_20_21 - t7_8_21 - t7_9_21 - t7_10_21 - t7_11_21 - t7_12_21 - t7_13_21 - t7_14_21 - t7_15_21 - t7_16_21 - t7_17_21 - t7_18_21 - t7_19_21 - t7_20_21 - t8_9_21 - t8_10_21 - t8_11_21 - t8_12_21 - t8_13_21 - t8_14_21 - t8_15_21 - t8_16_21 - t8_17_21 - t8_18_21 - t8_19_21 - t8_20_21 - t9_10_21 - t9_11_21 - t9_12_21 - t9_13_21 - t9_14_21 - t9_15_21 - t9_16_21 - t9_17_21 - t9_18_21 - t9_19_21 - t9_20_21 - t10_11_21 - t10_12_21 - t10_13_21 - t10_14_21 - t10_15_21 - t10_16_21 - t10_17_21 - t10_18_21 - t10_19_21 - t10_20_21 - t11_12_21 - t11_13_21 - t11_14_21 - t11_15_21 - t11_16_21 - t11_17_21 - t11_18_21 - t11_19_21 - t11_20_21 - t12_13_21 - t12_14_21 - t12_15_21 - t12_16_21 - t12_17_21 - t12_18_21 - t12_19_21 - t12_20_21 - t13_14_21 - t13_15_21 - t13_16_21 - t13_17_21 - t13_18_21 - t13_19_21 - t13_20_21 - t14_15_21 - t14_16_21 - t14_17_21 - t14_18_21 - t14_19_21 - t14_20_21 - t15_16_21 - t15_17_21 - t15_18_21 - t15_19_21 - t15_20_21 - t16_17_21 - t16_18_21 - t16_19_21 - t16_20_21 - t17_18_21 - t17_19_21 - t17_20_21 - t18_19_21 - t18_20_21 - t19_20_21 = 0


sum_k3: d0 + d1 + d2 + d3 + d4 + d5 + d6 + d7 + d8 + d9 + d10 + d11 + d12 + d13 + d14 + d15 + d16 + d17 + d18 + d19 + d20 + d21 - 3 T = 0
bin_1_4: b_1_4 <= 1
neq1_1_4: d1 - d4 - 64 b_1_4 <= -1
neq2_1_4: d4 - d1 + 64 b_1_4 <= 63
bin_1_5: b_1_5 <= 1
neq1_1_5: d1 - d5 - 64 b_1_5 <= -1
neq2_1_5: d5 - d1 + 64 b_1_5 <= 63
bin_1_6: b_1_6 <= 1
neq1_1_6: d1 - d6 - 64 b_1_6 <= -1
neq2_1_6: d6 - d1 + 64 b_1_6 <= 63
bin_1_7: b_1_7 <= 1
neq1_1_7: d1 - d7 - 64 b_1_7 <= -1
neq2_1_7: d7 - d1 + 64 b_1_7 <= 63
bin_1_8: b_1_8 <= 1
neq1_1_8: d1 - d8 - 64 b_1_8 <= -1
neq2_1_8: d8 - d1 + 64 b_1_8 <= 63
bin_2_4: b_2_4 <= 1
neq1_2_4: d2 - d4 - 64 b_2_4 <= -1
neq2_2_4: d4 - d2 + 64 b_2_4 <= 63
bin_2_5: b_2_5 <= 1
neq1_2_5: d2 - d5 - 64 b_2_5 <= -1
neq2_2_5: d5 - d2 + 64 b_2_5 <= 63
bin_2_6: b_2_6 <= 1
neq1_2_6: d2 - d6 - 64 b_2_6 <= -1
neq2_2_6: d6 - d2 + 64 b_2_6 <= 63
bin_2_7: b_2_7 <= 1
neq1_2_7: d2 - d7 - 64 b_2_7 <= -1
neq2_2_7: d7 - d2 + 64 b_2_7 <= 63
bin_2_8: b_2_8 <= 1
neq1_2_8: d2 - d8 - 64 b_2_8 <= -1
neq2_2_8: d8 - d2 + 64 b_2_8 <= 63
bin_3_4: b_3_4 <= 1
neq1_3_4: d3 - d4 - 64 b_3_4 <= -1
neq2_3_4: d4 - d3 + 64 b_3_4 <= 63
bin_3_5: b_3_5 <= 1
neq1_3_5: d3 - d5 - 64 b_3_5 <= -1
neq2_3_5: d5 - d3 + 64 b_3_5 <= 63
bin_3_6: b_3_6 <= 1
neq1_3_6: d3 - d6 - 64 b_3_6 <= -1
neq2_3_6: d6 - d3 + 64 b_3_6 <= 63
bin_3_7: b_3_7 <= 1
neq1_3_7: d3 - d7 - 64 b_3_7 <= -1
neq2_3_7: d7 - d3 + 64 b_3_7 <= 63
bin_3_8: b_3_8 <= 1
neq1_3_8: d3 - d8 - 64 b_3_8 <= -1
neq2_3_8: d8 - d3 + 64 b_3_8 <= 63

bin_10_15: b_10_15 <= 1
neq1_10_15: d10 - d15 - 64 b_10_15 <= -1
neq2_10_15: d15 - d10 + 64 b_10_15 <= 63
bin_10_16: b_10_16 <= 1
neq1_10_16: d10 - d16 - 64 b_10_16 <= -1
neq2_10_16: d16 - d10 + 64 b_10_16 <= 63
bin_10_17: b_10_17 <= 1
neq1_10_17: d10 - d17 - 64 b_10_17 <= -1
neq2_10_17: d17 - d10 + 64 b_10_17 <= 63
bin_10_18: b_10_18 <= 1
neq1_10_18: d10 - d18 - 64 b_10_18 <= -1
neq2_10_18: d18 - d10 + 64 b_10_18 <= 63
bin_10_19: b_10_19 <= 1
neq1_10_19: d10 - d19 - 64 b_10_19 <= -1
neq2_10_19: d19 - d10 + 64 b_10_19 <= 63
bin_10_20: b_10_20 <= 1
neq1_10_20: d10 - d20 - 64 b_10_20 <= -1
neq2_10_20: d20 - d10 + 64 b_10_20 <= 63
bin_10_21: b_10_21 <= 1
neq1_10_21: d10 - d21 - 64 b_10_21 <= -1
neq2_10_21: d21 - d10 + 64 b_10_21 <= 63
bin_11_15: b_11_15 <= 1
neq1_11_15: d11 - d15 - 64 b_11_15 <= -1
neq2_11_15: d15 - d11 + 64 b_11_15 <= 63
bin_11_16: b_11_16 <= 1
neq1_11_16: d11 - d16 - 64 b_11_16 <= -1
neq2_11_16: d16 - d11 + 64 b_11_16 <= 63
bin_11_17: b_11_17 <= 1
neq1_11_17: d11 - d17 - 64 b_11_17 <= -1
neq2_11_17: d17 - d11 + 64 b_11_17 <= 63
bin_11_18: b_11_18 <= 1
neq1_11_18: d11 - d18 - 64 b_11_18 <= -1
neq2_11_18: d18 - d11 + 64 b_11_18 <= 63
bin_11_19: b_11_19 <= 1
neq1_11_19: d11 - d19 - 64 b_11_19 <= -1
neq2_11_19: d19 - d11 + 64 b_11_19 <= 63
bin_11_20: b_11_20 <= 1
neq1_11_20: d11 - d20 - 64 b_11_20 <= -1
neq2_11_20: d20 - d11 + 64 b_11_20 <= 63
bin_11_21: b_11_21 <= 1
neq1_11_21: d11 - d21 - 64 b_11_21 <= -1
neq2_11_21: d21 - d11 + 64 b_11_21 <= 63
bin_12_15: b_12_15 <= 1
neq1_12_15: d12 - d15 - 64 b_12_15 <= -1
neq2_12_15: d15 - d12 + 64 b_12_15 <= 63
bin_12_16: b_12_16 <= 1
neq1_12_16: d12 - d16 - 64 b_12_16 <= -1
neq2_12_16: d16 - d12 + 64 b_12_16 <= 63
bin_12_17: b_12_17 <= 1
neq1_12_17: d12 - d17 - 64 b_12_17 <= -1
neq2_12_17: d17 - d12 + 64 b_12_17 <= 63
bin_12_18: b_12_18 <= 1
neq1_12_18: d12 - d18 - 64 b_12_18 <= -1
neq2_12_18: d18 - d12 + 64 b_12_18 <= 63
bin_12_19: b_12_19 <= 1
neq1_12_19: d12 - d19 - 64 b_12_19 <= -1
neq2_12_19: d19 - d12 + 64 b_12_19 <= 63
bin_12_20: b_12_20 <= 1
neq1_12_20: d12 - d20 - 64 b_12_20 <= -1
neq2_12_20: d20 - d12 + 64 b_12_20 <= 63
bin_12_21: b_12_21 <= 1
neq1_12_21: d12 - d21 - 64 b_12_21 <= -1
neq2_12_21: d21 - d12 + 64 b_12_21 <= 63
bin_13_15: b_13_15 <= 1
neq1_13_15: d13 - d15 - 64 b_13_15 <= -1
neq2_13_15: d15 - d13 + 64 b_13_15 <= 63
bin_13_16: b_13_16 <= 1
neq1_13_16: d13 - d16 - 64 b_13_16 <= -1
neq2_13_16: d16 - d13 + 64 b_13_16 <= 63
bin_13_17: b_13_17 <= 1
neq1_13_17: d13 - d17 - 64 b_13_17 <= -1
neq2_13_17: d17 - d13 + 64 b_13_17 <= 63
bin_13_18: b_13_18 <= 1
neq1_13_18: d13 - d18 - 64 b_13_18 <= -1
neq2_13_18: d18 - d13 + 64 b_13_18 <= 63
bin_13_19: b_13_19 <= 1
neq1_13_19: d13 - d19 - 64 b_13_19 <= -1
neq2_13_19: d19 - d13 + 64 b_13_19 <= 63
bin_13_20: b_13_20 <= 1
neq1_13_20: d13 - d20 - 64 b_13_20 <= -1
neq2_13_20: d20 - d13 + 64 b_13_20 <= 63
bin_13_21: b_13_21 <= 1
neq1_13_21: d13 - d21 - 64 b_13_21 <= -1
neq2_13_21: d21 - d13 + 64 b_13_21 <= 63
bin_14_15: b_14_15 <= 1
neq1_14_15: d14 - d15 - 64 b_14_15 <= -1
neq2_14_15: d15 - d14 + 64 b_14_15 <= 63
bin_14_16: b_14_16 <= 1
neq1_14_16: d14 - d16 - 64 b_14_16 <= -1
neq2_14_16: d16 - d14 + 64 b_14_16 <= 63
bin_14_17: b_14_17 <= 1
neq1_14_17: d14 - d17 - 64 b_14_17 <= -1
neq2_14_17: d17 - d14 + 64 b_14_17 <= 63
bin_14_18: b_14_18 <= 1
neq1_14_18: d14 - d18 - 64 b_14_18 <= -1
neq2_14_18: d18 - d14 + 64 b_14_18 <= 63
bin_14_19: b_14_19 <= 1
neq1_14_19: d14 - d19 - 64 b_14_19 <= -1
neq2_14_19: d19 - d14 + 64 b_14_19 <= 63
bin_14_20: b_14_20 <= 1
neq1_14_20: d14 - d20 - 64 b_14_20 <= -1
neq2_14_20: d20 - d14 + 64 b_14_20 <= 63
bin_14_21: b_14_21 <= 1
neq1_14_21: d14 - d21 - 64 b_14_21 <= -1
neq2_14_21: d21 - d14 + 64 b_14_21 <= 63
bin_1_9: b_1_9 <= 1
neq1_1_9: d1 - d9 - 64 b_1_9 <= -1
neq2_1_9: d9 - d1 + 64 b_1_9 <= 63
bin_1_10: b_1_10 <= 1
neq1_1_10: d1 - d10 - 64 b_1_10 <= -1
neq2_1_10: d10 - d1 + 64 b_1_10 <= 63
bin_1_11: b_1_11 <= 1
neq1_1_11: d1 - d11 - 64 b_1_11 <= -1
neq2_1_11: d11 - d1 + 64 b_1_11 <= 63
bin_1_12: b_1_12 <= 1
neq1_1_12: d1 - d12 - 64 b_1_12 <= -1
neq2_1_12: d12 - d1 + 64 b_1_12 <= 63
bin_1_13: b_1_13 <= 1
neq1_1_13: d1 - d13 - 64 b_1_13 <= -1
neq2_1_13: d13 - d1 + 64 b_1_13 <= 63
bin_1_14: b_1_14 <= 1
neq1_1_14: d1 - d14 - 64 b_1_14 <= -1
neq2_1_14: d14 - d1 + 64 b_1_14 <= 63
bin_1_15: b_1_15 <= 1
neq1_1_15: d1 - d15 - 64 b_1_15 <= -1
neq2_1_15: d15 - d1 + 64 b_1_15 <= 63
bin_1_16: b_1_16 <= 1
neq1_1_16: d1 - d16 - 64 b_1_16 <= -1
neq2_1_16: d16 - d1 + 64 b_1_16 <= 63
bin_1_17: b_1_17 <= 1
neq1_1_17: d1 - d17 - 64 b_1_17 <= -1
neq2_1_17: d17 - d1 + 64 b_1_17 <= 63
bin_1_18: b_1_18 <= 1
neq1_1_18: d1 - d18 - 64 b_1_18 <= -1
neq2_1_18: d18 - d1 + 64 b_1_18 <= 63
bin_1_19: b_1_19 <= 1
neq1_1_19: d1 - d19 - 64 b_1_19 <= -1
neq2_1_19: d19 - d1 + 64 b_1_19 <= 63
bin_1_20: b_1_20 <= 1
neq1_1_20: d1 - d20 - 64 b_1_20 <= -1
neq2_1_20: d20 - d1 + 64 b_1_20 <= 63
bin_1_21: b_1_21 <= 1
neq1_1_21: d1 - d21 - 64 b_1_21 <= -1
neq2_1_21: d21 - d1 + 64 b_1_21 <= 63
bin_2_9: b_2_9 <= 1
neq1_2_9: d2 - d9 - 64 b_2_9 <= -1
neq2_2_9: d9 - d2 + 64 b_2_9 <= 63
bin_2_10: b_2_10 <= 1
neq1_2_10: d2 - d10 - 64 b_2_10 <= -1
neq2_2_10: d10 - d2 + 64 b_2_10 <= 63
bin_2_11: b_2_11 <= 1
neq1_2_11: d2 - d11 - 64 b_2_11 <= -1
neq2_2_11: d11 - d2 + 64 b_2_11 <= 63
bin_2_12: b_2_12 <= 1
neq1_2_12: d2 - d12 - 64 b_2_12 <= -1
neq2_2_12: d12 - d2 + 64 b_2_12 <= 63
bin_2_13: b_2_13 <= 1
neq1_2_13: d2 - d13 - 64 b_2_13 <= -1
neq2_2_13: d13 - d2 + 64 b_2_13 <= 63
bin_2_14: b_2_14 <= 1
neq1_2_14: d2 - d14 - 64 b_2_14 <= -1
neq2_2_14: d14 - d2 + 64 b_2_14 <= 63
bin_2_15: b_2_15 <= 1
neq1_2_15: d2 - d15 - 64 b_2_15 <= -1
neq2_2_15: d15 - d2 + 64 b_2_15 <= 63
bin_2_16: b_2_16 <= 1
neq1_2_16: d2 - d16 - 64 b_2_16 <= -1
neq2_2_16: d16 - d2 + 64 b_2_16 <= 63
bin_2_17: b_2_17 <= 1
neq1_2_17: d2 - d17 - 64 b_2_17 <= -1
neq2_2_17: d17 - d2 + 64 b_2_17 <= 63
bin_2_18: b_2_18 <= 1
neq1_2_18: d2 - d18 - 64 b_2_18 <= -1
neq2_2_18: d18 - d2 + 64 b_2_18 <= 63
bin_2_19: b_2_19 <= 1
neq1_2_19: d2 - d19 - 64 b_2_19 <= -1
neq2_2_19: d19 - d2 + 64 b_2_19 <= 63
bin_2_20: b_2_20 <= 1
neq1_2_20: d2 - d20 - 64 b_2_20 <= -1
neq2_2_20: d20 - d2 + 64 b_2_20 <= 63
bin_2_21: b_2_21 <= 1
neq1_2_21: d2 - d21 - 64 b_2_21 <= -1
neq2_2_21: d21 - d2 + 64 b_2_21 <= 63
bin_3_9: b_3_9 <= 1
neq1_3_9: d3 - d9 - 64 b_3_9 <= -1
neq2_3_9: d9 - d3 + 64 b_3_9 <= 63
bin_3_10: b_3_10 <= 1
neq1_3_10: d3 - d10 - 64 b_3_10 <= -1
neq2_3_10: d10 - d3 + 64 b_3_10 <= 63
bin_3_11: b_3_11 <= 1
neq1_3_11: d3 - d11 - 64 b_3_11 <= -1
neq2_3_11: d11 - d3 + 64 b_3_11 <= 63
bin_3_12: b_3_12 <= 1
neq1_3_12: d3 - d12 - 64 b_3_12 <= -1
neq2_3_12: d12 - d3 + 64 b_3_12 <= 63
bin_3_13: b_3_13 <= 1
neq1_3_13: d3 - d13 - 64 b_3_13 <= -1
neq2_3_13: d13 - d3 + 64 b_3_13 <= 63
bin_3_14: b_3_14 <= 1
neq1_3_14: d3 - d14 - 64 b_3_14 <= -1
neq2_3_14: d14 - d3 + 64 b_3_14 <= 63
bin_3_15: b_3_15 <= 1
neq1_3_15: d3 - d15 - 64 b_3_15 <= -1
neq2_3_15: d15 - d3 + 64 b_3_15 <= 63
bin_3_16: b_3_16 <= 1
neq1_3_16: d3 - d16 - 64 b_3_16 <= -1
neq2_3_16: d16 - d3 + 64 b_3_16 <= 63
bin_3_17: b_3_17 <= 1
neq1_3_17: d3 - d17 - 64 b_3_17 <= -1
neq2_3_17: d17 - d3 + 64 b_3_17 <= 63
bin_3_18: b_3_18 <= 1
neq1_3_18: d3 - d18 - 64 b_3_18 <= -1
neq2_3_18: d18 - d3 + 64 b_3_18 <= 63
bin_3_19: b_3_19 <= 1
neq1_3_19: d3 - d19 - 64 b_3_19 <= -1
neq2_3_19: d19 - d3 + 64 b_3_19 <= 63
bin_3_20: b_3_20 <= 1
neq1_3_20: d3 - d20 - 64 b_3_20 <= -1
neq2_3_20: d20 - d3 + 64 b_3_20 <= 63
bin_3_21: b_3_21 <= 1
neq1_3_21: d3 - d21 - 64 b_3_21 <= -1
neq2_3_21: d21 - d3 + 64 b_3_21 <= 63
bin_4_9: b_4_9 <= 1
neq1_4_9: d4 - d9 - 64 b_4_9 <= -1
neq2_4_9: d9 - d4 + 64 b_4_9 <= 63
bin_4_10: b_4_10 <= 1
neq1_4_10: d4 - d10 - 64 b_4_10 <= -1
neq2_4_10: d10 - d4 + 64 b_4_10 <= 63
bin_4_11: b_4_11 <= 1
neq1_4_11: d4 - d11 - 64 b_4_11 <= -1
neq2_4_11: d11 - d4 + 64 b_4_11 <= 63
bin_4_12: b_4_12 <= 1
neq1_4_12: d4 - d12 - 64 b_4_12 <= -1
neq2_4_12: d12 - d4 + 64 b_4_12 <= 63
bin_4_13: b_4_13 <= 1
neq1_4_13: d4 - d13 - 64 b_4_13 <= -1
neq2_4_13: d13 - d4 + 64 b_4_13 <= 63
bin_4_14: b_4_14 <= 1
neq1_4_14: d4 - d14 - 64 b_4_14 <= -1
neq2_4_14: d14 - d4 + 64 b_4_14 <= 63
bin_4_15: b_4_15 <= 1
neq1_4_15: d4 - d15 - 64 b_4_15 <= -1
neq2_4_15: d15 - d4 + 64 b_4_15 <= 63
bin_4_16: b_4_16 <= 1
neq1_4_16: d4 - d16 - 64 b_4_16 <= -1
neq2_4_16: d16 - d4 + 64 b_4_16 <= 63
bin_4_17: b_4_17 <= 1
neq1_4_17: d4 - d17 - 64 b_4_17 <= -1
neq2_4_17: d17 - d4 + 64 b_4_17 <= 63
bin_4_18: b_4_18 <= 1
neq1_4_18: d4 - d18 - 64 b_4_18 <= -1
neq2_4_18: d18 - d4 + 64 b_4_18 <= 63
bin_4_19: b_4_19 <= 1
neq1_4_19: d4 - d19 - 64 b_4_19 <= -1
neq2_4_19: d19 - d4 + 64 b_4_19 <= 63
bin_4_20: b_4_20 <= 1
neq1_4_20: d4 - d20 - 64 b_4_20 <= -1
neq2_4_20: d20 - d4 + 64 b_4_20 <= 63
bin_4_21: b_4_21 <= 1
neq1_4_21: d4 - d21 - 64 b_4_21 <= -1
neq2_4_21: d21 - d4 + 64 b_4_21 <= 63
bin_5_9: b_5_9 <= 1
neq1_5_9: d5 - d9 - 64 b_5_9 <= -1
neq2_5_9: d9 - d5 + 64 b_5_9 <= 63
bin_5_10: b_5_10 <= 1
neq1_5_10: d5 - d10 - 64 b_5_10 <= -1
neq2_5_10: d10 - d5 + 64 b_5_10 <= 63
bin_5_11: b_5_11 <= 1
neq1_5_11: d5 - d11 - 64 b_5_11 <= -1
neq2_5_11: d11 - d5 + 64 b_5_11 <= 63
bin_5_12: b_5_12 <= 1
neq1_5_12: d5 - d12 - 64 b_5_12 <= -1
neq2_5_12: d12 - d5 + 64 b_5_12 <= 63
bin_5_13: b_5_13 <= 1
neq1_5_13: d5 - d13 - 64 b_5_13 <= -1
neq2_5_13: d13 - d5 + 64 b_5_13 <= 63
bin_5_14: b_5_14 <= 1
neq1_5_14: d5 - d14 - 64 b_5_14 <= -1
neq2_5_14: d14 - d5 + 64 b_5_14 <= 63
bin_5_15: b_5_15 <= 1
neq1_5_15: d5 - d15 - 64 b_5_15 <= -1
neq2_5_15: d15 - d5 + 64 b_5_15 <= 63
bin_5_16: b_5_16 <= 1
neq1_5_16: d5 - d16 - 64 b_5_16 <= -1
neq2_5_16: d16 - d5 + 64 b_5_16 <= 63
bin_5_17: b_5_17 <= 1
neq1_5_17: d5 - d17 - 64 b_5_17 <= -1
neq2_5_17: d17 - d5 + 64 b_5_17 <= 63
bin_5_18: b_5_18 <= 1
neq1_5_18: d5 - d18 - 64 b_5_18 <= -1
neq2_5_18: d18 - d5 + 64 b_5_18 <= 63
bin_5_19: b_5_19 <= 1
neq1_5_19: d5 - d19 - 64 b_5_19 <= -1
neq2_5_19: d19 - d5 + 64 b_5_19 <= 63
bin_5_20: b_5_20 <= 1
neq1_5_20: d5 - d20 - 64 b_5_20 <= -1
neq2_5_20: d20 - d5 + 64 b_5_20 <= 63
bin_5_21: b_5_21 <= 1
neq1_5_21: d5 - d21 - 64 b_5_21 <= -1
neq2_5_21: d21 - d5 + 64 b_5_21 <= 63
bin_6_9: b_6_9 <= 1
neq1_6_9: d6 - d9 - 64 b_6_9 <= -1
neq2_6_9: d9 - d6 + 64 b_6_9 <= 63
bin_6_10: b_6_10 <= 1
neq1_6_10: d6 - d10 - 64 b_6_10 <= -1
neq2_6_10: d10 - d6 + 64 b_6_10 <= 63
bin_6_11: b_6_11 <= 1
neq1_6_11: d6 - d11 - 64 b_6_11 <= -1
neq2_6_11: d11 - d6 + 64 b_6_11 <= 63
bin_6_12: b_6_12 <= 1
neq1_6_12: d6 - d12 - 64 b_6_12 <= -1
neq2_6_12: d12 - d6 + 64 b_6_12 <= 63
bin_6_13: b_6_13 <= 1
neq1_6_13: d6 - d13 - 64 b_6_13 <= -1
neq2_6_13: d13 - d6 + 64 b_6_13 <= 63
bin_6_14: b_6_14 <= 1
neq1_6_14: d6 - d14 - 64 b_6_14 <= -1
neq2_6_14: d14 - d6 + 64 b_6_14 <= 63
bin_6_15: b_6_15 <= 1
neq1_6_15: d6 - d15 - 64 b_6_15 <= -1
neq2_6_15: d15 - d6 + 64 b_6_15 <= 63
bin_6_16: b_6_16 <= 1
neq1_6_16: d6 - d16 - 64 b_6_16 <= -1
neq2_6_16: d16 - d6 + 64 b_6_16 <= 63
bin_6_17: b_6_17 <= 1
neq1_6_17: d6 - d17 - 64 b_6_17 <= -1
neq2_6_17: d17 - d6 + 64 b_6_17 <= 63
bin_6_18: b_6_18 <= 1
neq1_6_18: d6 - d18 - 64 b_6_18 <= -1
neq2_6_18: d18 - d6 + 64 b_6_18 <= 63
bin_6_19: b_6_19 <= 1
neq1_6_19: d6 - d19 - 64 b_6_19 <= -1
neq2_6_19: d19 - d6 + 64 b_6_19 <= 63
bin_6_20: b_6_20 <= 1
neq1_6_20: d6 - d20 - 64 b_6_20 <= -1
neq2_6_20: d20 - d6 + 64 b_6_20 <= 63
bin_6_21: b_6_21 <= 1
neq1_6_21: d6 - d21 - 64 b_6_21 <= -1
neq2_6_21: d21 - d6 + 64 b_6_21 <= 63
bin_7_9: b_7_9 <= 1
neq1_7_9: d7 - d9 - 64 b_7_9 <= -1
neq2_7_9: d9 - d7 + 64 b_7_9 <= 63
bin_7_10: b_7_10 <= 1
neq1_7_10: d7 - d10 - 64 b_7_10 <= -1
neq2_7_10: d10 - d7 + 64 b_7_10 <= 63
bin_7_11: b_7_11 <= 1
neq1_7_11: d7 - d11 - 64 b_7_11 <= -1
neq2_7_11: d11 - d7 + 64 b_7_11 <= 63
bin_7_12: b_7_12 <= 1
neq1_7_12: d7 - d12 - 64 b_7_12 <= -1
neq2_7_12: d12 - d7 + 64 b_7_12 <= 63
bin_7_13: b_7_13 <= 1
neq1_7_13: d7 - d13 - 64 b_7_13 <= -1
neq2_7_13: d13 - d7 + 64 b_7_13 <= 63
bin_7_14: b_7_14 <= 1
neq1_7_14: d7 - d14 - 64 b_7_14 <= -1
neq2_7_14: d14 - d7 + 64 b_7_14 <= 63
bin_7_15: b_7_15 <= 1
neq1_7_15: d7 - d15 - 64 b_7_15 <= -1
neq2_7_15: d15 - d7 + 64 b_7_15 <= 63
bin_7_16: b_7_16 <= 1
neq1_7_16: d7 - d16 - 64 b_7_16 <= -1
neq2_7_16: d16 - d7 + 64 b_7_16 <= 63
bin_7_17: b_7_17 <= 1
neq1_7_17: d7 - d17 - 64 b_7_17 <= -1
neq2_7_17: d17 - d7 + 64 b_7_17 <= 63
bin_7_18: b_7_18 <= 1
neq1_7_18: d7 - d18 - 64 b_7_18 <= -1
neq2_7_18: d18 - d7 + 64 b_7_18 <= 63
bin_7_19: b_7_19 <= 1
neq1_7_19: d7 - d19 - 64 b_7_19 <= -1
neq2_7_19: d19 - d7 + 64 b_7_19 <= 63
bin_7_20: b_7_20 <= 1
neq1_7_20: d7 - d20 - 64 b_7_20 <= -1
neq2_7_20: d20 - d7 + 64 b_7_20 <= 63
bin_7_21: b_7_21 <= 1
neq1_7_21: d7 - d21 - 64 b_7_21 <= -1
neq2_7_21: d21 - d7 + 64 b_7_21 <= 63
bin_8_9: b_8_9 <= 1
neq1_8_9: d8 - d9 - 64 b_8_9 <= -1
neq2_8_9: d9 - d8 + 64 b_8_9 <= 63
bin_8_10: b_8_10 <= 1
neq1_8_10: d8 - d10 - 64 b_8_10 <= -1
neq2_8_10: d10 - d8 + 64 b_8_10 <= 63
bin_8_11: b_8_11 <= 1
neq1_8_11: d8 - d11 - 64 b_8_11 <= -1
neq2_8_11: d11 - d8 + 64 b_8_11 <= 63
bin_8_12: b_8_12 <= 1
neq1_8_12: d8 - d12 - 64 b_8_12 <= -1
neq2_8_12: d12 - d8 + 64 b_8_12 <= 63
bin_8_13: b_8_13 <= 1
neq1_8_13: d8 - d13 - 64 b_8_13 <= -1
neq2_8_13: d13 - d8 + 64 b_8_13 <= 63
bin_8_14: b_8_14 <= 1
neq1_8_14: d8 - d14 - 64 b_8_14 <= -1
neq2_8_14: d14 - d8 + 64 b_8_14 <= 63
bin_8_15: b_8_15 <= 1
neq1_8_15: d8 - d15 - 64 b_8_15 <= -1
neq2_8_15: d15 - d8 + 64 b_8_15 <= 63
bin_8_16: b_8_16 <= 1
neq1_8_16: d8 - d16 - 64 b_8_16 <= -1
neq2_8_16: d16 - d8 + 64 b_8_16 <= 63
bin_8_17: b_8_17 <= 1
neq1_8_17: d8 - d17 - 64 b_8_17 <= -1
neq2_8_17: d17 - d8 + 64 b_8_17 <= 63
bin_8_18: b_8_18 <= 1
neq1_8_18: d8 - d18 - 64 b_8_18 <= -1
neq2_8_18: d18 - d8 + 64 b_8_18 <= 63
bin_8_19: b_8_19 <= 1
neq1_8_19: d8 - d19 - 64 b_8_19 <= -1
neq2_8_19: d19 - d8 + 64 b_8_19 <= 63
bin_8_20: b_8_20 <= 1
neq1_8_20: d8 - d20 - 64 b_8_20 <= -1
neq2_8_20: d20 - d8 + 64 b_8_20 <= 63
bin_8_21: b_8_21 <= 1
neq1_8_21: d8 - d21 - 64 b_8_21 <= -1
neq2_8_21: d21 - d8 + 64 b_8_21 <= 63

ord1_2: d1 - d2 <= -1
ord2_3: d2 - d3 <= -1

ord4_5: d4 - d5 <= -1
ord5_6: d5 - d6 <= -1
ord6_7: d6 - d7 <= -1
ord7_8: d7 - d8 <= -1
ord10_11: d10 - d11 <= -1
ord11_12: d11 - d12 <= -1
ord12_13: d12 - d13 <= -1
ord13_14: d13 - d14 <= -1

ord15_16: d15 - d16 <= -1
ord16_17: d16 - d17 <= -1
ord17_18: d17 - d18 <= -1
ord18_19: d18 - d19 <= -1
ord19_20: d19 - d20 <= -1
ord20_21: d20 - d21 <= -1


Bounds
d0 = 21
d9 = 0
1 <= d1 <= 20
1 <= d2 <= 20
1 <= d3 <= 20
1 <= d4 <= 20
1 <= d5 <= 20
1 <= d6 <= 20
1 <= d7 <= 20
1 <= d8 <= 20
1 <= d10 <= 20
1 <= d11 <= 20
1 <= d12 <= 20
1 <= d13 <= 20
1 <= d14 <= 20
1 <= d15 <= 20
1 <= d16 <= 20
1 <= d17 <= 20
1 <= d18 <= 20
1 <= d19 <= 20
1 <= d20 <= 20
1 <= d21 <= 20
77 <= T <= 77

Binary
 x0_1  x0_2  x0_3  x0_4  x0_5  x0_6  x0_7  x0_8  x0_9  x0_10  x0_11  x0_12  x0_13  x0_14  x0_15  x0_16  x0_17  x0_18  x0_19  x0_20  x0_21 
 x1_2  x1_3  x1_4  x1_5  x1_6  x1_7  x1_8  x1_9  x1_10  x1_11  x1_12  x1_13  x1_14  x1_15  x1_16  x1_17  x1_18  x1_19  x1_20  x1_21 
 x2_3  x2_4  x2_5  x2_6  x2_7  x2_8  x2_9  x2_10  x2_11  x2_12  x2_13  x2_14  x2_15  x2_16  x2_17  x2_18  x2_19  x2_20  x2_21 
 x3_4  x3_5  x3_6  x3_7  x3_8  x3_9  x3_10  x3_11  x3_12  x3_13  x3_14  x3_15  x3_16  x3_17  x3_18  x3_19  x3_20  x3_21 
 x4_5  x4_6  x4_7  x4_8  x4_9  x4_10  x4_11  x4_12  x4_13  x4_14  x4_15  x4_16  x4_17  x4_18  x4_19  x4_20  x4_21 
 x5_6  x5_7  x5_8  x5_9  x5_10  x5_11  x5_12  x5_13  x5_14  x5_15  x5_16  x5_17  x5_18  x5_19  x5_20  x5_21 
 x6_7  x6_8  x6_9  x6_10  x6_11  x6_12  x6_13  x6_14  x6_15  x6_16  x6_17  x6_18  x6_19  x6_20  x6_21 
 x7_8  x7_9  x7_10  x7_11  x7_12  x7_13  x7_14  x7_15  x7_16  x7_17  x7_18  x7_19  x7_20  x7_21 
 x8_9  x8_10  x8_11  x8_12  x8_13  x8_14  x8_15  x8_16  x8_17  x8_18  x8_19  x8_20  x8_21 
 x9_10  x9_11  x9_12  x9_13  x9_14  x9_15  x9_16  x9_17  x9_18  x9_19  x9_20  x9_21 
 x10_11  x10_12  x10_13  x10_14  x10_15  x10_16  x10_17  x10_18  x10_19  x10_20  x10_21 
 x11_12  x11_13  x11_14  x11_15  x11_16  x11_17  x11_18  x11_19  x11_20  x11_21 
 x12_13  x12_14  x12_15  x12_16  x12_17  x12_18  x12_19  x12_20  x12_21 
 x13_14  x13_15  x13_16  x13_17  x13_18  x13_19  x13_20  x13_21 
 x14_15  x14_16  x14_17  x14_18  x14_19  x14_20  x14_21 
 x15_16  x15_17  x15_18  x15_19  x15_20  x15_21 
 x16_17  x16_18  x16_19  x16_20  x16_21 
 x17_18  x17_19  x17_20  x17_21 
 x18_19  x18_20  x18_21 
 x19_20  x19_21 
 x20_21 

 t0_1_2
 t0_1_3
 t0_1_4
 t0_1_5
 t0_1_6
 t0_1_7
 t0_1_8
 t0_1_9
 t0_1_10
 t0_1_11
 t0_1_12
 t0_1_13
 t0_1_14
 t0_1_15
 t0_1_16
 t0_1_17
 t0_1_18
 t0_1_19
 t0_1_20
 t0_1_21
 t0_2_3
 t0_2_4
 t0_2_5
 t0_2_6
 t0_2_7
 t0_2_8
 t0_2_9
 t0_2_10
 t0_2_11
 t0_2_12
 t0_2_13
 t0_2_14
 t0_2_15
 t0_2_16
 t0_2_17
 t0_2_18
 t0_2_19
 t0_2_20
 t0_2_21
 t0_3_4
 t0_3_5
 t0_3_6
 t0_3_7
 t0_3_8
 t0_3_9
 t0_3_10
 t0_3_11
 t0_3_12
 t0_3_13
 t0_3_14
 t0_3_15
 t0_3_16
 t0_3_17
 t0_3_18
 t0_3_19
 t0_3_20
 t0_3_21
 t0_4_5
 t0_4_6
 t0_4_7
 t0_4_8
 t0_4_9
 t0_4_10
 t0_4_11
 t0_4_12
 t0_4_13
 t0_4_14
 t0_4_15
 t0_4_16
 t0_4_17
 t0_4_18
 t0_4_19
 t0_4_20
 t0_4_21
 t0_5_6
 t0_5_7
 t0_5_8
 t0_5_9
 t0_5_10
 t0_5_11
 t0_5_12
 t0_5_13
 t0_5_14
 t0_5_15
 t0_5_16
 t0_5_17
 t0_5_18
 t0_5_19
 t0_5_20
 t0_5_21
 t0_6_7
 t0_6_8
 t0_6_9
 t0_6_10
 t0_6_11
 t0_6_12
 t0_6_13
 t0_6_14
 t0_6_15
 t0_6_16
 t0_6_17
 t0_6_18
 t0_6_19
 t0_6_20
 t0_6_21
 t0_7_8
 t0_7_9
 t0_7_10
 t0_7_11
 t0_7_12
 t0_7_13
 t0_7_14
 t0_7_15
 t0_7_16
 t0_7_17
 t0_7_18
 t0_7_19
 t0_7_20
 t0_7_21
 t0_8_9
 t0_8_10
 t0_8_11
 t0_8_12
 t0_8_13
 t0_8_14
 t0_8_15
 t0_8_16
 t0_8_17
 t0_8_18
 t0_8_19
 t0_8_20
 t0_8_21
 t0_9_10
 t0_9_11
 t0_9_12
 t0_9_13
 t0_9_14
 t0_9_15
 t0_9_16
 t0_9_17
 t0_9_18
 t0_9_19
 t0_9_20
 t0_9_21
 t0_10_11
 t0_10_12
 t0_10_13
 t0_10_14
 t0_10_15
 t0_10_16
 t0_10_17
 t0_10_18
 t0_10_19
 t0_10_20
 t0_10_21
 t0_11_12
 t0_11_13
 t0_11_14
 t0_11_15
 t0_11_16
 t0_11_17
 t0_11_18
 t0_11_19
 t0_11_20
 t0_11_21
 t0_12_13
 t0_12_14
 t0_12_15
 t0_12_16
 t0_12_17
 t0_12_18
 t0_12_19
 t0_12_20
 t0_12_21
 t0_13_14
 t0_13_15
 t0_13_16
 t0_13_17
 t0_13_18
 t0_13_19
 t0_13_20
 t0_13_21
 t0_14_15
 t0_14_16
 t0_14_17
 t0_14_18
 t0_14_19
 t0_14_20
 t0_14_21
 t0_15_16
 t0_15_17
 t0_15_18
 t0_15_19
 t0_15_20
 t0_15_21
 t0_16_17
 t0_16_18
 t0_16_19
 t0_16_20
 t0_16_21
 t0_17_18
 t0_17_19
 t0_17_20
 t0_17_21
 t0_18_19
 t0_18_20
 t0_18_21
 t0_19_20
 t0_19_21
 t0_20_21
 t1_2_3
 t1_2_4
 t1_2_5
 t1_2_6
 t1_2_7
 t1_2_8
 t1_2_9
 t1_2_10
 t1_2_11
 t1_2_12
 t1_2_13
 t1_2_14
 t1_2_15
 t1_2_16
 t1_2_17
 t1_2_18
 t1_2_19
 t1_2_20
 t1_2_21
 t1_3_4
 t1_3_5
 t1_3_6
 t1_3_7
 t1_3_8
 t1_3_9
 t1_3_10
 t1_3_11
 t1_3_12
 t1_3_13
 t1_3_14
 t1_3_15
 t1_3_16
 t1_3_17
 t1_3_18
 t1_3_19
 t1_3_20
 t1_3_21
 t1_4_5
 t1_4_6
 t1_4_7
 t1_4_8
 t1_4_9
 t1_4_10
 t1_4_11
 t1_4_12
 t1_4_13
 t1_4_14
 t1_4_15
 t1_4_16
 t1_4_17
 t1_4_18
 t1_4_19
 t1_4_20
 t1_4_21
 t1_5_6
 t1_5_7
 t1_5_8
 t1_5_9
 t1_5_10
 t1_5_11
 t1_5_12
 t1_5_13
 t1_5_14
 t1_5_15
 t1_5_16
 t1_5_17
 t1_5_18
 t1_5_19
 t1_5_20
 t1_5_21
 t1_6_7
 t1_6_8
 t1_6_9
 t1_6_10
 t1_6_11
 t1_6_12
 t1_6_13
 t1_6_14
 t1_6_15
 t1_6_16
 t1_6_17
 t1_6_18
 t1_6_19
 t1_6_20
 t1_6_21
 t1_7_8
 t1_7_9
 t1_7_10
 t1_7_11
 t1_7_12
 t1_7_13
 t1_7_14
 t1_7_15
 t1_7_16
 t1_7_17
 t1_7_18
 t1_7_19
 t1_7_20
 t1_7_21
 t1_8_9
 t1_8_10
 t1_8_11
 t1_8_12
 t1_8_13
 t1_8_14
 t1_8_15
 t1_8_16
 t1_8_17
 t1_8_18
 t1_8_19
 t1_8_20
 t1_8_21
 t1_9_10
 t1_9_11
 t1_9_12
 t1_9_13
 t1_9_14
 t1_9_15
 t1_9_16
 t1_9_17
 t1_9_18
 t1_9_19
 t1_9_20
 t1_9_21
 t1_10_11
 t1_10_12
 t1_10_13
 t1_10_14
 t1_10_15
 t1_10_16
 t1_10_17
 t1_10_18
 t1_10_19
 t1_10_20
 t1_10_21
 t1_11_12
 t1_11_13
 t1_11_14
 t1_11_15
 t1_11_16
 t1_11_17
 t1_11_18
 t1_11_19
 t1_11_20
 t1_11_21
 t1_12_13
 t1_12_14
 t1_12_15
 t1_12_16
 t1_12_17
 t1_12_18
 t1_12_19
 t1_12_20
 t1_12_21
 t1_13_14
 t1_13_15
 t1_13_16
 t1_13_17
 t1_13_18
 t1_13_19
 t1_13_20
 t1_13_21
 t1_14_15
 t1_14_16
 t1_14_17
 t1_14_18
 t1_14_19
 t1_14_20
 t1_14_21
 t1_15_16
 t1_15_17
 t1_15_18
 t1_15_19
 t1_15_20
 t1_15_21
 t1_16_17
 t1_16_18
 t1_16_19
 t1_16_20
 t1_16_21
 t1_17_18
 t1_17_19
 t1_17_20
 t1_17_21
 t1_18_19
 t1_18_20
 t1_18_21
 t1_19_20
 t1_19_21
 t1_20_21
 t2_3_4
 t2_3_5
 t2_3_6
 t2_3_7
 t2_3_8
 t2_3_9
 t2_3_10
 t2_3_11
 t2_3_12
 t2_3_13
 t2_3_14
 t2_3_15
 t2_3_16
 t2_3_17
 t2_3_18
 t2_3_19
 t2_3_20
 t2_3_21
 t2_4_5
 t2_4_6
 t2_4_7
 t2_4_8
 t2_4_9
 t2_4_10
 t2_4_11
 t2_4_12
 t2_4_13
 t2_4_14
 t2_4_15
 t2_4_16
 t2_4_17
 t2_4_18
 t2_4_19
 t2_4_20
 t2_4_21
 t2_5_6
 t2_5_7
 t2_5_8
 t2_5_9
 t2_5_10
 t2_5_11
 t2_5_12
 t2_5_13
 t2_5_14
 t2_5_15
 t2_5_16
 t2_5_17
 t2_5_18
 t2_5_19
 t2_5_20
 t2_5_21
 t2_6_7
 t2_6_8
 t2_6_9
 t2_6_10
 t2_6_11
 t2_6_12
 t2_6_13
 t2_6_14
 t2_6_15
 t2_6_16
 t2_6_17
 t2_6_18
 t2_6_19
 t2_6_20
 t2_6_21
 t2_7_8
 t2_7_9
 t2_7_10
 t2_7_11
 t2_7_12
 t2_7_13
 t2_7_14
 t2_7_15
 t2_7_16
 t2_7_17
 t2_7_18
 t2_7_19
 t2_7_20
 t2_7_21
 t2_8_9
 t2_8_10
 t2_8_11
 t2_8_12
 t2_8_13
 t2_8_14
 t2_8_15
 t2_8_16
 t2_8_17
 t2_8_18
 t2_8_19
 t2_8_20
 t2_8_21
 t2_9_10
 t2_9_11
 t2_9_12
 t2_9_13
 t2_9_14
 t2_9_15
 t2_9_16
 t2_9_17
 t2_9_18
 t2_9_19
 t2_9_20
 t2_9_21
 t2_10_11
 t2_10_12
 t2_10_13
 t2_10_14
 t2_10_15
 t2_10_16
 t2_10_17
 t2_10_18
 t2_10_19
 t2_10_20
 t2_10_21
 t2_11_12
 t2_11_13
 t2_11_14
 t2_11_15
 t2_11_16
 t2_11_17
 t2_11_18
 t2_11_19
 t2_11_20
 t2_11_21
 t2_12_13
 t2_12_14
 t2_12_15
 t2_12_16
 t2_12_17
 t2_12_18
 t2_12_19
 t2_12_20
 t2_12_21
 t2_13_14
 t2_13_15
 t2_13_16
 t2_13_17
 t2_13_18
 t2_13_19
 t2_13_20
 t2_13_21
 t2_14_15
 t2_14_16
 t2_14_17
 t2_14_18
 t2_14_19
 t2_14_20
 t2_14_21
 t2_15_16
 t2_15_17
 t2_15_18
 t2_15_19
 t2_15_20
 t2_15_21
 t2_16_17
 t2_16_18
 t2_16_19
 t2_16_20
 t2_16_21
 t2_17_18
 t2_17_19
 t2_17_20
 t2_17_21
 t2_18_19
 t2_18_20
 t2_18_21
 t2_19_20
 t2_19_21
 t2_20_21
 t3_4_5
 t3_4_6
 t3_4_7
 t3_4_8
 t3_4_9
 t3_4_10
 t3_4_11
 t3_4_12
 t3_4_13
 t3_4_14
 t3_4_15
 t3_4_16
 t3_4_17
 t3_4_18
 t3_4_19
 t3_4_20
 t3_4_21
 t3_5_6
 t3_5_7
 t3_5_8
 t3_5_9
 t3_5_10
 t3_5_11
 t3_5_12
 t3_5_13
 t3_5_14
 t3_5_15
 t3_5_16
 t3_5_17
 t3_5_18
 t3_5_19
 t3_5_20
 t3_5_21
 t3_6_7
 t3_6_8
 t3_6_9
 t3_6_10
 t3_6_11
 t3_6_12
 t3_6_13
 t3_6_14
 t3_6_15
 t3_6_16
 t3_6_17
 t3_6_18
 t3_6_19
 t3_6_20
 t3_6_21
 t3_7_8
 t3_7_9
 t3_7_10
 t3_7_11
 t3_7_12
 t3_7_13
 t3_7_14
 t3_7_15
 t3_7_16
 t3_7_17
 t3_7_18
 t3_7_19
 t3_7_20
 t3_7_21
 t3_8_9
 t3_8_10
 t3_8_11
 t3_8_12
 t3_8_13
 t3_8_14
 t3_8_15
 t3_8_16
 t3_8_17
 t3_8_18
 t3_8_19
 t3_8_20
 t3_8_21
 t3_9_10
 t3_9_11
 t3_9_12
 t3_9_13
 t3_9_14
 t3_9_15
 t3_9_16
 t3_9_17
 t3_9_18
 t3_9_19
 t3_9_20
 t3_9_21
 t3_10_11
 t3_10_12
 t3_10_13
 t3_10_14
 t3_10_15
 t3_10_16
 t3_10_17
 t3_10_18
 t3_10_19
 t3_10_20
 t3_10_21
 t3_11_12
 t3_11_13
 t3_11_14
 t3_11_15
 t3_11_16
 t3_11_17
 t3_11_18
 t3_11_19
 t3_11_20
 t3_11_21
 t3_12_13
 t3_12_14
 t3_12_15
 t3_12_16
 t3_12_17
 t3_12_18
 t3_12_19
 t3_12_20
 t3_12_21
 t3_13_14
 t3_13_15
 t3_13_16
 t3_13_17
 t3_13_18
 t3_13_19
 t3_13_20
 t3_13_21
 t3_14_15
 t3_14_16
 t3_14_17
 t3_14_18
 t3_14_19
 t3_14_20
 t3_14_21
 t3_15_16
 t3_15_17
 t3_15_18
 t3_15_19
 t3_15_20
 t3_15_21
 t3_16_17
 t3_16_18
 t3_16_19
 t3_16_20
 t3_16_21
 t3_17_18
 t3_17_19
 t3_17_20
 t3_17_21
 t3_18_19
 t3_18_20
 t3_18_21
 t3_19_20
 t3_19_21
 t3_20_21
 t4_5_6
 t4_5_7
 t4_5_8
 t4_5_9
 t4_5_10
 t4_5_11
 t4_5_12
 t4_5_13
 t4_5_14
 t4_5_15
 t4_5_16
 t4_5_17
 t4_5_18
 t4_5_19
 t4_5_20
 t4_5_21
 t4_6_7
 t4_6_8
 t4_6_9
 t4_6_10
 t4_6_11
 t4_6_12
 t4_6_13
 t4_6_14
 t4_6_15
 t4_6_16
 t4_6_17
 t4_6_18
 t4_6_19
 t4_6_20
 t4_6_21
 t4_7_8
 t4_7_9
 t4_7_10
 t4_7_11
 t4_7_12
 t4_7_13
 t4_7_14
 t4_7_15
 t4_7_16
 t4_7_17
 t4_7_18
 t4_7_19
 t4_7_20
 t4_7_21
 t4_8_9
 t4_8_10
 t4_8_11
 t4_8_12
 t4_8_13
 t4_8_14
 t4_8_15
 t4_8_16
 t4_8_17
 t4_8_18
 t4_8_19
 t4_8_20
 t4_8_21
 t4_9_10
 t4_9_11
 t4_9_12
 t4_9_13
 t4_9_14
 t4_9_15
 t4_9_16
 t4_9_17
 t4_9_18
 t4_9_19
 t4_9_20
 t4_9_21
 t4_10_11
 t4_10_12
 t4_10_13
 t4_10_14
 t4_10_15
 t4_10_16
 t4_10_17
 t4_10_18
 t4_10_19
 t4_10_20
 t4_10_21
 t4_11_12
 t4_11_13
 t4_11_14
 t4_11_15
 t4_11_16
 t4_11_17
 t4_11_18
 t4_11_19
 t4_11_20
 t4_11_21
 t4_12_13
 t4_12_14
 t4_12_15
 t4_12_16
 t4_12_17
 t4_12_18
 t4_12_19
 t4_12_20
 t4_12_21
 t4_13_14
 t4_13_15
 t4_13_16
 t4_13_17
 t4_13_18
 t4_13_19
 t4_13_20
 t4_13_21
 t4_14_15
 t4_14_16
 t4_14_17
 t4_14_18
 t4_14_19
 t4_14_20
 t4_14_21
 t4_15_16
 t4_15_17
 t4_15_18
 t4_15_19
 t4_15_20
 t4_15_21
 t4_16_17
 t4_16_18
 t4_16_19
 t4_16_20
 t4_16_21
 t4_17_18
 t4_17_19
 t4_17_20
 t4_17_21
 t4_18_19
 t4_18_20
 t4_18_21
 t4_19_20
 t4_19_21
 t4_20_21
 t5_6_7
 t5_6_8
 t5_6_9
 t5_6_10
 t5_6_11
 t5_6_12
 t5_6_13
 t5_6_14
 t5_6_15
 t5_6_16
 t5_6_17
 t5_6_18
 t5_6_19
 t5_6_20
 t5_6_21
 t5_7_8
 t5_7_9
 t5_7_10
 t5_7_11
 t5_7_12
 t5_7_13
 t5_7_14
 t5_7_15
 t5_7_16
 t5_7_17
 t5_7_18
 t5_7_19
 t5_7_20
 t5_7_21
 t5_8_9
 t5_8_10
 t5_8_11
 t5_8_12
 t5_8_13
 t5_8_14
 t5_8_15
 t5_8_16
 t5_8_17
 t5_8_18
 t5_8_19
 t5_8_20
 t5_8_21
 t5_9_10
 t5_9_11
 t5_9_12
 t5_9_13
 t5_9_14
 t5_9_15
 t5_9_16
 t5_9_17
 t5_9_18
 t5_9_19
 t5_9_20
 t5_9_21
 t5_10_11
 t5_10_12
 t5_10_13
 t5_10_14
 t5_10_15
 t5_10_16
 t5_10_17
 t5_10_18
 t5_10_19
 t5_10_20
 t5_10_21
 t5_11_12
 t5_11_13
 t5_11_14
 t5_11_15
 t5_11_16
 t5_11_17
 t5_11_18
 t5_11_19
 t5_11_20
 t5_11_21
 t5_12_13
 t5_12_14
 t5_12_15
 t5_12_16
 t5_12_17
 t5_12_18
 t5_12_19
 t5_12_20
 t5_12_21
 t5_13_14
 t5_13_15
 t5_13_16
 t5_13_17
 t5_13_18
 t5_13_19
 t5_13_20
 t5_13_21
 t5_14_15
 t5_14_16
 t5_14_17
 t5_14_18
 t5_14_19
 t5_14_20
 t5_14_21
 t5_15_16
 t5_15_17
 t5_15_18
 t5_15_19
 t5_15_20
 t5_15_21
 t5_16_17
 t5_16_18
 t5_16_19
 t5_16_20
 t5_16_21
 t5_17_18
 t5_17_19
 t5_17_20
 t5_17_21
 t5_18_19
 t5_18_20
 t5_18_21
 t5_19_20
 t5_19_21
 t5_20_21
 t6_7_8
 t6_7_9
 t6_7_10
 t6_7_11
 t6_7_12
 t6_7_13
 t6_7_14
 t6_7_15
 t6_7_16
 t6_7_17
 t6_7_18
 t6_7_19
 t6_7_20
 t6_7_21
 t6_8_9
 t6_8_10
 t6_8_11
 t6_8_12
 t6_8_13
 t6_8_14
 t6_8_15
 t6_8_16
 t6_8_17
 t6_8_18
 t6_8_19
 t6_8_20
 t6_8_21
 t6_9_10
 t6_9_11
 t6_9_12
 t6_9_13
 t6_9_14
 t6_9_15
 t6_9_16
 t6_9_17
 t6_9_18
 t6_9_19
 t6_9_20
 t6_9_21
 t6_10_11
 t6_10_12
 t6_10_13
 t6_10_14
 t6_10_15
 t6_10_16
 t6_10_17
 t6_10_18
 t6_10_19
 t6_10_20
 t6_10_21
 t6_11_12
 t6_11_13
 t6_11_14
 t6_11_15
 t6_11_16
 t6_11_17
 t6_11_18
 t6_11_19
 t6_11_20
 t6_11_21
 t6_12_13
 t6_12_14
 t6_12_15
 t6_12_16
 t6_12_17
 t6_12_18
 t6_12_19
 t6_12_20
 t6_12_21
 t6_13_14
 t6_13_15
 t6_13_16
 t6_13_17
 t6_13_18
 t6_13_19
 t6_13_20
 t6_13_21
 t6_14_15
 t6_14_16
 t6_14_17
 t6_14_18
 t6_14_19
 t6_14_20
 t6_14_21
 t6_15_16
 t6_15_17
 t6_15_18
 t6_15_19
 t6_15_20
 t6_15_21
 t6_16_17
 t6_16_18
 t6_16_19
 t6_16_20
 t6_16_21
 t6_17_18
 t6_17_19
 t6_17_20
 t6_17_21
 t6_18_19
 t6_18_20
 t6_18_21
 t6_19_20
 t6_19_21
 t6_20_21
 t7_8_9
 t7_8_10
 t7_8_11
 t7_8_12
 t7_8_13
 t7_8_14
 t7_8_15
 t7_8_16
 t7_8_17
 t7_8_18
 t7_8_19
 t7_8_20
 t7_8_21
 t7_9_10
 t7_9_11
 t7_9_12
 t7_9_13
 t7_9_14
 t7_9_15
 t7_9_16
 t7_9_17
 t7_9_18
 t7_9_19
 t7_9_20
 t7_9_21
 t7_10_11
 t7_10_12
 t7_10_13
 t7_10_14
 t7_10_15
 t7_10_16
 t7_10_17
 t7_10_18
 t7_10_19
 t7_10_20
 t7_10_21
 t7_11_12
 t7_11_13
 t7_11_14
 t7_11_15
 t7_11_16
 t7_11_17
 t7_11_18
 t7_11_19
 t7_11_20
 t7_11_21
 t7_12_13
 t7_12_14
 t7_12_15
 t7_12_16
 t7_12_17
 t7_12_18
 t7_12_19
 t7_12_20
 t7_12_21
 t7_13_14
 t7_13_15
 t7_13_16
 t7_13_17
 t7_13_18
 t7_13_19
 t7_13_20
 t7_13_21
 t7_14_15
 t7_14_16
 t7_14_17
 t7_14_18
 t7_14_19
 t7_14_20
 t7_14_21
 t7_15_16
 t7_15_17
 t7_15_18
 t7_15_19
 t7_15_20
 t7_15_21
 t7_16_17
 t7_16_18
 t7_16_19
 t7_16_20
 t7_16_21
 t7_17_18
 t7_17_19
 t7_17_20
 t7_17_21
 t7_18_19
 t7_18_20
 t7_18_21
 t7_19_20
 t7_19_21
 t7_20_21
 t8_9_10
 t8_9_11
 t8_9_12
 t8_9_13
 t8_9_14
 t8_9_15
 t8_9_16
 t8_9_17
 t8_9_18
 t8_9_19
 t8_9_20
 t8_9_21
 t8_10_11
 t8_10_12
 t8_10_13
 t8_10_14
 t8_10_15
 t8_10_16
 t8_10_17
 t8_10_18
 t8_10_19
 t8_10_20
 t8_10_21
 t8_11_12
 t8_11_13
 t8_11_14
 t8_11_15
 t8_11_16
 t8_11_17
 t8_11_18
 t8_11_19
 t8_11_20
 t8_11_21
 t8_12_13
 t8_12_14
 t8_12_15
 t8_12_16
 t8_12_17
 t8_12_18
 t8_12_19
 t8_12_20
 t8_12_21
 t8_13_14
 t8_13_15
 t8_13_16
 t8_13_17
 t8_13_18
 t8_13_19
 t8_13_20
 t8_13_21
 t8_14_15
 t8_14_16
 t8_14_17
 t8_14_18
 t8_14_19
 t8_14_20
 t8_14_21
 t8_15_16
 t8_15_17
 t8_15_18
 t8_15_19
 t8_15_20
 t8_15_21
 t8_16_17
 t8_16_18
 t8_16_19
 t8_16_20
 t8_16_21
 t8_17_18
 t8_17_19
 t8_17_20
 t8_17_21
 t8_18_19
 t8_18_20
 t8_18_21
 t8_19_20
 t8_19_21
 t8_20_21
 t9_10_11
 t9_10_12
 t9_10_13
 t9_10_14
 t9_10_15
 t9_10_16
 t9_10_17
 t9_10_18
 t9_10_19
 t9_10_20
 t9_10_21
 t9_11_12
 t9_11_13
 t9_11_14
 t9_11_15
 t9_11_16
 t9_11_17
 t9_11_18
 t9_11_19
 t9_11_20
 t9_11_21
 t9_12_13
 t9_12_14
 t9_12_15
 t9_12_16
 t9_12_17
 t9_12_18
 t9_12_19
 t9_12_20
 t9_12_21
 t9_13_14
 t9_13_15
 t9_13_16
 t9_13_17
 t9_13_18
 t9_13_19
 t9_13_20
 t9_13_21
 t9_14_15
 t9_14_16
 t9_14_17
 t9_14_18
 t9_14_19
 t9_14_20
 t9_14_21
 t9_15_16
 t9_15_17
 t9_15_18
 t9_15_19
 t9_15_20
 t9_15_21
 t9_16_17
 t9_16_18
 t9_16_19
 t9_16_20
 t9_16_21
 t9_17_18
 t9_17_19
 t9_17_20
 t9_17_21
 t9_18_19
 t9_18_20
 t9_18_21
 t9_19_20
 t9_19_21
 t9_20_21
 t10_11_12
 t10_11_13
 t10_11_14
 t10_11_15
 t10_11_16
 t10_11_17
 t10_11_18
 t10_11_19
 t10_11_20
 t10_11_21
 t10_12_13
 t10_12_14
 t10_12_15
 t10_12_16
 t10_12_17
 t10_12_18
 t10_12_19
 t10_12_20
 t10_12_21
 t10_13_14
 t10_13_15
 t10_13_16
 t10_13_17
 t10_13_18
 t10_13_19
 t10_13_20
 t10_13_21
 t10_14_15
 t10_14_16
 t10_14_17
 t10_14_18
 t10_14_19
 t10_14_20
 t10_14_21
 t10_15_16
 t10_15_17
 t10_15_18
 t10_15_19
 t10_15_20
 t10_15_21
 t10_16_17
 t10_16_18
 t10_16_19
 t10_16_20
 t10_16_21
 t10_17_18
 t10_17_19
 t10_17_20
 t10_17_21
 t10_18_19
 t10_18_20
 t10_18_21
 t10_19_20
 t10_19_21
 t10_20_21
 t11_12_13
 t11_12_14
 t11_12_15
 t11_12_16
 t11_12_17
 t11_12_18
 t11_12_19
 t11_12_20
 t11_12_21
 t11_13_14
 t11_13_15
 t11_13_16
 t11_13_17
 t11_13_18
 t11_13_19
 t11_13_20
 t11_13_21
 t11_14_15
 t11_14_16
 t11_14_17
 t11_14_18
 t11_14_19
 t11_14_20
 t11_14_21
 t11_15_16
 t11_15_17
 t11_15_18
 t11_15_19
 t11_15_20
 t11_15_21
 t11_16_17
 t11_16_18
 t11_16_19
 t11_16_20
 t11_16_21
 t11_17_18
 t11_17_19
 t11_17_20
 t11_17_21
 t11_18_19
 t11_18_20
 t11_18_21
 t11_19_20
 t11_19_21
 t11_20_21
 t12_13_14
 t12_13_15
 t12_13_16
 t12_13_17
 t12_13_18
 t12_13_19
 t12_13_20
 t12_13_21
 t12_14_15
 t12_14_16
 t12_14_17
 t12_14_18
 t12_14_19
 t12_14_20
 t12_14_21
 t12_15_16
 t12_15_17
 t12_15_18
 t12_15_19
 t12_15_20
 t12_15_21
 t12_16_17
 t12_16_18
 t12_16_19
 t12_16_20
 t12_16_21
 t12_17_18
 t12_17_19
 t12_17_20
 t12_17_21
 t12_18_19
 t12_18_20
 t12_18_21
 t12_19_20
 t12_19_21
 t12_20_21
 t13_14_15
 t13_14_16
 t13_14_17
 t13_14_18
 t13_14_19
 t13_14_20
 t13_14_21
 t13_15_16
 t13_15_17
 t13_15_18
 t13_15_19
 t13_15_20
 t13_15_21
 t13_16_17
 t13_16_18
 t13_16_19
 t13_16_20
 t13_16_21
 t13_17_18
 t13_17_19
 t13_17_20
 t13_17_21
 t13_18_19
 t13_18_20
 t13_18_21
 t13_19_20
 t13_19_21
 t13_20_21
 t14_15_16
 t14_15_17
 t14_15_18
 t14_15_19
 t14_15_20
 t14_15_21
 t14_16_17
 t14_16_18
 t14_16_19
 t14_16_20
 t14_16_21
 t14_17_18
 t14_17_19
 t14_17_20
 t14_17_21
 t14_18_19
 t14_18_20
 t14_18_21
 t14_19_20
 t14_19_21
 t14_20_21
 t15_16_17
 t15_16_18
 t15_16_19
 t15_16_20
 t15_16_21
 t15_17_18
 t15_17_19
 t15_17_20
 t15_17_21
 t15_18_19
 t15_18_20
 t15_18_21
 t15_19_20
 t15_19_21
 t15_20_21
 t16_17_18
 t16_17_19
 t16_17_20
 t16_17_21
 t16_18_19
 t16_18_20
 t16_18_21
 t16_19_20
 t16_19_21
 t16_20_21
 t17_18_19
 t17_18_20
 t17_18_21
 t17_19_20
 t17_19_21
 t17_20_21
 t18_19_20
 t18_19_21
 t18_20_21
 t19_20_21

b_1_4
b_1_5
b_1_6
b_1_7
b_1_8
b_1_9
b_1_10
b_1_11
b_1_12
b_1_13
b_1_14
b_1_15
b_1_16
b_1_17
b_1_18
b_1_19
b_1_20
b_1_21
b_2_4
b_2_5
b_2_6
b_2_7
b_2_8
b_2_9
b_2_10
b_2_11
b_2_12
b_2_13
b_2_14
b_2_15
b_2_16
b_2_17
b_2_18
b_2_19
b_2_20
b_2_21
b_3_4
b_3_5
b_3_6
b_3_7
b_3_8
b_3_9
b_3_10
b_3_11
b_3_12
b_3_13
b_3_14
b_3_15
b_3_16
b_3_17
b_3_18
b_3_19
b_3_20
b_3_21
b_4_9
b_4_10
b_4_11
b_4_12
b_4_13
b_4_14
b_4_15
b_4_16
b_4_17
b_4_18
b_4_19
b_4_20
b_4_21
b_5_9
b_5_10
b_5_11
b_5_12
b_5_13
b_5_14
b_5_15
b_5_16
b_5_17
b_5_18
b_5_19
b_5_20
b_5_21
b_6_9
b_6_10
b_6_11
b_6_12
b_6_13
b_6_14
b_6_15
b_6_16
b_6_17
b_6_18
b_6_19
b_6_20
b_6_21
b_7_9
b_7_10
b_7_11
b_7_12
b_7_13
b_7_14
b_7_15
b_7_16
b_7_17
b_7_18
b_7_19
b_7_20
b_7_21
b_8_9
b_8_10
b_8_11
b_8_12
b_8_13
b_8_14
b_8_15
b_8_16
b_8_17
b_8_18
b_8_19
b_8_20
b_8_21
b_10_15
b_10_16
b_10_17
b_10_18
b_10_19
b_10_20
b_10_21
b_11_15
b_11_16
b_11_17
b_11_18
b_11_19
b_11_20
b_11_21
b_12_15
b_12_16
b_12_17
b_12_18
b_12_19
b_12_20
b_12_21
b_13_15
b_13_16
b_13_17
b_13_18
b_13_19
b_13_20
b_13_21
b_14_15
b_14_16
b_14_17
b_14_18
b_14_19
b_14_20
b_14_21


General
 d0
 d1
 d2
 d3
 d4
 d5
 d6
 d7
 d8
 d9
 d10
 d11
 d12
 d13
 d14
 d15
 d16
 d17
 d18
 d19
 d20
 d21

 T

End
